@relation problema
@attribute 'pkg' real
@attribute 'cores' real
@attribute 'ram' real
@attribute 'gpu' real
@attribute 'psys' real
@attribute 'duration_time' real
@attribute 'user_time' real
@attribute 'system_time' real
@attribute 'class' {0,1,2,3,4,5,6,7,8,9,10,11,12,13,14,15,16,17,18,19,20,21,22,23,24,25,26,27,28,29,30,31}
@data
3.01,2.42,0.00,0.05,0.00,150832011,124496000,26104000,0
0.63,0.48,0.00,0.01,0.00,36541783,35564000,987000,0
3.00,2.42,0.00,0.05,0.00,146846431,112636000,34193000,0
3.10,2.50,0.00,0.05,0.00,150247172,133223000,17028000,0
3.02,2.44,0.00,0.05,0.00,148821328,128982000,19843000,0
1.78,1.42,0.00,0.03,0.00,91703462,60814000,30905000,0
2.93,2.36,0.00,0.05,0.00,143419099,115529000,27886000,0
3.06,2.47,0.00,0.05,0.00,150154438,111077000,39027000,0
2.86,2.27,0.00,0.05,0.00,147550855,113415000,34125000,0
0.67,0.51,0.00,0.01,0.00,38196557,37208000,1005000,0
3.07,2.48,0.00,0.05,0.00,148028044,124986000,22997000,0
0.64,0.50,0.00,0.01,0.00,35145781,34001000,1000000,0
3.08,2.48,0.00,0.05,0.00,150264019,120231000,30057000,0
3.05,2.47,0.00,0.05,0.00,147160193,116331000,30822000,0
0.60,0.46,0.00,0.01,0.00,35503739,34511000,986000,0
1.92,1.54,0.00,0.03,0.00,96157247,95161000,1001000,0
3.08,2.48,0.00,0.05,0.00,149467658,114606000,34880000,0
3.16,2.56,0.00,0.05,0.00,150968664,121713000,29171000,0
3.05,2.45,0.00,0.05,0.00,149304340,129434000,19913000,0
3.09,2.52,0.00,0.05,0.00,143383353,122333000,21057000,0
1.88,1.61,0.00,0.02,0.00,67888158,66640000,1009000,1
5.25,4.14,0.00,0.10,0.00,283376907,281414000,1995000,1
9.65,7.65,0.00,0.17,0.00,506666332,506604000,0,1
0.82,0.64,0.00,0.02,0.00,45777810,44779000,995000,1
1.20,0.94,0.00,0.02,0.00,65351300,63389000,1980000,1
10.08,8.09,0.00,0.17,0.00,499356094,499323000,0,1
1.22,0.97,0.00,0.02,0.00,62198797,62172000,0,1
1.18,0.92,0.00,0.02,0.00,66513110,63581000,2980000,1
0.85,0.66,0.00,0.02,0.00,46834159,44906000,1995000,1
1.18,0.91,0.00,0.02,0.00,66883142,65897000,998000,1
1.23,0.96,0.00,0.02,0.00,67620678,66629000,994000,1
2.62,2.13,0.00,0.04,0.00,124353161,122369000,1989000,1
0.48,0.36,0.00,0.01,0.00,29143418,27133000,2009000,1
0.75,0.59,0.00,0.01,0.00,40601421,40589000,0,1
1.28,0.99,0.00,0.02,0.00,71978510,68991000,2956000,1
9.72,7.71,0.00,0.17,0.00,509182160,506099000,2994000,1
1.20,0.95,0.00,0.02,0.00,63162790,61067000,2002000,1
1.35,1.08,0.00,0.02,0.00,69672138,67734000,1963000,1
1.24,0.99,0.00,0.02,0.00,62595244,62603000,0,1
0.63,0.49,0.00,0.01,0.00,35721366,32873000,2900000,1
0.72,0.54,0.00,0.02,0.00,45160814,40949000,3899000,2
0.78,0.61,0.00,0.01,0.00,42558461,37583000,4945000,2
0.80,0.63,0.00,0.01,0.00,43083293,40164000,2938000,2
1.84,1.51,0.00,0.03,0.00,81980052,80928000,999000,2
0.74,0.56,0.00,0.02,0.00,43604346,41622000,1982000,2
0.77,0.60,0.00,0.01,0.00,42896558,39906000,2992000,2
1.88,1.52,0.00,0.03,0.00,91631780,86631000,4978000,2
1.77,1.42,0.00,0.03,0.00,87482878,84499000,2982000,2
0.74,0.57,0.00,0.01,0.00,41912083,40973000,975000,2
0.87,0.68,0.00,0.02,0.00,48918502,47939000,998000,2
1.77,1.41,0.00,0.03,0.00,88583794,84611000,3981000,2
1.84,1.48,0.00,0.03,0.00,91227915,87256000,4011000,2
0.80,0.66,0.00,0.01,0.00,40412800,38268000,2014000,2
1.78,1.43,0.00,0.03,0.00,87940525,83961000,3998000,2
1.77,1.42,0.00,0.03,0.00,89578636,86591000,2985000,2
1.76,1.41,0.00,0.03,0.00,88280218,83307000,4958000,2
1.73,1.39,0.00,0.03,0.00,85358128,84310000,1003000,2
0.87,0.67,0.00,0.02,0.00,49396176,44355000,5040000,2
1.98,1.56,0.00,0.04,0.00,103630893,99408000,4016000,2
1.74,1.39,0.00,0.03,0.00,87666458,84732000,2990000,2
5.30,4.25,0.00,0.09,0.00,265281334,207754000,57207000,3
6.31,5.09,0.00,0.10,0.00,307176022,256139000,51027000,3
2.62,2.06,0.00,0.05,0.00,137830603,127772000,10060000,3
6.58,5.31,0.00,0.11,0.00,320879131,267722000,53143000,3
6.22,4.96,0.00,0.11,0.00,312713307,253576000,59134000,3
3.99,3.22,0.00,0.07,0.00,192688228,187712000,5019000,3
2.35,1.87,0.00,0.04,0.00,121113033,116090000,5003000,3
6.51,5.25,0.00,0.11,0.00,315506213,266575000,48922000,3
7.94,6.61,0.00,0.11,0.00,320683191,280696000,39956000,3
2.12,1.66,0.00,0.04,0.00,114588440,108628000,5979000,3
2.40,1.90,0.00,0.04,0.00,122546795,114555000,7969000,3
2.15,1.69,0.00,0.04,0.00,113857143,104855000,8987000,3
4.67,3.73,0.00,0.08,0.00,234361161,177269000,57086000,3
2.56,2.02,0.00,0.04,0.00,131684584,120693000,10972000,3
2.38,1.89,0.00,0.04,0.00,122153270,119191000,3004000,3
6.62,5.35,0.00,0.11,0.00,317316403,263416000,53880000,3
2.41,1.91,0.00,0.04,0.00,123225195,119197000,4006000,3
6.45,5.20,0.00,0.11,0.00,312423620,253246000,59057000,3
2.12,1.69,0.00,0.04,0.00,107409657,104414000,2983000,3
4.70,3.77,0.00,0.08,0.00,230364534,176184000,54056000,3
4.72,3.68,0.00,0.09,0.00,260067212,92377000,14057000,4
6.02,4.79,0.00,0.10,0.00,304976066,173684000,12958000,4
4.62,3.66,0.00,0.08,0.00,237670417,99967000,19612000,4
2.66,2.07,0.00,0.05,0.00,143802618,131786000,11980000,4
2.48,1.95,0.00,0.04,0.00,129476899,123438000,6021000,4
4.94,3.89,0.00,0.09,0.00,255845151,127513000,10040000,4
2.58,2.03,0.00,0.05,0.00,133933495,127884000,5994000,4
3.05,2.41,0.00,0.05,0.00,154058715,147036000,7001000,4
6.14,4.92,0.00,0.10,0.00,300481387,176416000,5370000,4
6.69,5.29,0.00,0.12,0.00,340795343,206617000,15044000,4
4.34,3.43,0.00,0.08,0.00,221993290,90414000,13909000,4
4.36,3.48,0.00,0.07,0.00,217152760,211120000,6003000,4
4.29,3.40,0.00,0.07,0.00,217534296,84971000,12995000,4
4.43,3.52,0.00,0.08,0.00,225098077,98895000,7063000,4
5.33,4.22,0.00,0.09,0.00,270113422,135052000,13005000,4
4.36,3.45,0.00,0.08,0.00,223429249,88929000,17985000,4
6.26,5.03,0.00,0.10,0.00,302964166,174736000,10042000,4
5.08,4.01,0.00,0.09,0.00,259447738,128759000,12071000,4
5.56,4.40,0.00,0.10,0.00,281046795,146764000,15078000,4
4.44,3.51,0.00,0.08,0.00,225671343,93431000,13915000,4
4.77,3.68,0.00,0.09,0.00,268962267,97722000,14957000,5
4.39,3.48,0.00,0.08,0.00,224558436,91713000,15685000,5
4.34,3.44,0.00,0.08,0.00,221780743,88442000,15075000,5
3.31,2.60,0.00,0.06,0.00,175715914,167770000,7989000,5
6.27,5.01,0.00,0.11,0.00,311366871,182824000,10953000,5
7.67,6.11,0.00,0.13,0.00,382752888,246021000,18075000,5
4.48,3.55,0.00,0.08,0.00,227728497,94881000,15140000,5
6.73,5.37,0.00,0.11,0.00,335195670,205844000,10991000,5
4.27,3.37,0.00,0.07,0.00,219054708,90096000,11135000,5
3.74,2.94,0.00,0.07,0.00,191824111,181837000,9991000,5
3.72,2.92,0.00,0.07,0.00,193233179,182225000,11013000,5
6.82,5.39,0.00,0.12,0.00,344425485,332340000,11976000,5
4.21,3.33,0.00,0.07,0.00,216084542,88085000,9255000,5
4.47,3.53,0.00,0.08,0.00,228848934,98272000,14183000,5
6.22,4.98,0.00,0.10,0.00,304401590,169129000,16912000,5
3.90,3.06,0.00,0.07,0.00,200990016,191989000,8999000,5
3.99,3.15,0.00,0.07,0.00,205748885,78941000,8096000,5
4.47,3.58,0.00,0.07,0.00,217086386,89825000,15968000,5
4.66,3.68,0.00,0.08,0.00,235393389,103061000,15008000,5
4.40,3.49,0.00,0.08,0.00,221305463,89208000,13030000,5
4.97,3.90,0.00,0.09,0.00,265444779,99773000,9977000,6
1.95,1.57,0.00,0.03,0.00,96681445,93675000,3021000,6
6.58,5.21,0.00,0.11,0.00,337075073,326070000,11002000,6
5.75,4.68,0.00,0.09,0.00,272365927,269364000,3004000,6
1.69,1.36,0.00,0.03,0.00,84128341,79124000,5007000,6
8.97,7.10,0.00,0.15,0.00,451709575,431660000,20030000,6
11.46,9.16,0.00,0.19,0.00,563265142,540210000,23008000,6
8.57,6.78,0.00,0.15,0.00,431278348,414218000,17008000,6
5.55,4.50,0.00,0.09,0.00,262842370,258709000,3995000,6
9.23,7.44,0.00,0.15,0.00,438563240,303844000,15991000,6
3.14,2.50,0.00,0.05,0.00,155110542,148181000,6961000,6
5.77,4.71,0.00,0.09,0.00,267040566,261980000,4999000,6
7.09,5.74,0.00,0.11,0.00,333029125,327922000,4998000,6
3.37,2.69,0.00,0.06,0.00,163559185,155530000,7975000,6
7.96,6.42,0.00,0.13,0.00,380839758,367728000,13025000,6
2.53,2.01,0.00,0.04,0.00,124220148,116182000,8012000,6
2.65,2.11,0.00,0.04,0.00,130455598,120404000,9950000,6
9.02,7.13,0.00,0.15,0.00,451771127,429756000,21987000,6
7.15,5.79,0.00,0.12,0.00,339159127,329008000,10000000,6
1.85,1.49,0.00,0.03,0.00,90428073,82488000,7950000,6
2.90,2.31,0.00,0.05,0.00,148755262,147617000,1004000,7
7.60,6.10,0.00,0.12,0.00,346401839,203067000,143047000,7
7.87,6.35,0.00,0.12,0.00,357054877,217847000,138902000,7
10.00,8.08,0.00,0.16,0.00,480524858,283718000,196804000,7
5.83,4.71,0.00,0.09,0.00,276014202,143033000,133031000,7
8.47,6.83,0.00,0.13,0.00,386345247,239114000,147070000,7
4.32,3.54,0.00,0.07,0.00,198219649,195222000,3003000,7
8.10,6.58,0.00,0.12,0.00,353554872,201167000,152126000,7
7.68,6.20,0.00,0.12,0.00,349920730,212813000,136879000,7
2.69,2.18,0.00,0.04,0.00,128355391,127424000,1003000,7
7.89,6.35,0.00,0.12,0.00,359386890,215092000,144061000,7
6.85,5.57,0.00,0.11,0.00,317456516,173633000,143697000,7
4.32,3.54,0.00,0.07,0.00,194677919,192600000,1995000,7
2.97,2.31,0.00,0.05,0.00,159577593,2270000,6812000,7
3.31,2.68,0.00,0.05,0.00,159006985,158027000,1000000,7
4.51,3.66,0.00,0.07,0.00,208153899,61038000,147092000,7
7.91,6.37,0.00,0.12,0.00,358467909,217158000,141103000,7
3.43,2.79,0.00,0.05,0.00,159664707,158679000,997000,7
2.85,2.29,0.00,0.05,0.00,139156222,137212000,2003000,7
6.33,5.12,0.00,0.10,0.00,295864688,153923000,141929000,7
4.57,3.61,0.00,0.08,0.00,230008923,218567000,11028000,8
6.54,5.28,0.00,0.10,0.00,308497562,248595000,59902000,8
2.37,1.89,0.00,0.04,0.00,118224160,108156000,9922000,8
3.80,3.04,0.00,0.06,0.00,182801301,172802000,9988000,8
3.29,2.65,0.00,0.05,0.00,157192916,143166000,14016000,8
3.55,2.84,0.00,0.06,0.00,166553422,152637000,13966000,8
4.07,3.25,0.00,0.07,0.00,196767292,172862000,23843000,8
4.00,3.23,0.00,0.06,0.00,190179008,182153000,8006000,8
11.22,9.08,0.00,0.18,0.00,522126095,445115000,77019000,8
3.77,3.03,0.00,0.06,0.00,181273321,169380000,11956000,8
5.88,4.73,0.00,0.10,0.00,282303968,220438000,61842000,8
6.02,4.84,0.00,0.10,0.00,289218974,278182000,11007000,8
3.10,2.48,0.00,0.05,0.00,151349265,141328000,10023000,8
7.36,5.88,0.00,0.12,0.00,354623333,297469000,57090000,8
3.33,2.68,0.00,0.05,0.00,157938927,147874000,10059000,8
4.99,4.06,0.00,0.08,0.00,228588720,221545000,7017000,8
5.73,4.63,0.00,0.09,0.00,265167414,249043000,16002000,8
10.90,8.89,0.00,0.17,0.00,494897381,425801000,69130000,8
9.38,7.64,0.00,0.15,0.00,429311165,359344000,69872000,8
3.29,2.65,0.00,0.05,0.00,154240305,139282000,14923000,8
1.04,0.80,0.00,0.02,0.00,59425496,57240000,2044000,9
0.40,0.30,0.00,0.01,0.00,24704757,16785000,7898000,9
0.30,0.22,0.00,0.01,0.00,18630522,18611000,0,9
0.09,0.07,0.00,0.00,0.00,5206566,1757000,3514000,9
0.30,0.23,0.00,0.01,0.00,17806293,16826000,989000,9
0.09,0.07,0.00,0.00,0.00,4920009,2918000,1945000,9
1.09,0.86,0.00,0.02,0.00,57650603,54707000,2984000,9
1.04,0.80,0.00,0.02,0.00,60249315,56279000,3949000,9
0.46,0.36,0.00,0.01,0.00,26412962,22504000,3913000,9
0.09,0.07,0.00,0.00,0.00,4005051,1004000,3014000,9
0.51,0.39,0.00,0.01,0.00,29208664,25184000,4029000,9
0.39,0.30,0.00,0.01,0.00,22489541,17377000,5111000,9
0.29,0.21,0.00,0.01,0.00,19196688,16192000,2857000,9
0.10,0.08,0.00,0.00,0.00,5646718,2833000,2833000,9
0.45,0.33,0.00,0.01,0.00,29044219,27061000,1932000,9
0.44,0.33,0.00,0.01,0.00,26698992,24711000,2059000,9
1.18,0.94,0.00,0.02,0.00,62653531,59545000,3129000,9
0.38,0.30,0.00,0.01,0.00,19342676,16212000,3039000,9
0.32,0.24,0.00,0.01,0.00,19602539,17553000,2065000,9
0.35,0.28,0.00,0.01,0.00,16872273,15735000,1049000,9
1.08,0.84,0.00,0.02,0.00,61029256,53643000,7084000,10
2.55,2.06,0.00,0.04,0.00,124619734,122545000,2008000,10
1.13,0.89,0.00,0.02,0.00,60112224,52089000,8013000,10
3.06,2.47,0.00,0.05,0.00,145863109,138822000,7041000,10
2.17,1.72,0.00,0.04,0.00,109447674,102406000,7027000,10
1.57,1.23,0.00,0.03,0.00,81784332,74833000,6984000,10
2.46,2.07,0.00,0.03,0.00,91839460,82841000,8982000,10
1.79,1.39,0.00,0.03,0.00,97049792,81052000,16010000,10
3.37,2.73,0.00,0.05,0.00,156957320,145965000,10997000,10
3.02,2.38,0.00,0.05,0.00,153536158,140432000,13040000,10
2.51,2.02,0.00,0.04,0.00,124643144,117692000,6981000,10
2.54,2.08,0.00,0.04,0.00,121806521,115665000,5982000,10
1.83,1.44,0.00,0.03,0.00,95196460,83179000,12025000,10
1.82,1.43,0.00,0.03,0.00,94590714,84522000,10062000,10
3.25,2.61,0.00,0.05,0.00,157671739,147496000,9965000,10
3.27,2.62,0.00,0.05,0.00,160000898,150002000,10000000,10
3.83,3.08,0.00,0.06,0.00,183129833,171229000,11946000,10
1.10,0.86,0.00,0.02,0.00,59460355,53517000,5946000,10
2.66,2.14,0.00,0.04,0.00,127739882,120744000,6985000,10
1.94,1.52,0.00,0.03,0.00,101503765,89562000,11941000,10
1.14,0.89,0.00,0.02,0.00,62643383,61324000,1005000,11
1.26,0.99,0.00,0.02,0.00,68500472,66520000,2015000,11
10.88,8.76,0.00,0.18,0.00,535550325,534463000,998000,11
1.24,0.98,0.00,0.02,0.00,63644826,62665000,994000,11
1.87,1.50,0.00,0.03,0.00,92534760,91542000,1005000,11
1.11,0.89,0.00,0.02,0.00,55980694,54954000,999000,11
1.38,1.11,0.00,0.02,0.00,67970691,65989000,1999000,11
0.08,0.06,0.00,0.00,0.00,4854479,3680000,1226000,11
1.19,0.95,0.00,0.02,0.00,61126988,59141000,2004000,11
1.90,1.53,0.00,0.03,0.00,93745619,92768000,1008000,11
1.19,0.94,0.00,0.02,0.00,63495248,62497000,1008000,11
2.03,1.64,0.00,0.03,0.00,99511473,97539000,1990000,11
7.59,6.08,0.00,0.12,0.00,347937852,185495000,162434000,11
1.20,0.96,0.00,0.02,0.00,60605159,59612000,993000,11
1.50,1.19,0.00,0.03,0.00,77600291,76666000,995000,11
1.28,1.02,0.00,0.02,0.00,65014405,63035000,2001000,11
1.32,1.08,0.00,0.02,0.00,61826004,60617000,993000,11
1.96,1.57,0.00,0.03,0.00,99341012,98244000,1002000,11
8.15,6.67,0.00,0.13,0.00,371092677,369030000,2000000,11
1.28,1.03,0.00,0.02,0.00,65186872,63202000,2006000,11
0.88,0.72,0.00,0.01,0.00,39979381,37623000,1980000,12
0.92,0.71,0.00,0.02,0.00,50509782,45451000,5050000,12
1.25,0.98,0.00,0.02,0.00,66921133,62012000,4921000,12
2.72,2.23,0.00,0.04,0.00,124557051,119389000,4974000,12
2.59,2.08,0.00,0.04,0.00,126958143,125937000,1007000,12
0.89,0.69,0.00,0.02,0.00,48714994,40778000,7956000,12
2.61,2.11,0.00,0.04,0.00,127276753,124291000,3007000,12
7.67,6.37,0.00,0.10,0.00,306420424,288450000,17965000,12
1.77,1.43,0.00,0.03,0.00,85296558,78372000,6944000,12
2.62,2.12,0.00,0.04,0.00,124689657,122654000,1994000,12
0.77,0.60,0.00,0.01,0.00,42296347,39253000,3019000,12
0.76,0.61,0.00,0.01,0.00,39487067,37555000,1976000,12
0.72,0.56,0.00,0.01,0.00,41528570,37578000,3955000,12
3.07,2.47,0.00,0.05,0.00,149930165,139716000,10051000,12
2.74,2.18,0.00,0.05,0.00,139583321,133584000,5981000,12
3.02,2.42,0.00,0.05,0.00,151418400,139425000,12036000,12
3.10,2.51,0.00,0.05,0.00,146891780,131971000,14883000,12
2.75,2.20,0.00,0.05,0.00,136856955,128858000,7991000,12
1.01,0.80,0.00,0.02,0.00,52419071,43504000,8898000,12
1.08,0.87,0.00,0.02,0.00,52183594,46122000,6016000,12
0.66,0.51,0.00,0.01,0.00,39640389,37326000,2073000,13
0.23,0.17,0.00,0.01,0.00,15395425,13367000,2056000,13
0.23,0.17,0.00,0.01,0.00,15155316,14150000,1010000,13
0.66,0.51,0.00,0.01,0.00,37639078,36676000,991000,13
0.24,0.18,0.00,0.01,0.00,15983667,14012000,2001000,13
0.68,0.51,0.00,0.01,0.00,42664205,39650000,2973000,13
0.72,0.56,0.00,0.01,0.00,40899934,39969000,999000,13
0.24,0.18,0.00,0.01,0.00,14914785,13895000,992000,13
0.70,0.56,0.00,0.01,0.00,33811182,31828000,1989000,13
0.60,0.45,0.00,0.01,0.00,37927732,37955000,0,13
0.60,0.46,0.00,0.01,0.00,35805342,33887000,1993000,13
0.67,0.53,0.00,0.01,0.00,35070287,34066000,1001000,13
0.32,0.24,0.00,0.01,0.00,19169174,17132000,2015000,13
0.65,0.52,0.00,0.01,0.00,32918568,31922000,997000,13
0.75,0.58,0.00,0.01,0.00,42645032,40660000,1983000,13
0.70,0.54,0.00,0.01,0.00,38651433,35615000,3052000,13
0.62,0.48,0.00,0.01,0.00,36048481,35065000,1001000,13
0.24,0.18,0.00,0.01,0.00,15544030,13560000,1937000,13
0.64,0.49,0.00,0.01,0.00,35363795,34385000,1011000,13
0.62,0.48,0.00,0.01,0.00,35631916,34634000,1018000,13
4.28,3.40,0.00,0.07,0.00,217458314,208244000,8967000,14
3.67,2.91,0.00,0.07,0.00,192729322,192751000,0,14
4.18,3.35,0.00,0.07,0.00,206570402,198578000,7983000,14
2.81,2.22,0.00,0.05,0.00,149692691,148708000,1004000,14
3.44,2.71,0.00,0.06,0.00,184804630,176806000,7991000,14
2.59,2.07,0.00,0.04,0.00,127121557,113061000,14007000,14
2.96,2.37,0.00,0.05,0.00,145680454,133624000,12056000,14
1.43,1.13,0.00,0.03,0.00,75114628,58104000,17030000,14
3.64,2.90,0.00,0.06,0.00,189272293,187278000,1992000,14
4.71,3.77,0.00,0.08,0.00,234281153,218236000,16017000,14
4.86,3.90,0.00,0.08,0.00,239201775,227133000,12007000,14
5.17,4.13,0.00,0.09,0.00,257708715,242795000,14925000,14
2.69,2.12,0.00,0.05,0.00,143024527,142057000,1000000,14
1.25,0.98,0.00,0.02,0.00,67722897,64739000,2987000,14
4.41,3.54,0.00,0.07,0.00,216352682,204284000,11958000,14
3.16,2.53,0.00,0.05,0.00,158812374,152783000,6030000,14
2.88,2.30,0.00,0.05,0.00,143496297,128490000,15057000,14
4.25,3.39,0.00,0.07,0.00,213129475,207122000,6003000,14
4.76,3.78,0.00,0.08,0.00,239990293,226974000,12998000,14
3.65,2.91,0.00,0.06,0.00,185800082,178778000,6991000,14
1.24,0.97,0.00,0.02,0.00,67490387,62165000,5013000,15
1.20,0.96,0.00,0.02,0.00,60850569,58827000,2028000,15
3.63,2.95,0.00,0.06,0.00,173021349,170024000,3000000,15
1.15,0.90,0.00,0.02,0.00,63947029,56950000,6993000,15
1.24,0.99,0.00,0.02,0.00,63570368,60577000,2979000,15
3.68,3.00,0.00,0.06,0.00,171694573,170622000,997000,15
3.57,2.88,0.00,0.06,0.00,173119482,171118000,2001000,15
1.06,0.83,0.00,0.02,0.00,56064828,54076000,2002000,15
5.01,4.04,0.00,0.08,0.00,241089533,234095000,7002000,15
1.02,0.80,0.00,0.02,0.00,55186194,53193000,2007000,15
1.03,0.80,0.00,0.02,0.00,57950421,52891000,5085000,15
1.37,1.11,0.00,0.02,0.00,67912419,64830000,2992000,15
3.79,3.06,0.00,0.06,0.00,182392228,177413000,4983000,15
1.17,0.93,0.00,0.02,0.00,61572932,57664000,3976000,15
1.16,0.90,0.00,0.02,0.00,64324750,60382000,3959000,15
1.23,0.98,0.00,0.02,0.00,62442652,59388000,3019000,15
1.07,0.85,0.00,0.02,0.00,55708043,52785000,2932000,15
1.22,0.96,0.00,0.02,0.00,62786465,60767000,2025000,15
1.21,0.96,0.00,0.02,0.00,61638791,57670000,3977000,15
1.14,0.90,0.00,0.02,0.00,59615453,56643000,2981000,15
2.93,2.25,0.00,0.05,0.00,137538365,130237000,7012000,16
3.66,2.92,0.00,0.06,0.00,187259564,181221000,6007000,16
5.17,4.21,0.00,0.08,0.00,242196441,235047000,7001000,16
2.96,2.34,0.00,0.05,0.00,152687440,972000,6807000,16
6.20,4.95,0.00,0.11,0.00,316100684,313089000,3000000,16
2.44,1.94,0.00,0.04,0.00,125675063,118653000,6979000,16
4.62,3.68,0.00,0.08,0.00,239195635,236969000,1999000,16
5.03,4.04,0.00,0.09,0.00,249973412,244939000,5019000,16
4.60,3.66,0.00,0.08,0.00,238886710,236865000,2007000,16
4.71,3.74,0.00,0.08,0.00,243314156,237329000,6008000,16
4.58,3.63,0.00,0.08,0.00,240254428,235227000,5004000,16
4.73,3.78,0.00,0.08,0.00,239582738,237466000,2003000,16
3.99,3.18,0.00,0.07,0.00,203345625,199335000,4006000,16
6.18,4.98,0.00,0.09,0.00,276864329,149906000,126920000,16
10.80,8.83,0.00,0.17,0.00,496198981,489142000,7002000,16
2.76,2.22,0.00,0.05,0.00,135531903,133557000,2008000,16
4.69,3.75,0.00,0.08,0.00,237733344,233782000,3996000,16
4.81,3.80,0.00,0.09,0.00,251617837,248544000,3006000,16
9.96,8.17,0.00,0.15,0.00,447396370,442274000,5003000,16
2.86,2.29,0.00,0.05,0.00,143592353,138527000,4983000,16
9.48,7.50,0.00,0.17,0.00,505709481,503483000,2001000,17
10.46,8.23,0.00,0.19,0.00,565448771,557413000,8005000,17
16.86,13.83,0.00,0.26,0.00,764632627,755585000,8995000,17
10.47,8.24,0.00,0.19,0.00,564983006,560972000,3999000,17
9.23,7.30,0.00,0.17,0.00,488000114,483992000,3999000,17
10.48,8.26,0.00,0.19,0.00,562511806,559429000,3002000,17
10.34,8.28,0.00,0.18,0.00,518911563,509916000,9016000,17
10.06,8.04,0.00,0.17,0.00,512228846,509094000,3000000,17
9.40,7.40,0.00,0.17,0.00,503359697,499261000,3994000,17
10.51,8.26,0.00,0.19,0.00,566187732,559153000,7001000,17
11.72,9.51,0.00,0.19,0.00,554756237,547661000,6995000,17
10.49,8.27,0.00,0.19,0.00,560255148,556231000,4001000,17
10.56,8.32,0.00,0.19,0.00,566678193,557641000,8994000,17
2.17,1.73,0.00,0.04,0.00,108975517,103987000,4999000,17
9.64,7.64,0.00,0.17,0.00,504002664,501983000,2003000,17
10.54,8.27,0.00,0.19,0.00,568171795,564091000,4000000,17
11.13,9.05,0.00,0.18,0.00,523527417,519426000,3995000,17
9.74,7.73,0.00,0.17,0.00,505035009,500974000,3999000,17
9.65,7.66,0.00,0.17,0.00,501156880,499092000,1996000,17
10.55,8.64,0.00,0.16,0.00,477797774,469849000,7997000,17
2.87,2.21,0.00,0.06,0.00,162751654,2126000,7084000,18
3.03,2.36,0.00,0.05,0.00,133660820,126506000,7028000,18
4.58,3.57,0.00,0.08,0.00,220620192,211658000,8985000,18
8.33,6.69,0.00,0.14,0.00,413732178,409758000,3997000,18
13.50,10.82,0.00,0.22,0.00,649736119,524761000,124943000,18
9.43,7.49,0.00,0.15,0.00,436900606,298590000,138273000,18
2.25,1.81,0.00,0.04,0.00,112301971,111275000,1002000,18
5.24,4.14,0.00,0.08,0.00,242082066,236991000,4999000,18
9.00,7.22,0.00,0.14,0.00,415975330,409829000,5997000,18
3.59,2.87,0.00,0.06,0.00,182373937,178377000,4008000,18
4.61,3.61,0.00,0.07,0.00,218399599,212363000,6010000,18
4.65,3.62,0.00,0.08,0.00,222820641,214854000,7957000,18
2.96,2.38,0.00,0.05,0.00,144911199,141933000,2998000,18
4.44,3.59,0.00,0.07,0.00,215344481,212372000,2991000,18
3.67,2.94,0.00,0.06,0.00,182408299,179382000,3006000,18
4.47,3.47,0.00,0.07,0.00,215260644,211272000,4005000,18
3.37,2.71,0.00,0.06,0.00,163510583,159497000,3987000,18
4.86,3.79,0.00,0.08,0.00,234996500,228060000,7001000,18
10.08,8.00,0.00,0.16,0.00,468115280,319065000,149030000,18
4.66,3.65,0.00,0.07,0.00,219533419,213375000,6010000,18
8.78,7.17,0.00,0.14,0.00,404917237,361962000,40995000,19
3.01,2.39,0.00,0.05,0.00,155074302,7898000,0,19
2.39,1.88,0.00,0.04,0.00,120794189,85583000,35240000,19
2.56,2.06,0.00,0.04,0.00,123854393,2182000,6546000,19
2.53,2.03,0.00,0.04,0.00,121503397,4490000,4490000,19
9.60,7.79,0.00,0.15,0.00,446977181,371807000,75163000,19
9.90,8.04,0.00,0.16,0.00,459196150,396245000,62880000,19
2.53,2.03,0.00,0.04,0.00,123875421,1150000,7644000,19
2.40,1.89,0.00,0.04,0.00,120213764,88154000,32056000,19
2.78,2.22,0.00,0.05,0.00,137518518,104359000,33114000,19
2.55,2.05,0.00,0.04,0.00,121889950,990000,7922000,19
2.78,2.25,0.00,0.04,0.00,129659080,100377000,29109000,19
2.56,2.07,0.00,0.04,0.00,120912436,2884000,4806000,19
3.31,2.63,0.00,0.05,0.00,160344263,92202000,68149000,19
3.41,2.73,0.00,0.05,0.00,160737582,99821000,60891000,19
14.12,11.44,0.00,0.22,0.00,655220350,590175000,65019000,19
2.39,1.89,0.00,0.04,0.00,119672586,84756000,34899000,19
1.42,1.10,0.00,0.03,0.00,80252248,80226000,0,19
2.54,2.02,0.00,0.04,0.00,124199094,87122000,37052000,19
2.60,2.10,0.00,0.04,0.00,123214146,1043000,8103000,19
0.73,0.56,0.00,0.02,0.00,44223131,42962000,1022000,20
0.35,0.27,0.00,0.01,0.00,20811333,18822000,1981000,20
0.74,0.56,0.00,0.02,0.00,43968959,42892000,997000,20
0.03,0.02,0.00,0.00,0.00,2190025,1124000,1124000,20
0.65,0.49,0.00,0.01,0.00,40120147,39138000,1003000,20
0.62,0.48,0.00,0.01,0.00,34210998,33210000,976000,20
0.38,0.28,0.00,0.01,0.00,23988530,21993000,1999000,20
0.59,0.45,0.00,0.01,0.00,35529217,34561000,987000,20
0.67,0.52,0.00,0.01,0.00,39158818,38170000,1004000,20
0.03,0.03,0.00,0.00,0.00,2317845,1158000,1158000,20
0.80,0.63,0.00,0.01,0.00,41868671,39875000,1993000,20
0.75,0.58,0.00,0.01,0.00,41789265,39809000,1990000,20
0.78,0.61,0.00,0.01,0.00,41673206,38633000,2971000,20
0.80,0.62,0.00,0.02,0.00,45216284,42205000,3014000,20
0.44,0.33,0.00,0.01,0.00,27385038,20490000,6830000,20
0.63,0.49,0.00,0.01,0.00,35051075,34052000,1001000,20
0.80,0.63,0.00,0.01,0.00,42933917,38980000,3997000,20
0.38,0.29,0.00,0.01,0.00,23387638,21362000,2034000,20
0.76,0.58,0.00,0.02,0.00,45350246,41337000,4032000,20
0.76,0.59,0.00,0.01,0.00,41975925,39034000,3002000,20
0.08,0.06,0.00,0.00,0.00,5870929,3392000,2261000,21
0.29,0.22,0.00,0.01,0.00,17447272,11211000,6115000,21
4.10,3.26,0.00,0.07,0.00,211830740,208713000,2995000,21
4.68,3.73,0.00,0.08,0.00,239409417,237319000,2002000,21
0.09,0.06,0.00,0.00,0.00,6892680,5913000,985000,21
13.85,11.08,0.00,0.24,0.00,701723470,700665000,999000,21
0.08,0.06,0.00,0.00,0.00,5409899,3585000,1792000,21
3.81,3.04,0.00,0.07,0.00,195478853,193495000,2005000,21
0.29,0.21,0.00,0.01,0.00,18880129,10924000,7945000,21
4.14,3.30,0.00,0.07,0.00,213247383,209319000,3987000,21
0.44,0.33,0.00,0.01,0.00,27630624,18745000,8879000,21
3.06,2.43,0.00,0.05,0.00,159024331,158048000,1000000,21
0.08,0.06,0.00,0.00,0.00,4789344,3200000,1600000,21
0.24,0.18,0.00,0.01,0.00,14432487,7220000,7220000,21
0.12,0.09,0.00,0.00,0.00,7269087,6257000,1042000,21
0.23,0.17,0.00,0.01,0.00,15875743,12160000,3741000,21
0.10,0.08,0.00,0.00,0.00,5786272,4597000,1149000,21
4.51,3.60,0.00,0.08,0.00,229826486,228674000,1002000,21
4.19,3.35,0.00,0.07,0.00,212566254,210549000,2005000,21
0.62,0.48,0.00,0.01,0.00,35037525,27989000,6997000,21
0.27,0.20,0.00,0.01,0.00,17158871,13945000,2988000,22
0.63,0.50,0.00,0.01,0.00,33953743,32929000,1029000,22
0.28,0.21,0.00,0.01,0.00,16827825,12213000,4697000,22
0.70,0.55,0.00,0.01,0.00,36041569,32048000,4006000,22
0.65,0.51,0.00,0.01,0.00,34738942,30772000,3970000,22
0.29,0.22,0.00,0.01,0.00,16453180,14519000,1935000,22
1.21,0.94,0.00,0.02,0.00,65217224,58163000,7019000,22
0.26,0.21,0.00,0.00,0.00,13742606,10991000,2747000,22
0.64,0.49,0.00,0.01,0.00,39314664,37179000,2009000,22
0.29,0.21,0.00,0.01,0.00,18714819,14594000,4169000,22
0.86,0.67,0.00,0.02,0.00,49538028,42603000,6935000,22
0.65,0.51,0.00,0.01,0.00,35280943,34288000,1008000,22
0.26,0.19,0.00,0.01,0.00,16349256,14354000,2050000,22
0.25,0.19,0.00,0.01,0.00,15262698,13244000,2037000,22
0.65,0.52,0.00,0.01,0.00,34102532,33081000,1002000,22
0.24,0.18,0.00,0.00,0.00,14129870,12294000,1891000,22
0.26,0.20,0.00,0.01,0.00,15917836,13118000,2811000,22
0.30,0.22,0.00,0.01,0.00,17906634,15936000,1992000,22
0.65,0.50,0.00,0.01,0.00,36626337,33672000,2971000,22
0.65,0.50,0.00,0.01,0.00,36320607,33416000,2948000,22
3.31,2.65,0.00,0.06,0.00,164316158,156047000,7951000,23
1.65,1.31,0.00,0.03,0.00,82686132,75679000,6970000,23
3.08,2.49,0.00,0.05,0.00,150708551,143719000,6986000,23
1.45,1.15,0.00,0.03,0.00,73762896,63793000,9967000,23
1.73,1.40,0.00,0.03,0.00,80676519,74477000,6038000,23
1.49,1.17,0.00,0.03,0.00,78666605,68746000,9963000,23
1.72,1.36,0.00,0.03,0.00,88659902,72716000,15937000,23
3.19,2.52,0.00,0.06,0.00,165648035,154684000,10977000,23
3.22,2.61,0.00,0.05,0.00,151160094,148018000,3000000,23
3.23,2.60,0.00,0.05,0.00,154634749,148642000,5985000,23
1.43,1.14,0.00,0.02,0.00,72610021,65538000,7058000,23
3.38,2.71,0.00,0.06,0.00,167050191,160064000,7002000,23
1.68,1.33,0.00,0.03,0.00,86470670,80454000,6034000,23
1.68,1.32,0.00,0.03,0.00,85742908,80680000,5042000,23
3.18,2.55,0.00,0.05,0.00,157482027,152453000,5014000,23
1.42,1.12,0.00,0.03,0.00,75321093,70294000,5021000,23
1.41,1.12,0.00,0.02,0.00,72209919,69201000,3008000,23
1.47,1.16,0.00,0.03,0.00,75513835,66572000,8942000,23
1.55,1.21,0.00,0.03,0.00,83581161,76500000,6954000,23
3.17,2.54,0.00,0.05,0.00,157250725,151178000,6007000,23
4.19,3.43,0.00,0.07,0.00,191277048,174856000,15986000,24
1.33,1.04,0.00,0.02,0.00,69981333,64024000,6002000,24
1.52,1.21,0.00,0.03,0.00,77406614,69316000,8036000,24
2.99,2.42,0.00,0.05,0.00,143871937,139957000,3970000,24
1.29,1.03,0.00,0.02,0.00,64767894,57761000,6971000,24
1.30,1.02,0.00,0.02,0.00,69286810,67277000,2008000,24
1.36,1.07,0.00,0.02,0.00,71294278,63352000,7919000,24
1.63,1.28,0.00,0.03,0.00,87596960,79525000,7952000,24
1.51,1.19,0.00,0.03,0.00,78559146,71647000,6965000,24
2.13,1.68,0.00,0.04,0.00,108946554,97973000,10996000,24
1.31,1.02,0.00,0.02,0.00,71931417,62842000,8977000,24
1.57,1.24,0.00,0.03,0.00,81007811,70012000,11001000,24
1.43,1.12,0.00,0.03,0.00,75064662,70051000,5003000,24
3.24,2.60,0.00,0.05,0.00,157613468,153623000,3990000,24
1.32,1.02,0.00,0.03,0.00,74168863,69105000,5007000,24
1.31,1.03,0.00,0.02,0.00,67565632,62551000,5044000,24
1.30,1.02,0.00,0.02,0.00,67382189,58372000,9057000,24
1.60,1.27,0.00,0.03,0.00,80103421,69027000,11004000,24
1.49,1.16,0.00,0.03,0.00,80121686,73113000,7010000,24
1.81,1.43,0.00,0.03,0.00,92289644,86276000,6019000,24
1.49,1.18,0.00,0.03,0.00,77886033,71471000,6039000,25
1.79,1.42,0.00,0.03,0.00,92977940,86951000,5996000,25
2.16,1.80,0.00,0.03,0.00,86951709,77602000,9070000,25
1.63,1.29,0.00,0.03,0.00,82943980,70921000,11986000,25
1.64,1.27,0.00,0.03,0.00,91011540,84023000,6919000,25
1.74,1.36,0.00,0.03,0.00,93073815,83061000,10007000,25
1.72,1.36,0.00,0.03,0.00,89566384,85538000,4025000,25
1.55,1.23,0.00,0.03,0.00,78838778,73930000,4928000,25
1.80,1.41,0.00,0.03,0.00,96405381,88460000,7951000,25
1.56,1.23,0.00,0.03,0.00,79631448,71649000,7961000,25
1.59,1.27,0.00,0.03,0.00,79101146,73120000,6009000,25
1.64,1.30,0.00,0.03,0.00,84382410,79334000,5021000,25
1.65,1.31,0.00,0.03,0.00,83794749,79789000,3989000,25
3.34,2.69,0.00,0.06,0.00,162827709,158856000,3996000,25
1.57,1.23,0.00,0.03,0.00,82977485,74991000,7999000,25
1.59,1.26,0.00,0.03,0.00,81307080,72156000,9019000,25
1.53,1.21,0.00,0.03,0.00,79203669,73198000,6016000,25
3.45,2.78,0.00,0.06,0.00,168029993,161070000,7003000,25
3.35,2.70,0.00,0.05,0.00,159720796,153709000,6027000,25
1.89,1.49,0.00,0.03,0.00,97128774,87118000,10013000,25
3.41,2.75,0.00,0.06,0.00,165846898,157394000,8020000,26
2.91,2.36,0.00,0.05,0.00,138710577,128627000,9971000,26
1.25,1.03,0.00,0.02,0.00,55923069,49703000,6086000,26
1.31,1.03,0.00,0.02,0.00,69820272,61839000,7979000,26
2.02,1.60,0.00,0.04,0.00,103291945,94230000,9022000,26
2.94,2.36,0.00,0.05,0.00,144771989,136696000,7982000,26
3.02,2.44,0.00,0.05,0.00,146053614,138026000,7943000,26
1.33,1.04,0.00,0.02,0.00,70672945,63652000,6962000,26
1.23,0.99,0.00,0.02,0.00,61531895,58459000,3023000,26
1.66,1.31,0.00,0.03,0.00,85278892,79230000,6017000,26
1.46,1.15,0.00,0.03,0.00,75854773,67853000,7982000,26
1.76,1.43,0.00,0.03,0.00,81315569,74304000,6935000,26
1.38,1.10,0.00,0.02,0.00,67724020,62668000,4973000,26
2.99,2.42,0.00,0.05,0.00,144297014,137303000,6964000,26
1.37,1.09,0.00,0.02,0.00,69149616,62120000,7013000,26
3.19,2.59,0.00,0.05,0.00,149036702,144030000,5001000,26
6.59,5.28,0.00,0.11,0.00,321294008,307322000,13969000,26
1.35,1.08,0.00,0.02,0.00,68828007,63771000,5061000,26
0.51,0.40,0.00,0.01,0.00,27935528,20938000,6979000,26
2.97,2.41,0.00,0.05,0.00,139919354,135784000,3993000,26
5.01,4.07,0.00,0.08,0.00,240372771,233113000,7003000,27
4.92,4.00,0.00,0.08,0.00,232061608,222045000,10002000,27
1.89,1.50,0.00,0.03,0.00,96692974,91706000,4984000,27
4.92,4.00,0.00,0.08,0.00,231728913,225625000,5990000,27
1.91,1.52,0.00,0.03,0.00,96573401,91536000,5029000,27
1.90,1.51,0.00,0.03,0.00,96129864,87103000,9010000,27
1.98,1.57,0.00,0.03,0.00,99472626,94436000,5023000,27
5.05,4.11,0.00,0.08,0.00,238195221,235077000,3000000,27
5.03,4.09,0.00,0.08,0.00,235856224,230834000,5018000,27
1.89,1.51,0.00,0.03,0.00,94680855,88646000,6044000,27
1.88,1.49,0.00,0.03,0.00,98623130,93571000,5030000,27
5.03,4.10,0.00,0.08,0.00,232950033,229928000,2999000,27
4.94,4.00,0.00,0.08,0.00,236954606,232930000,3998000,27
1.90,1.51,0.00,0.03,0.00,95886314,90834000,5046000,27
1.89,1.50,0.00,0.03,0.00,96322680,92310000,4013000,27
5.05,4.10,0.00,0.08,0.00,237622533,233601000,3993000,27
5.02,4.07,0.00,0.08,0.00,238920611,231754000,6992000,27
1.80,1.44,0.00,0.03,0.00,90912206,82934000,7993000,27
1.89,1.50,0.00,0.03,0.00,95686543,91623000,4027000,27
2.06,1.65,0.00,0.03,0.00,99891937,87775000,11969000,27
3.29,2.64,0.00,0.06,0.00,163650142,159247000,2003000,28
4.43,3.56,0.00,0.07,0.00,219940341,216953000,2999000,28
2.54,2.10,0.00,0.04,0.00,110017694,108979000,1009000,28
3.68,2.98,0.00,0.06,0.00,176419662,145248000,31053000,28
5.53,4.47,0.00,0.09,0.00,267803947,244775000,23073000,28
5.24,4.28,0.00,0.08,0.00,242082541,219083000,23008000,28
13.96,11.33,0.00,0.23,0.00,666282950,664184000,2000000,28
3.43,2.75,0.00,0.06,0.00,171987121,167073000,4972000,28
5.21,4.26,0.00,0.08,0.00,239481039,204427000,35073000,28
2.46,2.00,0.00,0.04,0.00,117544331,115551000,2009000,28
6.12,4.91,0.00,0.10,0.00,304165554,276248000,27924000,28
3.42,2.81,0.00,0.05,0.00,152049539,150057000,2000000,28
3.35,2.76,0.00,0.05,0.00,149613305,148556000,1003000,28
3.44,2.82,0.00,0.05,0.00,158046360,129557000,28121000,28
3.50,2.82,0.00,0.06,0.00,170956661,144753000,26136000,28
2.94,2.36,0.00,0.05,0.00,145610610,119522000,26114000,28
3.49,2.85,0.00,0.05,0.00,159865272,156868000,2997000,28
4.46,3.64,0.00,0.07,0.00,207763028,187668000,20071000,28
2.95,2.38,0.00,0.05,0.00,142098941,140093000,2015000,28
13.09,10.55,0.00,0.22,0.00,639184200,634056000,5000000,28
0.57,0.43,0.00,0.01,0.00,36272256,30961000,4993000,29
1.10,0.87,0.00,0.02,0.00,56832045,55807000,1014000,29
0.87,0.69,0.00,0.01,0.00,42726288,34727000,7937000,29
3.16,2.53,0.00,0.05,0.00,158873676,100584000,58339000,29
1.05,0.83,0.00,0.02,0.00,53974327,45814000,8144000,29
0.42,0.32,0.00,0.01,0.00,24873504,16914000,7959000,29
0.58,0.44,0.00,0.01,0.00,36717539,31606000,5097000,29
0.62,0.47,0.00,0.01,0.00,35966280,31898000,4115000,29
1.41,1.13,0.00,0.02,0.00,69250854,61209000,8027000,29
4.09,3.25,0.00,0.07,0.00,194447140,103726000,90760000,29
1.09,0.86,0.00,0.02,0.00,56050175,50031000,6003000,29
2.58,2.05,0.00,0.04,0.00,129739911,111648000,18105000,29
1.04,0.83,0.00,0.02,0.00,50434681,40345000,10086000,29
0.89,0.70,0.00,0.02,0.00,46553835,39608000,6931000,29
1.11,0.89,0.00,0.02,0.00,56579918,50550000,6066000,29
0.61,0.48,0.00,0.01,0.00,33152300,29120000,4016000,29
0.60,0.46,0.00,0.01,0.00,33862502,28039000,5801000,29
1.13,0.90,0.00,0.02,0.00,58400989,56445000,1980000,29
1.06,0.83,0.00,0.02,0.00,58236257,52233000,6026000,29
0.89,0.68,0.00,0.02,0.00,49859834,38851000,10958000,29
12.01,9.78,0.00,0.19,0.00,563579918,540250000,23010000,30
3.16,2.56,0.00,0.05,0.00,150907434,144893000,5995000,30
3.93,3.17,0.00,0.06,0.00,187405060,178476000,8973000,30
2.90,2.33,0.00,0.05,0.00,142714828,133695000,8979000,30
2.44,1.96,0.00,0.04,0.00,117941128,111934000,5996000,30
6.39,5.14,0.00,0.10,0.00,302022042,296007000,6000000,30
3.88,3.14,0.00,0.06,0.00,186819838,177785000,9039000,30
5.57,4.53,0.00,0.09,0.00,260042932,256037000,3985000,30
2.91,2.35,0.00,0.05,0.00,139715459,134704000,5026000,30
5.27,4.26,0.00,0.08,0.00,248092027,234124000,13947000,30
4.89,3.96,0.00,0.08,0.00,232571790,189632000,42916000,30
9.88,8.04,0.00,0.16,0.00,458320045,429289000,29019000,30
4.59,3.57,0.00,0.09,0.00,252297515,84475000,7761000,30
4.32,3.49,0.00,0.07,0.00,206320451,196297000,10015000,30
2.82,2.27,0.00,0.05,0.00,134697513,131730000,2993000,30
4.36,3.53,0.00,0.07,0.00,208111538,182109000,26015000,30
3.87,3.14,0.00,0.06,0.00,181691869,175648000,5988000,30
2.96,2.38,0.00,0.05,0.00,142385520,132388000,10029000,30
8.21,6.66,0.00,0.13,0.00,387577254,344600000,42950000,30
3.20,2.58,0.00,0.05,0.00,154526804,145576000,8973000,30
3.19,2.57,0.00,0.05,0.00,156397051,155164000,1001000,31
1.88,1.48,0.00,0.03,0.00,99673744,98698000,996000,31
4.42,3.61,0.00,0.07,0.00,205497446,203499000,2004000,31
4.08,3.32,0.00,0.07,0.00,191993514,190075000,1990000,31
3.31,2.65,0.00,0.06,0.00,166398476,165411000,1002000,31
3.23,2.61,0.00,0.05,0.00,158195372,157191000,1001000,31
5.94,4.85,0.00,0.09,0.00,274215863,272069000,2000000,31
0.38,0.27,0.00,0.01,0.00,24430890,24470000,0,31
1.88,1.48,0.00,0.03,0.00,100128849,95077000,5004000,31
3.28,2.67,0.00,0.05,0.00,154265329,152257000,1990000,31
3.41,2.75,0.00,0.06,0.00,167815550,166836000,999000,31
3.60,2.94,0.00,0.06,0.00,166243564,165197000,1001000,31
3.30,2.66,0.00,0.05,0.00,160548307,159562000,997000,31
3.52,2.85,0.00,0.06,0.00,168199029,165222000,2985000,31
3.60,2.93,0.00,0.06,0.00,169202777,167227000,2002000,31
3.44,2.83,0.00,0.05,0.00,155283638,153258000,1990000,31
3.36,2.71,0.00,0.06,0.00,163037779,161974000,999000,31
3.31,2.68,0.00,0.05,0.00,159966999,159940000,0,31
0.31,0.24,0.00,0.01,0.00,18691075,17637000,979000,31
0.32,0.25,0.00,0.01,0.00,19716682,15987000,3761000,31
