@relation problema
@attribute 'pkg' real
@attribute 'cores' real
@attribute 'ram' real
@attribute 'gpu' real
@attribute 'psys' real
@attribute 'duration_time' real
@attribute 'user_time' real
@attribute 'system_time' real
@attribute 'class' {0,1,2,3,4,5,6,7,8,9,10,11,12,13,14,15,16,17,18,19,20,21,22,23,24,25,26,27,28,29,30,31}
@data
1.44,1.40,0.08,0.00,4.07,146499289,105188000,41073000,0
0.30,0.30,0.01,0.00,0.75,25387279,24379000,1015000,0
1.54,1.50,0.07,0.00,3.79,131109743,95974000,34990000,0
1.53,1.48,0.07,0.00,4.08,131309315,91204000,40089000,0
1.53,1.49,0.07,0.00,4.05,131246193,104043000,27011000,0
0.95,0.93,0.05,0.00,2.59,89785144,58510000,31273000,0
1.53,1.48,0.07,0.00,3.94,131108448,99000000,32000000,0
1.54,1.50,0.07,0.00,4.08,131898380,96913000,34968000,0
1.52,1.47,0.07,0.00,3.97,132807657,91853000,40934000,0
0.31,0.30,0.01,0.00,0.82,25098973,24088000,1003000,0
1.55,1.51,0.07,0.00,4.02,133768339,96825000,36933000,0
0.31,0.31,0.01,0.00,0.82,25429100,25434000,0,0
1.51,1.46,0.07,0.00,3.96,130996765,103858000,26963000,0
1.49,1.45,0.07,0.00,3.90,131063929,89037000,42017000,0
0.31,0.31,0.01,0.00,0.76,25209759,24197000,1008000,0
0.87,0.86,0.04,0.00,2.18,68755706,64745000,3984000,0
1.56,1.52,0.07,0.00,3.97,132341620,111287000,21054000,0
1.52,1.47,0.07,0.00,3.98,131244703,102189000,29053000,0
1.56,1.51,0.07,0.00,3.82,131036589,100032000,31010000,0
1.53,1.48,0.07,0.00,3.80,130771482,105809000,24955000,0
0.37,0.35,0.03,0.00,1.51,64486745,63265000,1004000,1
1.94,1.85,0.11,0.00,5.40,205696641,204687000,998000,1
3.54,3.40,0.19,0.00,9.96,380883088,380777000,0,1
0.28,0.28,0.01,0.00,0.78,28904936,27886000,995000,1
0.46,0.44,0.02,0.00,1.31,47987598,46950000,998000,1
3.53,3.40,0.20,0.00,9.96,380965533,379953000,999000,1
0.49,0.46,0.02,0.00,1.31,47139980,46137000,1002000,1
0.46,0.44,0.02,0.00,1.28,47949514,46913000,998000,1
0.30,0.29,0.02,0.00,0.84,29191038,28792000,0,1
0.42,0.41,0.02,0.00,1.27,47918718,46927000,998000,1
0.45,0.44,0.03,0.00,1.33,46963251,45955000,999000,1
0.90,0.87,0.05,0.00,2.44,89134620,89068000,0,1
0.16,0.16,0.01,0.00,0.47,17436576,17420000,0,1
0.26,0.25,0.01,0.00,0.74,26492479,24523000,1961000,1
0.48,0.46,0.03,0.00,1.36,49402608,49407000,0,1
3.29,3.15,0.20,0.00,9.76,388188727,386032000,2000000,1
0.47,0.45,0.03,0.00,1.37,45928141,44920000,998000,1
0.47,0.46,0.03,0.00,1.34,49523437,48445000,988000,1
0.46,0.44,0.02,0.00,1.27,46044375,46027000,0,1
0.24,0.23,0.01,0.00,0.65,22986855,20971000,1997000,1
0.43,0.41,0.02,0.00,1.09,35624327,31259000,3907000,2
0.41,0.39,0.02,0.00,1.03,34667253,32668000,1979000,2
0.39,0.38,0.02,0.00,1.00,32872231,29870000,2987000,2
0.78,0.76,0.04,0.00,1.99,68181635,67164000,1002000,2
0.41,0.40,0.02,0.00,1.04,33897450,32883000,996000,2
0.42,0.40,0.02,0.00,1.12,34892876,32799000,1987000,2
0.87,0.84,0.04,0.00,2.17,68848918,64833000,3989000,2
0.81,0.79,0.03,0.00,2.00,64134276,61115000,3005000,2
0.41,0.39,0.02,0.00,1.06,35489467,34473000,1013000,2
0.44,0.43,0.02,0.00,1.11,37269476,36257000,1007000,2
0.82,0.80,0.04,0.00,2.03,65248842,62873000,1995000,2
0.87,0.85,0.04,0.00,2.26,68367546,65298000,3013000,2
0.39,0.38,0.02,0.00,1.00,32963798,29951000,2995000,2
0.78,0.76,0.03,0.00,1.99,65786138,62705000,2985000,2
0.81,0.80,0.03,0.00,2.04,65762603,62758000,2988000,2
0.78,0.75,0.04,0.00,2.01,67465757,65417000,2012000,2
0.79,0.77,0.03,0.00,2.01,64156456,62023000,2000000,2
0.44,0.44,0.02,0.00,1.15,38760354,28697000,9895000,2
0.89,0.86,0.05,0.00,2.42,83976715,77870000,5990000,2
0.82,0.79,0.04,0.00,2.01,65425911,64412000,1006000,2
2.80,2.70,0.16,0.00,7.38,259747122,194555000,64851000,3
3.25,3.14,0.16,0.00,8.41,288106026,227953000,59987000,3
1.31,1.26,0.08,0.00,3.37,115748642,106624000,8968000,3
3.26,3.16,0.17,0.00,8.29,293106619,223301000,69781000,3
3.32,3.20,0.22,0.00,8.73,312657920,256694000,55933000,3
1.78,1.73,0.09,0.00,4.43,148828511,140808000,7989000,3
1.10,1.07,0.07,0.00,2.95,98544096,97513000,1005000,3
3.26,3.16,0.17,0.00,8.35,291948310,215943000,75980000,3
3.18,3.07,0.17,0.00,8.59,291736894,233538000,58133000,3
1.00,0.96,0.06,0.00,2.67,93751862,90713000,2990000,3
1.12,1.08,0.07,0.00,2.94,100181010,94134000,6008000,3
0.98,0.94,0.06,0.00,2.59,91824945,85817000,5987000,3
2.43,2.35,0.14,0.00,6.40,233219138,173079000,60027000,3
1.18,1.15,0.08,0.00,3.17,106665749,99540000,7038000,3
1.08,1.05,0.07,0.00,2.83,98342056,93269000,5014000,3
3.28,3.18,0.17,0.00,8.41,293424413,224232000,69071000,3
1.11,1.06,0.07,0.00,2.89,99421351,91442000,7951000,3
3.25,3.15,0.17,0.00,8.34,290445856,236022000,54005000,3
0.97,0.94,0.06,0.00,2.54,87923617,81911000,5993000,3
2.48,2.40,0.14,0.00,6.50,234776909,156842000,77921000,3
2.05,1.95,0.18,0.00,6.28,227991451,75316000,12213000,4
2.74,2.65,0.17,0.00,6.78,226900887,131033000,10002000,4
2.17,2.10,0.16,0.00,5.44,186031684,85813000,13664000,4
1.18,1.13,0.11,0.00,3.22,113895522,108851000,4993000,4
1.11,1.06,0.10,0.00,3.13,107316201,102279000,5013000,4
2.22,2.14,0.17,0.00,5.96,199907356,104716000,7978000,4
1.22,1.19,0.11,0.00,3.28,112695787,103690000,8973000,4
1.31,1.26,0.13,0.00,3.71,127108888,117075000,10006000,4
2.74,2.65,0.17,0.00,6.88,229240487,129322000,12932000,4
2.87,2.76,0.24,0.00,7.74,270536050,172537000,11034000,4
1.93,1.86,0.14,0.00,5.14,175120770,75839000,12972000,4
1.96,1.90,0.13,0.00,4.93,169096563,164955000,3998000,4
1.89,1.82,0.14,0.00,4.91,167929619,65340000,16083000,4
1.99,1.92,0.14,0.00,5.17,173038780,79900000,6991000,4
2.27,2.19,0.19,0.00,6.01,212235597,117378000,8025000,4
1.96,1.90,0.14,0.00,5.27,173640972,70718000,15936000,4
2.66,2.59,0.17,0.00,6.81,227609544,128148000,14016000,4
2.21,2.13,0.18,0.00,5.81,202925382,107167000,9406000,4
2.41,2.32,0.19,0.00,6.33,220571152,122117000,11646000,4
1.95,1.88,0.14,0.00,5.26,172721805,79639000,8064000,4
2.31,2.22,0.17,0.00,6.20,212706306,78671000,15131000,5
2.05,1.99,0.14,0.00,5.18,177252119,76714000,13122000,5
2.02,1.95,0.14,0.00,5.33,173623242,77547000,9223000,5
1.47,1.41,0.13,0.00,4.10,144153327,138071000,6003000,5
2.77,2.68,0.18,0.00,7.12,234952659,137615000,10371000,5
3.25,3.14,0.23,0.00,8.47,286929311,183036000,17892000,5
1.94,1.88,0.15,0.00,5.22,175189552,77311000,11044000,5
2.92,2.82,0.20,0.00,7.69,254797099,154477000,12956000,5
1.94,1.87,0.14,0.00,5.00,170091533,76917000,6992000,5
1.60,1.54,0.16,0.00,4.47,160347583,149169000,11012000,5
1.59,1.53,0.17,0.00,4.51,163544972,152507000,11036000,5
2.91,2.80,0.27,0.00,8.04,279700140,270551000,8985000,5
1.91,1.83,0.14,0.00,4.93,167661322,69138000,12024000,5
1.98,1.91,0.15,0.00,5.11,176918402,83817000,8078000,5
2.75,2.66,0.17,0.00,6.95,229909673,136541000,6023000,5
1.54,1.48,0.16,0.00,4.47,161376472,151334000,10022000,5
1.84,1.78,0.13,0.00,4.63,157744606,60340000,10056000,5
1.96,1.89,0.14,0.00,5.18,175074164,74331000,14062000,5
2.08,2.01,0.16,0.00,5.46,185238157,87258000,13038000,5
1.96,1.90,0.14,0.00,5.09,172317743,73399000,12065000,5
2.41,2.30,0.14,0.00,6.38,213098325,85282000,11891000,6
0.99,0.96,0.04,0.00,2.35,80426166,76292000,4015000,6
3.13,3.00,0.25,0.00,8.71,307479746,295431000,12017000,6
2.61,2.53,0.11,0.00,6.27,202546288,200498000,2004000,6
0.86,0.83,0.04,0.00,2.15,72750157,67677000,4976000,6
4.26,4.11,0.34,0.00,11.37,397020363,384012000,12966000,6
5.16,4.99,0.36,0.00,13.08,455250765,435193000,19963000,6
3.61,3.47,0.34,0.00,10.00,358387664,333323000,25024000,6
2.51,2.43,0.10,0.00,6.19,192417953,189363000,3005000,6
3.99,3.88,0.21,0.00,10.00,320366295,215104000,19098000,6
1.41,1.37,0.09,0.00,3.64,119395728,115348000,4012000,6
2.56,2.50,0.11,0.00,6.29,200425655,193389000,7014000,6
3.13,3.04,0.17,0.00,7.56,250348849,243269000,6979000,6
1.47,1.41,0.10,0.00,3.97,136059610,128979000,6998000,6
3.50,3.39,0.24,0.00,9.18,320434853,307425000,12975000,6
1.25,1.20,0.09,0.00,3.20,104844347,99781000,5039000,6
1.27,1.22,0.09,0.00,3.24,106948384,98827000,7986000,6
3.99,3.84,0.36,0.00,10.66,372936799,358880000,13995000,6
3.07,2.98,0.13,0.00,7.70,251627848,248598000,2995000,6
0.93,0.91,0.04,0.00,2.39,78165926,68051000,10007000,6
1.08,1.05,0.04,0.00,2.66,84515187,83152000,1001000,7
4.26,4.08,0.33,0.00,10.23,345274883,201013000,144009000,7
3.75,3.59,0.31,0.00,9.29,309521351,152142000,157147000,7
5.22,5.04,0.30,0.00,12.99,441651302,231738000,209763000,7
2.96,2.85,0.19,0.00,7.33,248107919,142043000,106032000,7
4.17,3.98,0.34,0.00,10.29,345709515,184760000,160791000,7
1.55,1.51,0.06,0.00,3.82,118916340,117913000,999000,7
3.82,3.65,0.32,0.00,9.56,318764979,150753000,167725000,7
4.14,3.97,0.34,0.00,10.26,346011690,172903000,172903000,7
1.08,1.05,0.04,0.00,2.57,84610671,83465000,993000,7
4.19,4.01,0.34,0.00,10.51,347769931,184839000,162858000,7
3.30,3.17,0.21,0.00,8.43,282652155,144751000,137763000,7
2.23,2.17,0.09,0.00,5.69,186260270,184228000,2002000,7
1.34,1.29,0.09,0.00,3.75,126231060,1979000,4507000,7
1.21,1.17,0.05,0.00,2.83,92074539,91061000,1000000,7
2.15,2.06,0.17,0.00,5.83,200742484,57198000,143497000,7
3.61,3.45,0.31,0.00,9.58,312163544,154914000,156913000,7
1.31,1.26,0.06,0.00,3.15,106174575,104158000,2003000,7
1.10,1.07,0.05,0.00,2.71,88033936,86992000,999000,7
3.09,2.97,0.20,0.00,7.65,261685976,118826000,142791000,7
1.93,1.84,0.18,0.00,5.57,193471427,177118000,16010000,8
3.21,3.09,0.21,0.00,8.01,279865480,220866000,58964000,8
1.01,0.97,0.08,0.00,2.70,87797415,79795000,7979000,8
1.70,1.64,0.13,0.00,4.26,145208833,138052000,7002000,8
1.56,1.50,0.11,0.00,4.06,132960684,118907000,13989000,8
1.46,1.40,0.12,0.00,3.62,117543735,110495000,7031000,8
1.81,1.74,0.16,0.00,4.67,155623533,139653000,15960000,8
1.88,1.82,0.12,0.00,4.70,156875826,150797000,6031000,8
5.04,4.85,0.34,0.00,13.29,427396060,356212000,71042000,8
1.71,1.66,0.11,0.00,4.24,145506124,135359000,10026000,8
2.67,2.58,0.19,0.00,7.21,243533090,181631000,61874000,8
2.44,2.36,0.17,0.00,6.60,213973070,205938000,7997000,8
1.47,1.41,0.10,0.00,3.70,123511589,116376000,7022000,8
3.56,3.43,0.27,0.00,9.46,329044529,263011000,66002000,8
1.48,1.43,0.10,0.00,3.88,126054208,115034000,11003000,8
2.19,2.12,0.13,0.00,5.68,185579148,177485000,7976000,8
2.50,2.42,0.18,0.00,6.36,220685929,199579000,21061000,8
4.92,4.75,0.29,0.00,12.99,421533744,344294000,76842000,8
4.42,4.27,0.23,0.00,11.40,376493059,313545000,62908000,8
1.53,1.48,0.10,0.00,3.98,129436665,120302000,9022000,8
0.54,0.52,0.02,0.00,1.31,42959159,40624000,2031000,9
0.20,0.20,0.01,0.00,0.49,16482701,15435000,964000,9
0.14,0.14,0.01,0.00,0.34,11292764,11296000,0,9
0.04,0.04,0.00,0.00,0.09,3188169,1062000,2125000,9
0.13,0.13,0.01,0.00,0.32,10201888,9181000,1020000,9
0.05,0.04,0.00,0.00,0.12,3333664,3339000,0,9
0.52,0.51,0.02,0.00,1.24,39998778,35709000,3967000,9
0.54,0.53,0.02,0.00,1.35,43559990,40563000,2968000,9
0.22,0.22,0.01,0.00,0.57,17339357,13487000,3853000,9
0.03,0.04,0.00,0.00,0.09,3323496,830000,2492000,9
0.24,0.24,0.01,0.00,0.59,18845101,15861000,2973000,9
0.18,0.17,0.01,0.00,0.44,14121231,11084000,3023000,9
0.15,0.15,0.01,0.00,0.37,11586908,11577000,0,9
0.04,0.04,0.00,0.00,0.09,3544427,2370000,1185000,9
0.23,0.22,0.01,0.00,0.57,18134278,13095000,5036000,9
0.20,0.20,0.01,0.00,0.50,16042149,14039000,2005000,9
0.51,0.49,0.02,0.00,1.28,40900426,39230000,1646000,9
0.17,0.16,0.01,0.00,0.42,13131382,9086000,4038000,9
0.16,0.15,0.01,0.00,0.40,12605218,10390000,2078000,9
0.13,0.12,0.01,0.00,0.35,12037438,10031000,2006000,9
0.53,0.51,0.03,0.00,1.34,43713508,38204000,5026000,10
1.13,1.10,0.05,0.00,2.75,92873620,90831000,1996000,10
0.55,0.54,0.03,0.00,1.41,46161728,42096000,4009000,10
1.33,1.29,0.08,0.00,3.32,108353530,100365000,7949000,10
0.94,0.91,0.08,0.00,2.40,82856765,71022000,11837000,10
0.69,0.66,0.06,0.00,1.92,61714016,56710000,4974000,10
0.75,0.72,0.06,0.00,1.96,66830463,60818000,5982000,10
0.81,0.79,0.07,0.00,2.20,72367511,65236000,7025000,10
1.41,1.36,0.09,0.00,3.53,116713784,107638000,9053000,10
1.23,1.19,0.12,0.00,3.39,116287845,107117000,9009000,10
1.15,1.12,0.05,0.00,2.82,90895173,88847000,2019000,10
1.14,1.11,0.05,0.00,2.84,91485617,87382000,3971000,10
0.77,0.74,0.07,0.00,2.20,75828022,65825000,9973000,10
0.78,0.75,0.07,0.00,2.14,72416493,62222000,10035000,10
1.39,1.35,0.09,0.00,3.69,119035516,109985000,8998000,10
1.44,1.39,0.09,0.00,3.62,120556041,115516000,5022000,10
1.60,1.55,0.11,0.00,4.16,135877710,126861000,8990000,10
0.51,0.50,0.03,0.00,1.39,43908268,37901000,5984000,10
1.17,1.14,0.06,0.00,2.90,91956508,87933000,3996000,10
0.83,0.81,0.07,0.00,2.21,75676944,66693000,8958000,10
0.66,0.63,0.03,0.00,1.64,55506897,53143000,2005000,11
0.62,0.59,0.03,0.00,1.57,53276595,53171000,0,11
5.72,5.54,0.27,0.00,14.46,522522419,520450000,1997000,11
0.69,0.67,0.03,0.00,1.90,68150972,67146000,1002000,11
1.17,1.14,0.05,0.00,2.87,98432840,98391000,0,11
0.58,0.56,0.03,0.00,1.50,51883039,50890000,997000,11
0.71,0.69,0.03,0.00,1.85,62317861,62313000,0,11
0.03,0.03,0.00,0.00,0.09,3101258,2068000,1034000,11
0.66,0.64,0.03,0.00,1.76,56984487,54973000,1999000,11
1.03,1.00,0.05,0.00,2.65,94550137,92566000,1990000,11
0.61,0.58,0.03,0.00,1.66,52527838,49540000,2972000,11
1.00,0.96,0.05,0.00,2.53,88321630,86309000,2007000,11
3.81,3.65,0.29,0.00,9.74,337651142,185791000,151829000,11
0.62,0.61,0.03,0.00,1.58,54594735,54578000,0,11
0.83,0.81,0.04,0.00,2.09,70280174,70274000,0,11
0.69,0.67,0.03,0.00,1.72,57750900,56745000,995000,11
0.62,0.61,0.03,0.00,1.61,55411751,54407000,1007000,11
0.74,0.71,0.03,0.00,1.91,65391555,64391000,990000,11
3.81,3.71,0.15,0.00,8.93,294120648,292065000,2000000,11
0.69,0.67,0.03,0.00,1.78,60797677,59808000,996000,11
0.43,0.42,0.02,0.00,1.07,34784908,30436000,4058000,12
0.46,0.45,0.02,0.00,1.13,38296032,32221000,6041000,12
0.59,0.57,0.03,0.00,1.69,61997134,56992000,4999000,12
1.24,1.20,0.05,0.00,2.99,94797511,92838000,1975000,12
1.19,1.16,0.05,0.00,2.85,91095225,88079000,3002000,12
0.49,0.47,0.03,0.00,1.27,39449183,37307000,2016000,12
1.17,1.14,0.05,0.00,2.88,92184816,90104000,2002000,12
2.60,2.51,0.16,0.00,6.78,231030553,209976000,20997000,12
0.80,0.78,0.04,0.00,2.05,70569467,63584000,6954000,12
1.18,1.14,0.05,0.00,2.93,90578379,90574000,0,12
0.38,0.37,0.02,0.00,0.95,32465617,28511000,3932000,12
0.40,0.38,0.02,0.00,0.99,32532827,31496000,1016000,12
0.41,0.41,0.02,0.00,1.05,33408992,33395000,0,12
1.20,1.16,0.07,0.00,3.14,111070775,103010000,8000000,12
1.01,0.98,0.06,0.00,2.70,97278337,93231000,4009000,12
1.21,1.17,0.07,0.00,3.29,112337747,101340000,10928000,12
1.39,1.34,0.06,0.00,3.46,110247340,101204000,9018000,12
1.26,1.22,0.05,0.00,3.14,100922865,97767000,3023000,12
0.52,0.51,0.03,0.00,1.31,43179507,35124000,8028000,12
0.51,0.50,0.03,0.00,1.30,43402281,36471000,6900000,12
0.33,0.31,0.02,0.00,0.80,25324782,22048000,3006000,13
0.12,0.13,0.01,0.00,0.30,10366206,10371000,0,13
0.10,0.11,0.01,0.00,0.29,10497232,9555000,955000,13
0.32,0.30,0.01,0.00,0.76,24428428,21495000,2931000,13
0.12,0.13,0.01,0.00,0.30,10579494,9645000,964000,13
0.32,0.32,0.01,0.00,0.79,25363357,25281000,0,13
0.30,0.29,0.01,0.00,0.73,22993581,22971000,0,13
0.12,0.12,0.01,0.00,0.32,10120827,10128000,0,13
0.28,0.29,0.01,0.00,0.69,23828097,22797000,1036000,13
0.31,0.30,0.01,0.00,0.76,23691584,21710000,1973000,13
0.27,0.26,0.01,0.00,0.69,24133948,24133000,0,13
0.31,0.30,0.01,0.00,0.76,25200385,23178000,2015000,13
0.16,0.16,0.01,0.00,0.40,13165629,12143000,1011000,13
0.29,0.28,0.01,0.00,0.75,23037456,22036000,1001000,13
0.29,0.27,0.02,0.00,0.85,31767748,28795000,2978000,13
0.28,0.26,0.01,0.00,0.76,26220548,26222000,0,13
0.29,0.29,0.01,0.00,0.72,23439215,22417000,1018000,13
0.12,0.12,0.01,0.00,0.33,10098513,9088000,1009000,13
0.19,0.18,0.02,0.00,0.74,31870541,30884000,996000,13
0.29,0.28,0.01,0.00,0.76,23067513,22061000,1002000,13
2.12,2.05,0.12,0.00,5.50,195659363,179382000,15945000,14
1.56,1.50,0.08,0.00,4.14,153289268,151281000,1990000,14
2.00,1.92,0.11,0.00,5.30,185354546,173304000,12021000,14
1.49,1.44,0.08,0.00,4.00,144070697,141036000,3000000,14
1.84,1.77,0.10,0.00,4.80,173352338,162222000,11015000,14
1.21,1.16,0.08,0.00,3.20,105637613,91661000,13948000,14
1.39,1.34,0.08,0.00,3.50,120986717,108860000,11984000,14
0.72,0.69,0.04,0.00,1.88,63130568,54100000,9016000,14
1.56,1.50,0.08,0.00,4.21,155370010,154378000,995000,14
2.20,2.12,0.13,0.00,5.92,208960758,192860000,15988000,14
2.28,2.20,0.13,0.00,6.00,209935748,199914000,9995000,14
2.13,2.05,0.12,0.00,5.70,200140144,193116000,7004000,14
1.30,1.25,0.07,0.00,3.52,130147656,130140000,0,14
0.52,0.51,0.03,0.00,1.39,47954349,44927000,2995000,14
2.04,1.97,0.11,0.00,5.55,193234251,180094000,13006000,14
1.43,1.37,0.08,0.00,3.81,137729497,132713000,4989000,14
1.31,1.27,0.08,0.00,3.40,115865357,103012000,12876000,14
2.10,2.04,0.11,0.00,5.63,198470017,189425000,9020000,14
2.21,2.14,0.13,0.00,5.83,209081980,194969000,13997000,14
1.94,1.87,0.10,0.00,5.09,183198478,179177000,4003000,14
0.64,0.62,0.03,0.00,1.58,52347737,45703000,5961000,15
0.63,0.61,0.03,0.00,1.64,53547522,51392000,2015000,15
1.65,1.61,0.07,0.00,3.98,127529413,122535000,4981000,15
0.58,0.56,0.03,0.00,1.44,48149695,46139000,2006000,15
0.60,0.58,0.03,0.00,1.57,49973898,46869000,2991000,15
1.66,1.62,0.07,0.00,4.01,129447106,124455000,4978000,15
1.56,1.51,0.07,0.00,4.07,136387524,135388000,1002000,15
0.60,0.57,0.03,0.00,1.53,49090167,47068000,2002000,15
2.20,2.14,0.12,0.00,5.46,185154856,175124000,10007000,15
0.58,0.56,0.03,0.00,1.48,49061137,45952000,2996000,15
0.58,0.56,0.03,0.00,1.54,49663880,48642000,1013000,15
0.65,0.63,0.03,0.00,1.60,52769239,50762000,1990000,15
1.78,1.72,0.07,0.00,4.45,138042030,134013000,4000000,15
0.64,0.62,0.03,0.00,1.58,53040794,50016000,3000000,15
0.64,0.62,0.03,0.00,1.65,54265023,52120000,2004000,15
0.64,0.62,0.03,0.00,1.62,53446595,49358000,4029000,15
0.54,0.53,0.03,0.00,1.45,48341144,45284000,3018000,15
0.64,0.62,0.03,0.00,1.61,52926537,49667000,2980000,15
0.62,0.61,0.03,0.00,1.60,51597059,44641000,6944000,15
0.63,0.61,0.03,0.00,1.56,51755599,50743000,994000,15
1.14,1.08,0.13,0.00,2.86,91803471,89355000,2007000,16
1.70,1.65,0.08,0.00,4.25,147512980,141477000,5977000,16
1.62,1.57,0.08,0.00,4.13,150105313,146074000,4002000,16
1.23,1.17,0.09,0.00,3.69,133809108,1250000,5002000,16
1.81,1.75,0.09,0.00,4.61,166636877,162566000,3989000,16
0.90,0.86,0.04,0.00,2.24,76682588,71596000,4971000,16
1.52,1.46,0.08,0.00,3.98,143162989,140120000,3002000,16
1.69,1.64,0.08,0.00,4.18,147019623,144007000,3000000,16
1.55,1.50,0.08,0.00,4.06,147584922,144569000,2991000,16
1.69,1.64,0.08,0.00,4.29,143047266,137730000,4990000,16
1.62,1.58,0.08,0.00,4.21,154820014,151730000,3014000,16
1.56,1.51,0.08,0.00,4.02,146647339,143614000,3012000,16
1.84,1.78,0.08,0.00,4.51,152015800,148957000,2999000,16
3.34,3.22,0.25,0.00,8.91,294174991,170077000,124056000,16
4.60,4.47,0.20,0.00,10.98,373086392,367979000,4999000,16
1.34,1.30,0.06,0.00,3.49,121708503,118713000,2992000,16
1.47,1.42,0.07,0.00,3.90,142009342,139895000,1998000,16
1.75,1.69,0.09,0.00,4.49,160447789,157402000,3007000,16
3.78,3.67,0.16,0.00,9.19,316137133,313079000,3000000,16
1.84,1.77,0.08,0.00,4.48,150162082,145296000,4975000,16
3.20,3.07,0.20,0.00,9.51,385799388,377632000,8013000,17
3.80,3.65,0.21,0.00,10.51,405399912,397251000,8005000,17
6.08,5.90,0.28,0.00,14.99,528423986,523273000,5002000,17
3.55,3.40,0.21,0.00,10.30,405330975,399190000,6002000,17
3.40,3.27,0.19,0.00,9.69,378295295,375134000,3001000,17
3.71,3.57,0.21,0.00,10.44,401454388,396436000,4992000,17
3.54,3.42,0.18,0.00,9.11,323608505,315589000,7989000,17
3.87,3.74,0.19,0.00,10.29,377219658,374067000,3000000,17
3.14,3.02,0.19,0.00,9.42,372190051,371168000,1000000,17
3.48,3.34,0.21,0.00,10.40,405897798,402753000,2998000,17
5.03,4.88,0.23,0.00,12.63,446718131,438554000,7991000,17
3.55,3.39,0.21,0.00,10.25,402370921,398348000,4003000,17
3.61,3.46,0.21,0.00,10.45,405755208,397699000,7993000,17
1.14,1.09,0.05,0.00,2.82,94323316,89261000,4958000,17
3.23,3.09,0.19,0.00,9.48,373795073,371245000,1995000,17
3.54,3.40,0.21,0.00,10.44,404466874,395431000,9009000,17
4.55,4.40,0.20,0.00,11.30,390468912,389439000,1001000,17
3.26,3.12,0.19,0.00,9.66,374091959,372983000,999000,17
3.24,3.11,0.19,0.00,9.57,371740551,368700000,2997000,17
4.13,4.00,0.18,0.00,10.03,344462688,339418000,4991000,17
1.33,1.28,0.09,0.00,3.59,124365349,1043000,5216000,18
0.99,0.95,0.12,0.00,2.56,83434186,80409000,3015000,18
1.59,1.52,0.15,0.00,4.25,137871884,132824000,5031000,18
2.85,2.76,0.14,0.00,7.22,257364368,254341000,3004000,18
5.82,5.61,0.37,0.00,15.57,514222199,378142000,136051000,18
4.33,4.13,0.41,0.00,11.17,372285115,214159000,158117000,18
0.82,0.79,0.04,0.00,2.08,69455378,68426000,1006000,18
1.82,1.74,0.18,0.00,4.69,151799899,150767000,1005000,18
2.79,2.68,0.23,0.00,7.39,250913808,244651000,5991000,18
1.35,1.31,0.06,0.00,3.35,116253702,112225000,4008000,18
1.61,1.53,0.16,0.00,4.18,139574400,134566000,4983000,18
1.61,1.54,0.15,0.00,4.16,137601171,133479000,3984000,18
1.09,1.06,0.05,0.00,2.70,91310291,90284000,1003000,18
1.56,1.51,0.08,0.00,3.93,137044358,134875000,1998000,18
1.34,1.29,0.06,0.00,3.38,116203107,114119000,1984000,18
1.63,1.57,0.16,0.00,4.38,143829374,139415000,3983000,18
1.19,1.17,0.06,0.00,2.95,102613063,98506000,3980000,18
1.69,1.62,0.16,0.00,4.35,146612135,139599000,6979000,18
4.31,4.09,0.41,0.00,11.15,374257895,234027000,140016000,18
1.58,1.51,0.16,0.00,4.24,139147493,134971000,3999000,18
3.17,3.06,0.19,0.00,7.78,269525737,226910000,40804000,19
1.26,1.21,0.09,0.00,3.70,134050621,2100000,5250000,19
1.07,1.03,0.08,0.00,2.69,91197450,55084000,36055000,19
1.09,1.05,0.07,0.00,2.88,93626349,4441000,2220000,19
1.10,1.07,0.07,0.00,2.82,92620376,1975000,4474000,19
3.77,3.65,0.26,0.00,9.16,310867422,230875000,79956000,19
3.89,3.75,0.27,0.00,9.68,333796468,266834000,66958000,19
1.08,1.05,0.07,0.00,2.73,94761374,2895000,3433000,19
1.09,1.05,0.08,0.00,2.75,91223672,58129000,33073000,19
1.17,1.12,0.07,0.00,2.91,96821472,61869000,34926000,19
1.13,1.09,0.07,0.00,2.78,93008938,2118000,4237000,19
1.37,1.32,0.10,0.00,3.45,115438133,84222000,31082000,19
1.10,1.07,0.07,0.00,2.74,93041095,973000,5379000,19
1.65,1.57,0.14,0.00,4.28,144026946,74960000,68963000,19
1.61,1.53,0.14,0.00,4.17,139672562,72841000,66854000,19
4.40,4.25,0.32,0.00,10.94,367302036,302222000,65047000,19
0.97,0.93,0.08,0.00,2.56,87801437,56859000,30923000,19
0.47,0.46,0.02,0.00,1.24,43271193,42254000,1006000,19
1.04,1.00,0.08,0.00,2.71,91470680,58280000,33159000,19
1.08,1.05,0.07,0.00,2.86,93050550,2118000,4237000,19
0.38,0.37,0.02,0.00,0.92,29695910,28363000,1012000,20
0.15,0.15,0.01,0.00,0.38,13413517,12386000,1032000,20
0.36,0.36,0.02,0.00,0.86,28274443,24265000,3882000,20
0.01,0.02,0.00,0.00,0.03,1501728,1462000,0,20
0.33,0.33,0.01,0.00,0.80,26286967,24162000,2013000,20
0.28,0.28,0.01,0.00,0.69,22802997,20783000,1979000,20
0.21,0.22,0.01,0.00,0.52,17598124,14651000,2930000,20
0.30,0.29,0.01,0.00,0.72,22731229,19734000,2960000,20
0.32,0.32,0.01,0.00,0.77,25528613,23437000,1953000,20
0.01,0.01,0.00,0.00,0.03,1418046,1422000,0,20
0.38,0.37,0.02,0.00,0.92,30054276,28923000,997000,20
0.39,0.37,0.02,0.00,0.93,29626816,29585000,0,20
0.32,0.30,0.02,0.00,0.93,34864991,32871000,1992000,20
0.38,0.38,0.02,0.00,0.95,30302061,28269000,2019000,20
0.18,0.17,0.01,0.00,0.59,21096895,19015000,2001000,20
0.29,0.29,0.01,0.00,0.71,22911705,19952000,2850000,20
0.38,0.37,0.02,0.00,0.96,30500336,28471000,2033000,20
0.15,0.15,0.01,0.00,0.46,18267403,16238000,2029000,20
0.37,0.36,0.02,0.00,0.93,30355226,28323000,2023000,20
0.35,0.35,0.02,0.00,0.88,29449972,27406000,1957000,20
0.04,0.04,0.00,0.00,0.12,3947276,2766000,922000,21
0.15,0.15,0.01,0.00,0.40,13560094,6775000,6775000,21
1.56,1.51,0.07,0.00,4.10,143775645,142701000,997000,21
2.18,2.11,0.09,0.00,5.31,185066816,185060000,0,21
0.05,0.05,0.00,0.00,0.12,4616576,3435000,1145000,21
5.04,4.87,0.24,0.00,12.98,467639996,466562000,999000,21
0.03,0.03,0.00,0.00,0.12,4770031,3827000,956000,21
1.62,1.57,0.07,0.00,4.12,144987989,143979000,999000,21
0.17,0.16,0.01,0.00,0.42,13715695,6843000,6843000,21
2.64,2.56,0.12,0.00,6.52,231026411,231013000,0,21
0.23,0.22,0.01,0.00,0.58,18703407,13766000,4916000,21
2.08,2.02,0.10,0.00,5.19,185231127,183116000,2001000,21
0.04,0.05,0.00,0.00,0.09,3888612,2915000,971000,21
0.12,0.11,0.01,0.00,0.30,10380104,7495000,2810000,21
0.05,0.05,0.00,0.00,0.12,4451368,3340000,1113000,21
0.09,0.10,0.01,0.00,0.29,9536329,8582000,953000,21
0.05,0.05,0.00,0.00,0.15,4123550,2478000,1652000,21
1.71,1.66,0.08,0.00,4.38,156126182,154121000,2001000,21
2.61,2.54,0.12,0.00,6.52,230572171,229447000,997000,21
0.27,0.27,0.02,0.00,0.71,24178989,19122000,5032000,21
0.14,0.13,0.01,0.00,0.34,10953899,8507000,2126000,22
0.30,0.28,0.01,0.00,0.71,22263792,21176000,1008000,22
0.15,0.14,0.01,0.00,0.36,11401111,8246000,3092000,22
0.33,0.32,0.01,0.00,0.77,24818953,21817000,2975000,22
0.30,0.30,0.01,0.00,0.71,23436919,22405000,1018000,22
0.13,0.13,0.01,0.00,0.31,10550667,10552000,0,22
0.48,0.47,0.03,0.00,1.40,52153407,50136000,2005000,22
0.13,0.13,0.01,0.00,0.34,10373934,9339000,1037000,22
0.31,0.30,0.01,0.00,0.75,23707157,20741000,2963000,22
0.12,0.12,0.01,0.00,0.34,12048695,10046000,2009000,22
0.42,0.41,0.02,0.00,1.14,36455243,34385000,2022000,22
0.30,0.29,0.01,0.00,0.73,23665164,22701000,987000,22
0.12,0.12,0.01,0.00,0.30,10587064,9654000,965000,22
0.14,0.13,0.01,0.00,0.34,10473847,8564000,1903000,22
0.29,0.29,0.01,0.00,0.74,23322693,22313000,1014000,22
0.12,0.12,0.01,0.00,0.30,9956155,8958000,995000,22
0.11,0.11,0.01,0.00,0.31,11054503,9950000,1105000,22
0.13,0.13,0.01,0.00,0.33,11152032,10129000,1012000,22
0.29,0.28,0.01,0.00,0.73,23705006,21723000,1974000,22
0.28,0.28,0.01,0.00,0.70,24083469,22064000,2005000,22
1.47,1.43,0.08,0.00,3.77,120577019,115305000,4970000,23
0.74,0.71,0.05,0.00,1.99,65179890,60141000,5011000,23
1.45,1.40,0.07,0.00,3.58,113611669,108600000,4981000,23
0.64,0.62,0.04,0.00,1.71,58742537,56702000,2025000,23
0.77,0.74,0.05,0.00,1.96,66177793,63111000,3005000,23
0.73,0.70,0.04,0.00,1.86,61764966,56662000,5059000,23
0.81,0.79,0.05,0.00,2.15,70241291,59164000,11030000,23
1.62,1.57,0.10,0.00,4.28,147766827,136762000,10980000,23
1.43,1.39,0.07,0.00,3.43,114251282,111215000,3005000,23
1.44,1.40,0.07,0.00,3.64,116865227,108858000,7989000,23
0.68,0.66,0.04,0.00,1.71,57145625,53109000,4008000,23
1.48,1.44,0.08,0.00,3.68,126044295,119026000,7001000,23
0.74,0.72,0.05,0.00,1.97,64799413,58802000,5979000,23
0.76,0.73,0.05,0.00,1.98,66742613,61676000,5055000,23
1.44,1.40,0.07,0.00,3.68,117846832,108839000,8986000,23
0.70,0.68,0.04,0.00,1.76,59608850,53615000,5957000,23
0.67,0.65,0.04,0.00,1.70,55675189,47703000,7950000,23
0.65,0.63,0.04,0.00,1.76,62570262,56480000,6051000,23
0.71,0.70,0.05,0.00,1.84,61424524,55362000,6039000,23
1.45,1.41,0.07,0.00,3.59,116438872,108450000,7959000,23
1.56,1.51,0.08,0.00,4.08,135108073,121461000,12942000,24
0.67,0.64,0.04,0.00,1.66,53865855,50744000,2984000,24
0.72,0.70,0.05,0.00,1.89,60390778,52325000,8050000,24
1.37,1.34,0.06,0.00,3.37,107488229,104466000,2984000,24
0.62,0.60,0.03,0.00,1.60,50985428,47884000,2992000,24
0.62,0.60,0.04,0.00,1.57,51591032,47594000,3966000,24
0.67,0.65,0.04,0.00,1.66,53822035,46821000,6973000,24
0.76,0.73,0.05,0.00,1.96,64776712,56529000,8075000,24
0.73,0.70,0.05,0.00,1.84,59961003,55926000,3994000,24
0.98,0.94,0.08,0.00,2.62,85078557,79968000,4998000,24
0.64,0.62,0.04,0.00,1.61,52510341,46428000,6055000,24
0.71,0.69,0.05,0.00,1.81,60033759,55000000,5000000,24
0.69,0.67,0.04,0.00,1.70,55043815,51017000,4001000,24
1.44,1.41,0.07,0.00,3.47,114970190,109951000,4997000,24
0.65,0.64,0.03,0.00,1.62,53869957,48842000,4983000,24
0.61,0.60,0.03,0.00,1.54,51696585,48683000,2980000,24
0.65,0.62,0.04,0.00,1.60,51185258,49154000,2006000,24
0.77,0.74,0.05,0.00,2.00,64491512,52371000,12085000,24
0.69,0.67,0.05,0.00,1.95,59855287,53945000,5884000,24
0.84,0.80,0.07,0.00,2.16,71319079,60249000,11045000,24
0.74,0.72,0.04,0.00,1.80,57950009,52496000,5047000,25
0.85,0.83,0.06,0.00,2.12,71662244,64589000,6955000,25
0.77,0.75,0.05,0.00,1.93,65687523,61584000,4038000,25
0.76,0.74,0.04,0.00,1.92,62776323,59698000,3035000,25
0.71,0.69,0.05,0.00,1.95,69698865,67662000,2019000,25
0.84,0.81,0.05,0.00,2.09,69044343,62983000,5998000,25
0.81,0.79,0.05,0.00,2.00,66800903,62702000,3981000,25
0.75,0.73,0.04,0.00,1.96,61518232,60446000,1007000,25
0.83,0.80,0.06,0.00,2.16,71523477,67466000,4027000,25
0.73,0.72,0.04,0.00,1.87,61731093,54736000,6966000,25
0.73,0.70,0.05,0.00,1.98,65162724,60199000,4934000,25
0.77,0.75,0.04,0.00,1.94,63380916,58330000,5028000,25
0.74,0.72,0.05,0.00,2.03,63857709,58838000,4986000,25
1.52,1.46,0.08,0.00,3.66,120092414,113036000,7002000,25
0.75,0.73,0.05,0.00,1.96,63998052,58960000,4996000,25
0.70,0.68,0.05,0.00,1.89,64305018,59273000,5023000,25
0.73,0.71,0.04,0.00,1.82,61555875,56500000,4956000,25
1.59,1.54,0.08,0.00,4.04,127136639,123962000,2999000,25
1.48,1.44,0.08,0.00,3.62,121943592,117882000,3996000,25
0.82,0.79,0.06,0.00,2.25,75885147,71854000,3991000,25
1.57,1.53,0.08,0.00,3.73,121616613,115173000,6009000,26
1.37,1.34,0.06,0.00,3.32,105166508,100112000,5005000,26
0.58,0.57,0.03,0.00,1.51,48161625,46137000,2005000,26
0.71,0.69,0.04,0.00,1.68,54573151,46602000,7932000,26
0.98,0.95,0.07,0.00,2.51,85829536,79734000,5980000,26
1.37,1.33,0.06,0.00,3.31,105999804,100973000,4998000,26
1.34,1.30,0.06,0.00,3.29,103721085,100699000,2991000,26
0.63,0.62,0.04,0.00,1.61,51452074,48415000,3025000,26
0.63,0.62,0.03,0.00,1.52,49585566,46490000,2967000,26
0.81,0.77,0.06,0.00,2.26,69585973,62508000,7057000,26
0.69,0.67,0.04,0.00,1.81,59524742,52569000,6943000,26
0.76,0.73,0.05,0.00,1.93,63771439,60712000,3035000,26
0.63,0.61,0.04,0.00,1.62,52602997,50548000,2021000,26
1.34,1.31,0.06,0.00,3.38,106340959,99401000,6958000,26
0.63,0.60,0.04,0.00,1.63,51907046,45892000,5986000,26
1.41,1.36,0.07,0.00,3.57,110730777,105470000,4975000,26
3.11,2.99,0.23,0.00,8.02,271141079,255110000,16006000,26
0.63,0.62,0.04,0.00,1.59,51194198,47195000,3932000,26
0.24,0.23,0.01,0.00,0.63,20165270,14106000,6045000,26
1.38,1.34,0.06,0.00,3.21,104954184,100999000,3960000,26
2.27,2.20,0.10,0.00,5.61,176768280,170435000,6015000,27
2.20,2.14,0.10,0.00,5.49,172976903,166952000,5998000,27
0.92,0.89,0.05,0.00,2.23,74822298,70801000,3988000,27
2.26,2.20,0.10,0.00,5.48,175090707,166967000,7998000,27
0.90,0.88,0.05,0.00,2.24,74279856,67321000,6930000,27
0.91,0.88,0.04,0.00,2.20,72082024,66025000,6002000,27
0.93,0.90,0.05,0.00,2.41,76275333,72143000,4007000,27
2.27,2.21,0.10,0.00,5.52,177693404,169628000,7982000,27
2.21,2.14,0.10,0.00,5.41,178420784,171303000,6971000,27
0.90,0.88,0.05,0.00,2.23,74188026,70150000,4008000,27
0.86,0.84,0.05,0.00,2.37,74992729,68974000,5997000,27
2.23,2.16,0.10,0.00,5.30,173577448,167583000,5985000,27
2.22,2.14,0.10,0.00,5.59,173358158,168348000,4980000,27
0.89,0.86,0.05,0.00,2.30,74572574,71347000,3014000,27
0.91,0.88,0.05,0.00,2.30,74457666,70458000,3969000,27
2.23,2.17,0.10,0.00,5.44,173752560,170725000,2995000,27
2.23,2.17,0.10,0.00,5.36,176952752,173809000,2996000,27
0.88,0.85,0.04,0.00,2.28,72599515,70558000,2015000,27
0.91,0.88,0.05,0.00,2.33,75731740,67734000,7968000,27
0.94,0.92,0.05,0.00,2.32,78303674,73266000,5018000,27
1.36,1.31,0.07,0.00,3.65,132939504,128133000,2002000,28
1.54,1.49,0.07,0.00,3.81,132465913,128448000,3982000,28
1.62,1.57,0.07,0.00,4.01,139709313,134704000,4989000,28
2.36,2.29,0.10,0.00,5.60,181639989,148485000,33108000,28
3.57,3.46,0.15,0.00,8.62,293957909,263920000,29990000,28
2.45,2.38,0.11,0.00,5.76,197330246,171267000,26040000,28
3.75,3.64,0.16,0.00,9.25,322271385,320253000,2001000,28
1.55,1.50,0.07,0.00,3.82,128407753,125372000,3008000,28
2.38,2.31,0.10,0.00,5.63,190838959,162844000,27973000,28
1.75,1.71,0.08,0.00,4.23,146735189,145712000,1004000,28
2.57,2.50,0.11,0.00,6.27,220583815,197499000,23058000,28
1.38,1.34,0.05,0.00,3.19,105270144,104172000,1001000,28
1.37,1.33,0.05,0.00,3.20,104668700,103652000,996000,28
1.70,1.65,0.08,0.00,4.16,143582101,111575000,31878000,28
1.84,1.78,0.08,0.00,4.49,156009709,124912000,30978000,28
1.42,1.37,0.06,0.00,3.62,124867372,86854000,37936000,28
1.31,1.28,0.06,0.00,3.27,113919804,110915000,2997000,28
2.16,2.10,0.09,0.00,5.17,175905134,127837000,47939000,28
1.25,1.21,0.06,0.00,3.22,105263443,103118000,2002000,28
3.24,3.13,0.16,0.00,8.31,304714362,301584000,3005000,28
0.32,0.31,0.02,0.00,0.78,24940552,16621000,7822000,29
0.51,0.51,0.02,0.00,1.30,40659718,35679000,4955000,29
0.42,0.41,0.02,0.00,1.02,33166072,25039000,8012000,29
1.87,1.81,0.09,0.00,4.74,170298219,97163000,73123000,29
0.51,0.49,0.03,0.00,1.27,41550161,35451000,6077000,29
0.22,0.22,0.01,0.00,0.53,16926140,12925000,3977000,29
0.24,0.23,0.02,0.00,0.74,29137552,23081000,6021000,29
0.29,0.29,0.01,0.00,0.70,23622885,17708000,5902000,29
0.65,0.63,0.04,0.00,1.67,51114356,42082000,9017000,29
2.03,1.95,0.15,0.00,5.33,176025803,93480000,82541000,29
0.51,0.50,0.02,0.00,1.30,41498710,38306000,3024000,29
1.14,1.10,0.07,0.00,2.93,103411183,90299000,13043000,29
0.46,0.44,0.03,0.00,1.21,42058336,28031000,14015000,29
0.42,0.41,0.03,0.00,1.04,34448392,30368000,4049000,29
0.50,0.49,0.02,0.00,1.31,40758498,36754000,3973000,29
0.32,0.31,0.02,0.00,0.79,25341656,23280000,2024000,29
0.28,0.27,0.01,0.00,0.70,23476948,17590000,5863000,29
0.54,0.52,0.03,0.00,1.34,42456189,36250000,6041000,29
0.52,0.51,0.02,0.00,1.37,41186809,34028000,7005000,29
0.48,0.46,0.03,0.00,1.20,38729443,30786000,7944000,29
5.45,5.29,0.24,0.00,13.84,437694568,386312000,50909000,30
1.61,1.56,0.08,0.00,3.94,129596166,122594000,6976000,30
1.78,1.72,0.12,0.00,4.64,163211953,153244000,9950000,30
1.35,1.31,0.08,0.00,3.56,123659327,114669000,8974000,30
1.18,1.15,0.07,0.00,3.02,98694329,94679000,3986000,30
2.77,2.69,0.19,0.00,7.07,229731479,219718000,9987000,30
1.89,1.83,0.09,0.00,4.68,153533456,146345000,7016000,30
2.64,2.55,0.13,0.00,6.52,211265274,208202000,3002000,30
1.39,1.35,0.07,0.00,3.56,117301084,115273000,2004000,30
2.48,2.40,0.16,0.00,6.02,200567696,190533000,9975000,30
2.40,2.31,0.13,0.00,6.33,214162602,182112000,32019000,30
4.58,4.45,0.23,0.00,11.67,376934895,347801000,29067000,30
2.00,1.92,0.13,0.00,5.85,207409230,63449000,4566000,30
2.02,1.96,0.11,0.00,5.07,170743461,161730000,8985000,30
1.39,1.33,0.08,0.00,3.43,119301942,110235000,9019000,30
2.24,2.17,0.11,0.00,5.54,195042295,158206000,36815000,30
1.83,1.77,0.09,0.00,4.39,149378760,143347000,6014000,30
1.48,1.44,0.08,0.00,3.63,122508620,115455000,7027000,30
3.93,3.81,0.18,0.00,9.50,318661556,273678000,44947000,30
1.63,1.57,0.09,0.00,4.20,133190781,129166000,4005000,30
1.35,1.30,0.07,0.00,3.67,129790253,129489000,0,31
0.81,0.78,0.04,0.00,2.16,78489142,77491000,1006000,31
1.86,1.81,0.08,0.00,4.72,157729836,155720000,1996000,31
1.75,1.68,0.08,0.00,4.54,156558963,154548000,1994000,31
1.33,1.28,0.07,0.00,3.56,133296061,132164000,1001000,31
1.27,1.22,0.07,0.00,3.46,124833736,123508000,996000,31
2.26,2.19,0.11,0.00,5.96,216806625,215665000,998000,31
0.15,0.15,0.01,0.00,0.40,14020819,14018000,0,31
0.95,0.92,0.05,0.00,2.46,89101455,85085000,4004000,31
1.46,1.41,0.07,0.00,3.78,137694804,137643000,0,31
1.31,1.27,0.07,0.00,3.62,136257895,135253000,1001000,31
1.37,1.32,0.07,0.00,3.70,137065016,136057000,1000000,31
1.33,1.28,0.07,0.00,3.59,135151378,134124000,1000000,31
1.37,1.32,0.07,0.00,3.65,133099285,132090000,1000000,31
1.43,1.37,0.07,0.00,3.82,141363023,140255000,994000,31
1.36,1.31,0.07,0.00,3.58,132107943,129745000,1980000,31
1.46,1.41,0.07,0.00,3.92,139940002,138819000,998000,31
1.49,1.44,0.07,0.00,3.91,142355044,140354000,1990000,31
0.13,0.12,0.01,0.00,0.34,11977248,11984000,0,31
0.13,0.13,0.01,0.00,0.34,12867504,11899000,991000,31
