@relation problema
@attribute 'L1-dcache-load-misses' real
@attribute 'L1-dcache-loads' real
@attribute 'branch-instructions' real
@attribute 'branch-load-misses' real
@attribute 'branch-loads' real
@attribute 'branch-misses' real
@attribute 'cache-misses' real
@attribute 'cache-references' real
@attribute 'cpu-cycles' real
@attribute 'dTLB-load-misses' real
@attribute 'dTLB-loads' real
@attribute 'page-faults' real
@attribute 'iTLB-load-misses' real
@attribute 'iTLB-loads' real
@attribute 'instructions' real
@attribute 'class' {0,1,2,3,4,5,6,7,8,9,10,11,12,13,14,15,16,17,18,19,20,21,22,23,24,25,26,27,28,29,30,31}
@data
293027,252685968,155080805,676309,152645272,669694,136332,2556139,496512239,117834,246111456,131,515747,13699,779632162,0
314496,255047891,152123439,662467,153657992,670274,176098,2635323,507337680,121112,254015016,131,307483,16604,785698161,0
346814,234757140,166721794,718046,167243647,708749,141294,2201845,509780217,107059,271615258,715,293204,205896,773776441,0
219916,247576522,155701270,517845,155704706,515392,67613,1851450,505980554,115331,251927738,128,309791,409662,769469481,0
257509,248051912,156060143,656538,156008396,650879,84942,1907728,506720327,115263,251968649,128,308867,366440,769893666,0
235741,247845628,155675460,645009,155930833,647564,58501,1782729,499389060,115580,252185947,128,512085,7323,769583072,0
255422,245270967,155422595,646688,155241585,643632,52754,1823566,504233591,117225,248856481,131,310244,419638,766901071,0
210238,245775120,155429708,621859,155413750,624230,55886,1736215,506579167,115026,249246849,133,309327,325586,767875651,0
175169,64844432,48725122,152025,48843908,153467,59046,460829,95342725,4360,71063370,137,2151,3056,247158798,0
175253,91902710,61462369,392494,61613082,391976,50368,1330939,344954576,112138,93484983,135,310523,336090,323578520,0
208610,246041035,156637257,675005,156667020,676674,104760,1926898,504250079,115819,249979783,129,512961,11850,771188968,0
231128,244624922,155434871,622238,155389949,622276,54625,1790801,506904646,114896,249103015,130,309104,398490,768077135,0
211146,245254181,155735499,634569,155655720,633536,52498,1781534,507300199,114765,249357749,131,309274,339975,767775633,0
126375,4131065,7044711,159551,7039809,159559,138291,611422,28692354,9235,?,593,?,?,?,0
126482,63377543,51548669,197517,51630028,199255,79015,538015,95620838,3376,71441813,331,1806,2946,245079845,0
171358,63916536,48448937,154992,48394358,152001,43467,457295,94139670,3765,70455142,136,2156,3829,244136687,0
147038,64250538,48629754,156832,48522910,154749,44656,463749,94844678,3659,70795687,135,2168,3280,245903159,0
121864,64998670,48351766,161081,48594221,164528,56174,487395,96605956,4099,71968322,135,2128,4085,249016624,0
254770,248665783,152547396,620317,154108949,619895,103979,2094991,505104937,116848,252495806,129,309163,415298,768977277,0
92904,54224403,59961966,161130,60466979,158108,112400,751244,105185577,4149,58865312,133,3567,5205,295005764,0
234227,244844514,155597429,608956,155606209,612409,63144,1875686,505579367,114997,249014014,129,308760,396497,766095299,0
185021,92461163,61632150,336248,61784203,337344,70878,1331001,341534986,112024,93290444,134,309094,360460,322595628,0
246273,245946021,155618662,660109,155581203,659890,60103,1734556,506448479,114903,249892850,129,105157,114268,769425599,0
208973,245380720,155270570,633787,155501937,634557,57226,1837903,505418965,115158,249521498,129,308738,374766,766426272,0
218728,248291911,156767256,714276,156650303,710682,75626,1852618,502815634,115310,252080758,128,308182,202249,767920006,0
262170,245046119,156200470,620166,156106357,620894,52410,1794539,507743041,114917,249472932,129,308346,412353,766919033,0
211744,245580169,155692432,574495,155584113,574943,71737,1828076,504945370,114579,248893354,130,308475,408751,766383619,0
267834,245254073,154264174,654745,154988045,651675,79510,1965251,509264237,115328,249727807,131,362768,379623,766395095,0
253719,249396168,153800444,624955,153349078,622871,75120,1992640,504878161,116632,250709392,127,310396,333904,772517530,0
207777,245432721,155742700,665177,155855563,663163,55099,1708408,504374772,114993,249652397,129,309000,287440,766179735,0
180435,64679299,49161953,209529,49021966,208624,42970,455589,97007194,3901,70944972,140,2157,2698,247423245,0
215360,249071273,155996505,642862,156006047,656674,76755,2013653,499649007,117710,252197279,128,309508,109943,768202592,0
204720,95702492,67987517,411081,66919124,411134,351771,1999999,358777116,118560,97988229,1893,322144,347886,336065741,0
244569,244652712,155393169,624950,155481151,620610,60035,1734439,506646845,115254,249056096,127,308474,411712,765020665,0
237663,247028728,156241041,623276,156410442,618431,52514,1795929,505721595,115262,252070757,129,308381,408392,766239378,0
211261,99029287,64676337,401789,65078737,398525,78781,1517067,348832298,112416,99563452,133,309044,399991,341513146,0
212652,248837124,155974285,688411,156157829,691269,60494,1772334,502737786,115023,252085267,128,309203,212673,771359947,0
282520,245081427,155581892,631481,155568719,630086,63212,1819942,505664579,115587,248865456,128,309084,348573,764217868,0
282782,248095725,156438488,625117,156531814,622106,65670,1865361,508554320,115452,252715075,129,309104,389030,768275296,0
279212,225807684,168733407,697798,168842461,699665,98797,1942296,503743030,106492,272923907,324,307880,317664,742883253,0
140434,64289499,49375159,161849,49302702,159533,44204,434077,96351356,3827,72042481,135,2141,3117,249657463,0
280936,248459467,154180769,635326,154724718,632187,77409,1979736,506741589,115290,251236484,129,308146,409202,767572389,0
139998,65412950,48449351,156332,48647610,156873,51124,468075,95582138,3524,71491323,137,2088,3766,249294788,0
127483,65198431,48609157,156451,48623428,158585,46703,434079,95322817,3780,70637029,136,2136,3235,244555820,0
278152,246641780,155294051,662957,155226454,659566,52131,1772845,499199937,114595,248640420,127,308299,122914,768808471,0
242505,245417992,155210132,605064,155342934,604502,65601,1972786,500991903,116486,249280149,130,309356,248945,765984445,0
187277,64685370,48813993,162000,48850115,160076,45454,486614,95859172,3789,71368553,137,2606,3683,247295557,0
220356,248985826,156312946,627263,156516569,627281,61837,1791737,503536235,114571,252474589,130,105023,262930,768835321,0
211627,246742229,152808855,690224,154052888,679355,208125,2171712,513498395,114731,250208424,128,309824,256607,768813150,0
144635,64285717,48790392,159884,48758631,157874,43705,434699,95168898,3832,71161218,136,2926,2270,248816320,0
206218,248241337,155942295,610875,156075899,609975,66346,1751587,506451646,114534,252311924,127,308934,391780,768368289,0
1283594,122929913,62514156,402899,62363360,411811,122856,1530899,344922327,112055,93828027,135,314357,230254,420444685,0
214526,248146257,155844448,606434,155893602,605945,52546,1734284,504326325,114388,251814264,128,309755,400894,768161123,0
132227,64953885,49148126,156017,49125239,154810,41918,440613,95950327,3703,71488723,136,2058,3080,247542561,0
129131,65782979,49580562,156369,49534049,155488,44196,436137,96220754,3838,72076253,136,2143,3057,250211174,0
148349,62335643,49020899,184568,48952013,181990,46088,428158,96411165,3652,71341879,137,2141,2770,247059077,0
223673,249883090,156156213,647214,156243615,639142,89613,2020688,504887283,114473,251932814,127,308889,338049,769643145,0
237930,248218310,155908329,612432,155887417,608731,57540,1754119,507620463,114515,251871397,129,309103,379625,768152177,0
211545,250940520,152057231,617357,153368134,619992,170776,2154957,499705807,116585,251948659,129,310250,234853,773835528,0
212274,249486308,156387637,607818,156218734,606302,64368,1871578,506136116,115349,252266133,128,309684,340591,770259198,0
265645,248901911,153990786,713064,155193682,706047,99409,2025917,512980714,115514,252522169,130,308902,409352,770909884,0
222981,248179726,156088501,576299,156177926,572740,52348,1699771,500617026,114640,252211031,128,308578,231613,768212317,0
289341,231332666,168555809,705136,168638726,705384,77352,1829336,506306673,106217,272119578,323,294793,370436,763176733,0
125327,64015707,49293034,157127,49254256,157870,59092,470573,97318025,4107,71536831,135,1983,3277,248826103,0
216491,248258074,154580218,551006,154982014,555796,70290,1880642,508566098,115049,252624519,129,309199,392022,771033179,0
167917,62544673,48890626,111289,48849037,109082,44027,458598,95344270,3858,71436297,133,2263,3209,248053552,0
174076,214960804,149021259,554552,148934499,550158,66182,1091454,262717460,7554,240985328,323,4233,8925,692965437,0
207835,244981847,155432292,603373,155553811,603344,66117,1796885,506990192,115102,249261305,131,308824,415659,767444762,0
427405,250468596,155252933,603108,155218197,602983,52356,1734378,499236670,114689,247278464,130,309812,114436,791964538,0
245097,245613387,155253712,590628,155440603,597082,51808,1762450,500855803,114717,250137978,130,309171,206740,768074972,0
173707,219675675,141190134,545256,144046013,549726,93990,1283048,266008991,7612,241014788,325,2201,9512,693525710,0
125156,64841629,49014195,165262,48919376,162889,59336,477459,96774468,3773,71263754,136,1138,2995,247487655,0
126063,62420893,46611668,165064,47113143,161301,67382,618557,94086782,3966,69880005,135,2065,3199,242214322,0
248089,245724100,155131132,621646,155043993,621279,59546,1769133,503895300,114253,248561019,130,308555,360214,766622632,0
231701,249052162,155890943,620779,156148234,625236,65774,1893752,508099158,116303,252760554,130,309782,364591,770893586,0
293439,243378297,155092019,602747,154967515,602741,62015,1825648,503525123,115490,246813645,128,308434,405473,760369362,0
144963,65230353,52009704,115605,51744337,114663,47787,478689,100693717,3906,74592250,138,2188,3184,264564980,0
205769,247160417,156270422,618028,156262745,617077,49278,1732986,506029233,114645,252307324,129,308644,328454,768137032,0
130415,63290539,49436611,158791,49444562,157655,44655,451036,96594415,3732,72002537,136,2133,3108,249318888,0
127825,64616085,49185520,157553,49304023,156960,47535,463482,97008108,3585,72079426,135,3260,2250,250152267,0
304319,2202188,20018997,260178,20263258,249014,73011,3768446,982310663,29254,2273510,133,7604,4008,221877218,1
61377,1652848,5410188,107876,5430243,95951,35968,739471,181548269,5432,574602,66,1130,550,123291022,1
79399,3678449,1998229,27786,2031215,28220,9179,528656,152337699,4056,312699,128,1700,1221,138352052,1
52126,3189928,4181357,55761,3685412,46337,36526,603017,97901440,4879,241422,129,664,253,108744954,1
93141,2048102,2297309,44629,2219249,42923,20385,810184,237957226,6149,437631,133,1446,614,229185695,1
155191,1926815,19886672,85068,19843179,83544,24991,1679057,496294775,13622,992833,133,3213,1777,314078636,1
40142,1300217,2359503,33327,2594922,32855,25770,559325,51866878,4963,896482,134,757,227,64514210,1
248045,4602228,64961568,127261,64961191,128080,34846,2797483,780010239,22075,1918376,134,6255,3981,944143489,1
162675,33434830,62493696,88982,62742709,103881,43101,1966551,523812934,16525,32644092,136,3767,2007,562201353,1
144076,2906893,4477384,63591,4451110,66711,17756,530793,152828687,4017,309344,191,3031,3799,88023449,1
516421,6706470,210073875,234960,210104858,233326,52829,4873066,1445724286,37459,2576330,127,10752,5381,1992911233,1
179001,3849252,3194164,79804,3178649,87023,41860,1740036,505255767,13327,996136,134,3246,1401,72080694,1
165858,91525107,143156974,147359,144364289,130920,112587,2354111,595620425,18069,89844870,135,3660,2132,739472117,1
62749,1890524,2028429,37912,2051909,37124,9914,675762,180023317,4817,358439,137,1259,619,140816795,1
1501073,45837546,50878549,72305,50999256,90122,74715,1676268,442930728,13729,1712585,132,16933,38900,836482034,1
448867,6288422,210699400,237737,210622498,245493,88801,4871894,1447754112,37571,3539951,130,9653,5093,1992974766,1
136243,4342646,1071138,21917,1251848,24960,25951,484231,135174069,5584,966742,135,1912,1515,32396619,1
104969,3402180,2063403,35886,2071373,33704,8892,637171,182032755,4986,374548,128,1232,376,143979265,1
39256,2394918,4146052,68015,3853948,119447,23385,516507,103278340,2823,234210,133,706,345,79933000,1
56451,1891661,2172794,18860,2117302,17651,13954,315257,69839070,2149,174781,132,489,231,88611845,1
174768,3974178,5298294,195455,5777152,169807,42129,1689394,440105049,13369,1352037,134,2927,1779,75846309,1
367785,71712361,129145496,192730,129217297,193478,39809,4002355,1195583150,33861,69965381,128,8555,5196,1638610444,1
100543,4026538,3047561,42404,2633399,37230,44326,606896,108890827,5247,247198,132,721,256,92398005,1
438692,5926592,210610766,233357,210470498,231771,46031,4685431,1448191163,37929,2646886,127,10369,5605,1990620949,1
144110,9714272,1091136,11214,1078284,10924,3652,199773,53669711,2683,588572,133,1681,2767,64716287,1
131739,3374543,5244710,59766,5067449,59365,7950,661569,182382743,4872,360353,132,1260,528,121880645,1
98313,3266740,1997546,31639,2021194,31660,7053,646222,178707579,5013,389143,128,1234,687,146593543,1
124359,1939662,6270586,175243,5902410,155800,43107,1634423,429913494,11237,760755,133,2854,1302,68443922,1
459535,6633638,210486808,236205,210644672,237416,117548,4922132,1451130944,38716,2903882,129,11142,5879,1992064949,1
46706,2999837,4054088,84893,3857595,83084,25197,583883,110312857,5358,220008,135,762,361,92209178,1
67561,3431576,2755100,16283,2783022,108916,4542,284453,78722169,2075,147181,133,484,154,81150343,1
59673,1838584,2020631,31299,2035906,30703,7970,600085,179293563,4668,337322,128,1077,384,110349910,1
217708,6488412,107430680,119413,107349819,119597,25951,2393267,712436650,18083,3848947,130,5360,3008,1099263601,1
120227,4126304,2341552,40159,2380500,38960,10891,753248,225767226,5839,435499,133,2142,1307,49266121,1
59030,1681074,5167923,125780,4859997,103676,61469,804591,179444741,4819,335307,66,1215,603,120029589,1
540417,7590087,82436029,4503754,82511243,4503244,195949,4238041,1215291921,33209,4715028,1809,9894,11431,429570081,1
404530,10739640,217683581,258157,217725655,256673,65427,5015949,1548121534,39375,7891259,133,9197,4593,2328219327,1
60875,2007048,4821329,92137,4707263,80964,23994,746533,182503729,4866,353784,133,1224,503,123372955,1
58292,1647398,2855662,44572,2529810,38894,23869,703369,181331561,4455,348571,133,1104,442,110618485,1
61838,1933923,2792830,53416,2558095,48714,32821,830845,187065120,4954,368662,127,1152,535,126062792,1
242952,3386995,107072249,139982,106945753,137401,67581,2639064,788892047,21515,2094337,133,6089,2885,1121166404,1
40281,3231453,3079538,38291,2673005,35497,38824,580884,109518127,4884,248761,134,681,301,92398500,1
124890,5496787,4001274,102417,4160098,90855,21138,276049,64614799,2146,219870,127,1310,1166,85992490,1
89605,3643032,2047026,37837,2090174,38067,9592,782752,212851891,7326,994084,136,2325,1536,142394606,1
65639,3597220,2901906,37617,2504035,34021,27364,571251,108952351,4968,229130,132,685,313,92572995,1
317160,109643369,149512619,185954,150825352,186783,43795,3732342,1145734578,28682,107868903,133,7004,4737,1963447377,1
48803,7719111,8443566,153600,10695621,238539,24592,564566,113977260,4997,6499445,132,748,382,132416786,1
58303,2650302,2221281,35005,2137187,34353,20381,634345,179092751,4644,342470,128,1220,575,110295194,1
139092,3381765,3062388,103422,3039016,101535,14731,885301,259409974,6910,517185,126,1740,730,48187020,1
42697,3961325,2951863,20046,3408958,27569,4245,312805,89188981,2911,1601896,132,999,423,115476458,1
239753,5810113,118786852,511411,118878283,500826,78194,2752743,799978563,21098,3157935,132,5785,4208,1162385840,1
35518,2384366,3029744,18502,2653482,17253,5548,328984,90324789,2387,188629,127,561,310,122086665,1
128161,2143242,50527455,96937,50072734,88098,66334,1724309,433065457,12867,927635,135,3442,1318,662874323,1
137801,7895418,3573772,63741,3563734,57162,3207,219332,58079927,2272,543225,128,1806,1617,64445295,1
65688,1687946,2202246,34515,2122803,36502,34869,692884,181283850,4954,566285,132,1631,1058,143676136,1
37654,2492578,4657421,867990,4717099,848908,6813,323293,89711742,2401,174676,133,676,379,73775814,1
127210,3777169,4001687,59033,3965200,60533,21418,1176226,338245048,8420,624344,134,2100,973,237554300,1
373312,69165443,124238845,191632,124310794,191654,89204,4053610,1176117059,32329,68135336,134,9365,4475,1390479917,1
60607,3466741,2057908,15569,2041160,15112,5061,272861,67557890,1941,157254,134,1206,1061,84147988,1
60985,2022924,3839483,88560,3386161,70692,170271,1035251,185020985,5873,673969,137,1195,623,110663149,1
94325,6688546,4049547,11667,4043244,11637,4047,220468,59396860,1528,538421,129,1534,1539,73224817,1
374012,9940021,1054474,10498,1054974,10393,4966,198086,51910134,2847,637543,132,1802,2405,52334809,1
46935,2865277,2051117,23231,2040166,21510,17523,377836,97811111,2729,189574,134,667,318,96126225,1
42257,1698921,2894275,42293,2657619,38711,56496,604181,98787559,4617,254692,133,686,348,97633796,1
87368,3605145,2039723,36099,2505848,47695,28703,856023,199032087,7098,964938,135,1213,677,181983770,1
44658,2121654,3290557,19167,3271308,19056,12667,380281,97612859,2717,382995,135,653,389,65194115,1
61308,2204136,3000628,58099,2666461,53172,54667,940672,190645647,6377,624223,132,1723,858,135656737,1
49250,2693108,1581720,19756,1553203,19095,4841,644558,99041394,2359,1384527,133,554,320,77783618,1
63301,2050923,2847519,56024,2578514,49980,29339,842213,188585159,5916,333642,133,1269,558,135603488,1
378877,8479859,9093632,122701,9077009,119475,449080,2710438,657383665,28239,7839333,4041,14604,15765,120172743,1
164791,9107000,1096159,11993,1080975,11473,3959,232752,52279354,2931,587049,132,2233,2815,50890527,1
114502,3685969,2754366,52224,2716776,49543,60901,855420,188041792,6608,1896050,133,1292,563,139302989,1
121434,3632358,53967894,67131,54112607,64744,53836,1412188,372123291,11140,1200020,131,3229,1143,595138696,1
258013,7057619,111734302,168215,111751099,164870,56772,3254849,985307876,24841,5156167,132,6041,3521,1303073502,1
84936,3098154,2911660,69331,4084118,132112,5051,354224,92615068,2510,205947,128,585,265,153741054,1
61131,2152597,2992710,57254,2658473,49403,40313,848780,185702953,5026,358137,133,1251,555,129899972,1
90041,3350258,2042619,32094,2028521,30658,6976,614945,183327324,5442,445081,131,1678,819,143995987,1
113917,36554567,55717425,73552,55693511,73824,53936,1471535,367803756,11450,34878434,132,3004,1205,312195033,1
115373,3064573,2000914,20461,1997743,18985,5604,363367,92893412,2489,219188,127,636,319,94214666,1
426376,5731582,210582037,248150,210972093,254615,140043,5169417,1465095331,40125,4046961,133,10516,4794,2005611589,1
684099,191893625,107089697,2615579,109828939,2281319,329930,2847448,249549212,22117,202042325,908,4408,6829,608589190,2
576587,164445178,142692306,107779,142091773,562037,83553,1376644,253977892,9408,186264808,1004,3479,11875,530508085,2
7712432,118773443,115000142,640573,114472856,645058,1093431,6959755,338629099,102902,144625924,2870,10126,17759,393209827,2
343911,81661898,50864390,1859053,50323830,1850179,30376,901885,133099896,5100,71475416,523,1974,2425,306037452,2
542155,206039959,109034107,2025157,111684162,1734114,339792,2630063,258794860,20844,213365139,908,3457,6782,646659095,2
483514,69878904,75951810,1439306,70366806,1662122,65160,889369,159816669,4670,68575417,523,1582,3664,293211559,2
519427,170203764,141443321,204924,132619482,1034387,46342,1214446,244885553,6486,176331073,520,1714,8443,536565094,2
1027298,164260127,145611348,112983,145361565,113039,121073,1617285,263684815,10656,207004115,1904,3261,17847,532869860,2
548152,164750355,144161506,107958,144191531,285739,76364,1362957,254233427,8920,190896016,1003,3584,12555,533138207,2
596381,80998446,48467846,1863956,48198781,1845030,88173,1421595,135568869,6247,73088186,915,2652,2518,314068216,2
455365,89866241,49100803,2069034,46899929,2151927,96699,1752379,135530112,14420,66602320,1432,3914,10362,308857037,2
1449902,81481600,104455714,909088,104920981,1128467,247862,2375089,256686196,10330,95207900,2333,6212,10072,404476483,2
1493707,208737043,118527119,2204106,115632251,2250711,356766,3751929,317439248,29977,241162979,524,26432,130590,770343814,2
776388,168414692,147071642,98901,147037078,477468,63310,1558787,255952836,6557,192233403,957,1787,5487,531346867,2
429063,167690528,144908814,99602,138725359,911250,39846,1217248,252075230,6834,181888130,518,1759,9164,527849004,2
370532,75207175,48723438,1983665,48186360,1942178,64267,1809971,129580451,5880,78566839,916,2483,2778,319975525,2
336430,78613809,48068383,2007668,48039110,1944113,86139,1783654,131028700,5855,77319239,918,2418,2846,330603758,2
546753,54108769,58893439,1219824,52599755,1542985,73006,1054580,135827818,7242,57185952,784,2272,5104,202776618,2
493247,163140312,137217118,99022,135291564,97237,85428,1139679,242333878,8186,199251598,523,1836,8053,534439076,2
303910,82312294,51309824,2097178,51157294,2086681,125007,1844220,126200305,5291,78047832,915,2329,1742,324926763,2
248239,70945138,48193457,2143799,48582862,2124383,93033,1174485,126372515,5945,74551788,524,2637,5238,304711644,2
399046,79272915,48387469,1876241,48020976,1869620,68244,1661551,132073756,5801,75056730,917,2328,2268,323425071,2
748746,63555591,47766089,2187688,49352984,2017367,102845,1960255,125251928,5882,49646052,915,3486,12151,199385256,2
928721,175213586,130377438,123680,138597640,294141,378626,1985580,268215769,9079,204010298,1300,1898,7371,568390057,2
968078,168989437,141876862,99958,141468771,497285,87984,1486897,246663547,6348,188620965,908,1762,4710,528700966,2
574869,167531485,144991403,120867,145895378,119629,137844,1454054,258483882,10187,208002451,1003,3647,11720,539639744,2
548592,169731889,140528545,95908,135856812,916455,44788,1145408,244369297,6441,179339010,521,1733,7316,535610300,2
529566,171626754,140652798,95060,134550315,1023522,38521,1138554,244564864,6224,178338831,519,1702,10059,531181785,2
341646,95011772,51657938,1944711,52021775,2073206,32676,907671,140161451,3591,73781074,526,2254,2133,299214423,2
549807,168125333,137932560,97924,134856759,847225,69697,1217346,243266494,6838,178095637,521,2053,9751,514754042,2
543506,170492224,140186249,98103,134804183,973625,50661,1188212,243126753,6312,177477093,517,1717,9632,522676507,2
365188,203204775,125636933,2126689,121639210,2346129,154394,1889664,266316576,7988,177084436,520,2295,11789,581028723,2
501258,165154134,141772240,96195,138859920,799828,40736,1172620,252128426,6425,182957575,522,1778,11902,531307431,2
239667,84379633,46167038,2021437,46625874,2008484,28199,1025580,128613624,5483,72287906,525,2193,2155,313132016,2
671382,303753429,246112686,728839,238173797,1432118,116571,2210890,450654865,14931,306946584,541,4834,10514,1189279332,2
562736,162480538,143433205,106772,142279089,341074,75584,1370223,253439594,9023,188711874,1003,3639,14955,529026097,2
5671179,142500929,80887893,975468,81276106,913071,1262795,8117588,332134861,111797,136714782,2870,7235,17629,496124293,2
479496,166370456,144917509,483847,133002804,1161580,38674,1189956,251326195,6560,175597398,518,1765,11784,525263868,2
327797,79151284,48344328,2135933,49735445,2008647,121099,1695498,123125502,5167,79416094,913,3612,1393,320424361,2
270658,70752165,45924564,2207514,47687666,2011200,127994,1158629,125573435,6590,77023341,525,2772,5250,304392933,2
394326,75843975,48251711,2161612,49652673,2071409,282380,1864487,129917381,5406,79517230,915,2441,2424,327256606,2
311394,82434979,47810116,1992197,47132730,1939722,76411,1692028,128478438,5741,74258911,918,2674,2923,319560166,2
465728,167070342,143630371,100834,142734334,98879,53477,1171934,251728769,7989,201696388,517,2639,11048,518991764,2
944087,175017476,143894914,188826,145432753,405327,239997,2003737,268212807,9163,197934481,950,2820,13341,581963472,2
445152,164969677,143352344,109610,144201813,283174,78635,1268515,253210562,6964,192884860,519,1796,11541,524228593,2
385768,77163441,49439864,1855765,49119720,1846087,57079,883466,133447192,5347,69804074,525,2521,5250,300535304,2
956325,164130211,135777902,104199,136642184,154410,148072,1380260,244899897,7776,187969003,908,2818,8809,513969474,2
605247,97612655,53388025,1836916,53008472,1955230,72499,1461870,144214951,3686,76811981,917,2116,2078,305031219,2
500421,81083730,48470906,2042967,45737605,2123942,68335,1043142,134652164,6682,64293538,1011,5420,7588,269918473,2
511199,73996486,47149320,1978679,47553385,1911047,83540,1767926,127907621,5694,77022819,917,2531,2630,309308465,2
587847,166262157,127000551,121923,132583135,117084,164428,1476558,246123234,9679,217534156,1004,3491,11363,568565321,2
1051046,166849757,141472566,125583,142908059,120805,119946,1618467,262768220,10963,208526459,1906,5462,17125,534410161,2
218016,81082696,46766887,1954503,46696520,1991032,28161,1080654,126940988,5534,71541749,527,3376,2511,304552962,2
212133,78658723,48563671,2137759,48415198,2091647,61919,1131979,123899165,5475,70636127,524,2658,6519,298742769,2
338403,78680445,48340739,2049084,48924593,2065498,67966,1067734,134935387,6410,74363847,526,2965,2365,364160144,2
8025267,224102631,182531827,827753,179000539,833359,1203885,8844630,501691876,160702,245724103,2665,6021,36149,694437861,2
525039,168196314,140774260,95530,140757963,551876,76468,1180207,245423533,6931,187388711,518,1795,9614,528132873,2
558193,171251652,139709501,97369,132852885,1028514,41712,1168717,243211517,6477,177135873,521,2610,9926,544032647,2
430658,76222841,50115194,1854402,49327235,1855168,63715,864306,131287705,5636,68778780,524,2524,6107,294301587,2
369411,77508000,50240978,1821224,50053308,1839529,100539,989986,131416913,8022,69678569,525,2614,2566,309835252,2
520725,169500225,140936547,95885,137628788,865534,40523,1149052,245257618,6179,181696119,519,1721,9040,522378180,2
165878,88008712,56400035,1935486,55431659,2069260,44464,958990,142239006,3660,91853895,334,2097,1833,298819831,2
506302,168420284,142081999,134247,134169991,1050845,170758,1385451,251672620,6667,179469745,521,1757,8027,535796697,2
1038903,165613982,138151405,105321,137540744,680591,140156,1436853,247033093,7902,182713382,907,2395,11199,519391647,2
902965,173221814,120624105,804177,128437733,603416,275272,2269179,256712259,11813,230320979,1905,3917,15534,584702819,2
620530,181101781,118831912,2408040,118510914,2526732,74064,1918629,248889382,13267,199139174,907,2917,12303,581080767,2
304219,68785553,45911543,2191041,47949289,2101184,86518,1112961,126019145,5513,76639508,525,2772,8021,304007690,2
368074,76185199,49638400,1813630,49310935,1838433,56248,901827,131896768,5418,70089194,525,2444,6531,304839588,2
218821,75332563,48226613,2149131,49539110,2079793,96153,1168906,124917695,8207,75005831,524,4994,1545,317264158,2
8529468,242513926,150921418,3120283,144111662,3121391,2280571,11895202,480585334,302071,221063367,2668,6482,32392,723597542,2
571036,166741699,140999526,108968,140708110,434492,83720,1361588,247512153,8949,186170902,1004,2431,8800,534531850,2
914178,165697307,143556116,120506,143485014,549281,130270,1547276,254799378,7177,188340278,911,1787,11555,534756646,2
525992,168268986,142108852,98925,137797013,898903,51239,1184346,245775110,6321,181259442,519,2634,9883,522531470,2
865329,168997915,143610114,107557,140957378,780135,108358,1553243,249844927,6676,185625158,910,1759,4652,538019943,2
532224,171107425,140522465,182287,131977558,1115826,62828,1242031,243497751,6306,175626434,520,1686,9756,543709572,2
462779,68394954,57024848,2167062,56857795,2190578,139563,1637111,158829202,6251,74050047,916,2185,870,307986131,2
258835,69230045,46648462,2173505,48036834,2020653,113529,1164734,125916829,6266,76718267,525,2814,4640,301178779,2
579601,169631734,135008368,159420,128923890,1102663,95087,1256149,243900335,6476,175422189,520,1804,8999,542626030,2
539485,170684379,140866363,98619,134276887,1053782,45720,1166607,245381120,6159,177568950,518,1724,10014,524419683,2
479128,70007074,71121083,1673029,67986309,1808121,63298,930733,160621001,4648,68506028,523,1498,3590,294368147,2
5225660,149153108,109811611,825193,107492400,825635,1575551,10700017,383857204,195019,147304616,3385,9469,28471,469279586,3
5040538,153461968,115676760,2763620,115389113,2762359,1218497,11483078,413616191,191694,151713911,2479,4566,19630,508517193,3
5110830,156324864,133032821,2747325,132879766,2732291,1351501,10766094,439273765,176488,163561171,2871,8634,20816,516044578,3
5189108,104823366,102078148,756360,103832239,751920,917916,9133744,350848196,103157,153442695,2480,4411,23905,380499736,3
4105103,195080797,148228686,3198769,147656803,3191019,2033108,13680924,936506586,403429,196937795,2479,662230,384592,669842621,3
5261087,337079492,235933397,970785,239589462,964374,1056996,10248702,595556038,112364,385103212,2667,9333,33439,1049122393,3
5037645,378961673,241752637,1575725,242823064,1552483,1390448,12358253,1092995533,345889,387569972,2474,641689,326608,1163479668,3
4947017,207325175,159275431,3029079,158457925,3028023,1481037,11468620,993371189,492423,212915559,3258,587835,772481,711011901,3
4691073,404558478,258694770,1550759,258263304,1544972,1800261,13332271,1108327459,411936,405747256,2474,212890,1016617,1264990200,3
4957438,412434301,261831379,1575309,261317937,1562811,1984885,13510949,1124687635,441816,411882705,2667,210331,837185,1275153107,3
5319031,329718863,243732509,956119,244825995,954110,949870,10060288,593812529,114281,380681003,2672,7316,26227,1031419999,3
4725796,159064875,105309628,845991,104713073,838885,1652593,10233457,378123711,189626,151815552,2480,6100,22815,520542475,3
5049868,146280445,110070944,804733,109807975,793909,1678769,9625806,374644299,183948,165206320,2868,6237,24438,529703617,3
5775332,399140531,261509551,1518726,260464997,1560799,1332955,12695995,1140795327,408162,404030504,2613,601295,681028,1250911187,3
4863253,140885194,117449925,2487804,119389716,2462573,2578098,10995446,448262230,284747,158850194,3651,10319,29664,503154787,3
4788969,181416577,159798557,1317941,153868182,1325916,1784017,12508445,873844127,434679,191451866,2868,220825,239760,607429941,3
4713423,411927005,260957204,1564485,260458293,1557369,1852728,13661431,1108696088,410197,411768335,2473,621681,543586,1271343704,3
5151661,182376077,160766281,1284365,160870778,1302616,1703644,12187861,890238461,430206,201383374,3258,617041,546704,610762300,3
4950525,197670988,141881723,1447202,138120173,1468860,1588798,12789416,895633160,403728,198064212,2870,414246,837853,658010417,3
5137229,211905341,143544347,1237101,142992481,1267351,1323599,11530412,896011496,412008,214431345,2674,203585,19942,695486831,3
5187026,141192374,108863189,2479824,111761385,2486657,2219584,10975149,441970002,268706,173506065,4168,8290,32109,484120409,3
5117096,112611479,97678029,774434,98819417,769671,1176184,9630073,354531886,106800,158745960,2871,6177,21661,411661255,3
4737969,156410089,104917392,870253,103955822,862050,1693029,10366195,381043263,197716,148162042,2483,7648,16355,510529889,3
4690759,158254931,105547211,839270,104943054,830259,1630301,10217563,375466597,180829,152815057,2480,5268,24352,526415910,3
4740306,156686897,104443232,851763,104062597,841249,1676219,10255066,380603685,197849,150603815,2480,5464,21998,516541671,3
4724149,173648172,156041252,1352072,156545058,1335417,1931259,12512856,879909347,423442,196876520,2675,647783,341186,578601285,3
4967621,402666398,259037004,1545282,258632417,1544205,1792043,13394402,1120591058,443921,402079144,2474,606165,458107,1249626956,3
5244488,317802756,238544608,960144,225448385,1002049,1433062,11051140,567517152,218477,320021459,2670,7083,24560,937969333,3
4701722,405502340,258075538,1606800,257129145,1597241,1884563,13553522,1107449398,405355,404476982,2474,217167,249157,1259703341,3
9720658,225438835,192172532,3759873,185606690,3752726,6917725,26419338,1205213434,988432,229815668,5017,219033,53910,761415845,3
9063682,417999588,270928403,1952158,270211006,1947743,5795057,23240482,1358733016,949858,414040794,4819,617833,869314,1305624025,3
4713440,141003645,103542043,823004,102942232,803022,1595660,10060139,370040977,149452,156993385,2479,6958,21513,511903472,3
5398051,313607401,236073677,962616,235264369,959225,863302,9914732,583500484,147198,351951864,2864,7892,32969,957693559,3
5050939,399716926,254166125,1542401,254355620,1515480,1531073,12768072,1097259683,360846,408725901,2473,224029,27025,1227260372,3
4927991,412580740,258517737,1556239,258348524,1549720,1896260,13417231,1111055299,432006,407967041,2473,618098,448716,1264858727,3
5344983,311314373,239597185,929607,239152561,924617,911991,10108318,577400096,162756,344560458,2669,7424,30324,938074927,3
4846967,161092163,102869690,856921,102282112,844435,1799100,10439717,383069835,209334,150209045,2871,8191,21259,526805757,3
4941698,160302272,107932195,878687,107153979,868332,1744203,10495980,384481634,209801,152207117,3263,7037,19046,523481387,3
4396492,367878919,215122868,2923803,214649434,2915727,2102948,12446252,626155531,230336,338495143,2866,10210,33222,1125012880,3
4736727,158083625,105604346,852865,104824322,841764,1688624,10180186,380030261,204745,149657677,2479,7044,22422,514932101,3
5583435,403388647,276735286,3327655,275716412,3319702,1188626,13753403,1152776721,385418,416030707,2669,1027619,30145,1246831134,3
4833462,166660281,102047163,857476,101275540,852021,1808501,10464144,378624169,193318,154331501,2872,7995,21137,543963647,3
4853629,411553639,257965934,1642272,257407529,1637915,1907033,13372408,1100979678,391615,411564411,2865,232318,31881,1254227425,3
5099979,198414403,135883146,1293156,135851847,1309500,1571041,12192787,892509664,435720,200573397,2478,200627,588577,660102068,3
5135119,164638909,140741428,785243,144787304,772604,1207385,9677223,435242159,99774,223756348,3261,7076,23367,584570446,3
4897986,415000098,259593662,1619328,258935971,1613350,1808710,13250708,1114630875,426066,409610687,2863,213839,189393,1264590737,3
4708883,155435071,105820358,848108,105264849,842906,1733972,10446786,386269272,211590,148967592,2481,6864,21533,511254464,3
4889458,442535253,283181313,1636871,282668101,1630911,1817015,13542120,1185323970,377858,449650728,2473,242384,232903,1379283126,3
4760146,395126749,272861213,3300396,274236252,3320323,1662691,13684170,1166722699,356042,411493827,2471,664776,547811,1246199858,3
5204420,152696366,146671911,760104,146361198,750108,912300,9187182,424333720,111172,197720911,3266,6645,25159,531427340,3
5014544,379010229,242296879,1558673,242944281,1535924,1478238,12494108,1094441896,354359,389642799,2473,645888,817474,1174076048,3
4757391,158452095,104945369,842909,104334287,836574,1680841,10275754,378897964,194240,150820485,2480,7689,21046,517883306,3
4698012,155210508,103860085,842111,103248276,833395,1685148,10376698,379890952,201438,149472401,2481,7055,21535,511817191,3
5122729,409867542,261815492,1654051,261441515,1651916,1891858,13647311,1123391687,439265,409457493,2863,598426,196082,1253167054,3
5238852,406440927,258655665,1759458,258406616,1767581,1794951,13436768,1131459018,438384,406653486,2471,621387,760179,1247710667,3
4371296,139497921,83480353,2745000,80006484,2740149,1914140,11534170,395321371,251413,113458344,2479,6647,20488,470182651,3
4938774,112465324,99868234,770940,102653782,761759,1177256,9376356,357099710,99496,157150243,2478,5972,17728,419477865,3
4784536,153396344,104052346,837881,103291869,828877,1693742,10308300,373375071,180751,153279497,2481,7350,24844,526196747,3
10793277,460010516,314762246,4131752,314280137,4126363,5234144,24738217,1474050002,971638,474242262,5598,599178,623777,1447451980,3
4615881,139456676,85635220,825104,90837780,808869,1641936,10155306,355344671,149532,151201801,2480,7839,24131,500263731,3
4724730,403795263,254611827,1556953,253861401,1547676,1843916,13449710,1108883525,409245,403638315,2475,215754,649445,1233149761,3
4960718,198517957,137171273,1311137,136814003,1328735,1663525,11965144,889289828,425690,200631274,2479,589391,27015,663076135,3
4746108,157249126,105195807,846624,104534619,838451,1685354,10265986,380721191,204523,150299075,2480,9968,22025,515818120,3
5238084,199234049,136205362,1470433,141470290,1566105,2329584,14341647,927479048,440763,205757239,2626,199999,112158,661021380,3
6238399,396082744,236823217,3183817,236071152,3096374,3236385,15341195,712175912,473137,399268077,4037,13813,32568,1241720717,3
5630684,155837683,146902099,875763,135139191,917142,1536170,10208825,411236780,191836,143330096,4434,10450,34244,467739297,3
4652446,159938421,106227354,842499,105495143,834527,1692896,10259567,378827185,186058,154450796,2479,5287,22887,529109550,3
4774035,155017598,103124409,844916,102468154,837846,1729071,10335592,377943435,190184,150240491,2480,6731,24995,514815685,3
5040700,411273216,260246089,1554096,259808890,1547166,1919954,13616637,1118806510,443151,407776994,2669,611815,744765,1261392276,3
5230740,192247020,138395011,3098466,137062108,3102653,1601519,11971482,920491531,497814,196816108,3258,591166,500347,649567392,3
5080500,410135115,261319088,1630219,260514736,1624978,1965838,13828362,1127069227,442688,407481106,2863,207906,589107,1252645089,3
5293570,196088270,135697520,1235624,135109382,1227532,764396,10623658,904883356,366719,201252753,2477,589618,690741,654608361,3
4848559,154387977,105532313,867655,104952558,858262,1723775,10674206,387033953,214597,147995444,2479,6947,23097,505476738,3
4916420,115078335,100171631,780345,102580820,770122,1234691,9362645,358645311,104336,156596930,2479,5709,21170,423708042,3
4961231,122673008,96169325,790155,97639686,782843,1349556,9595307,357914286,115580,156103565,2676,5177,15182,443706716,3
4504583,172035463,76130533,1119782,78676097,1046608,1983866,10696827,374583949,162882,165002983,3261,9918,30127,605325437,3
5092157,181221983,158394822,1260626,158704003,1279567,1743219,12103731,887635885,420587,209309544,2869,615281,326827,609944567,3
4885595,401874335,258197881,1547252,257651691,1529106,1689663,13091309,1100777285,381917,409303445,2474,220167,41035,1265751910,3
4882247,145092477,103237220,886481,102289793,877916,1793975,10568480,394457118,221888,142313108,2479,46855,23980,480612987,3
5038010,185779514,159263834,2609626,144535534,2644899,2191418,11458391,493741151,379422,167130854,3263,7509,24409,561993775,3
5914041,141961020,93993224,573593,92129668,637474,5429214,12099477,430954380,562352,128740824,8587,69451,41944,480401157,4
6475191,127213700,107833020,645300,102340717,651244,5663764,14573132,480082142,676343,115530610,6384,43414,41926,438685863,4
3940126,319770787,235852448,774163,235950313,789944,3457865,10251047,600594367,387849,362720660,5949,12174,46826,1020456445,4
5929541,130974891,99382589,633530,102898671,619844,5877384,17601305,457485767,640009,142939340,3463,7003,15235,498233732,4
6207836,359925694,232345466,1170939,233662792,1153980,6563245,15419351,760920069,629712,393067983,7964,15230,49452,1173298628,4
8015421,176048296,137227959,652126,135831558,662523,9940672,18903100,606388094,1106341,159437768,13171,25986,107844,575982831,4
6142274,325112055,242166115,831283,240595041,858128,5213625,14036905,690811202,594236,356642209,5994,13251,52643,1030853303,4
4861098,146932884,109393702,625386,108639477,630764,4977612,12075747,439530960,524061,141388239,7639,10113,50146,528754765,4
4412334,129000503,91016622,656330,89557178,652084,3726474,9949417,415136810,541788,121940165,2876,6462,12761,455996708,4
4188582,127037723,89226339,846099,89022108,925556,5551313,14825821,394742579,495209,134239255,6343,9924,36943,481682289,4
6664716,320323767,241606882,839089,240643508,853361,5622964,16474045,693560136,635122,354413215,5450,12472,62813,1005156659,4
5325513,125139622,86828686,678982,93004611,662342,6063357,17522940,463946915,669354,138314864,3455,7296,79172,463095675,4
6678364,323489409,243283222,845540,241812143,865506,5604915,16494404,694379464,635190,353446265,5498,14690,53831,1005563005,4
3976590,331854978,231867843,971188,233576029,953520,4570698,12922927,614822788,360507,366167663,5953,16465,54071,1060029076,4
5030677,339788002,253723896,919574,253896221,921140,4550111,12848193,648259241,453824,370819068,7574,13507,83616,1061737059,4
3914577,125758844,87954325,1154155,90551272,947364,5474630,15141736,423316338,464615,138252413,6489,24723,47166,489031067,4
4242559,116112827,99497446,661472,97858091,692463,4680039,12012382,443742691,607049,128452066,4168,7546,24274,421871628,4
5962643,358100823,230875970,1131878,234007732,1151599,6042494,14103460,754799223,619842,388436241,7573,15357,43563,1156855609,4
4521332,130643020,91981246,667319,91412877,663230,3872559,10629804,418079722,568966,129881438,2881,6255,9741,467052999,4
5991659,133531209,86194137,620921,87472542,676264,5141151,12100325,424120724,688406,122785733,6118,76461,24682,446336621,4
4575247,122109221,89522364,1311564,95119285,1076757,6657337,15053179,467569315,575325,138608189,5992,9122,25730,465194203,4
4951226,126380192,92385047,1222559,91742701,1255525,7736064,15706866,476523362,613787,138838267,6775,8912,32987,482207808,4
6625572,152302077,108880015,1035839,108427406,1145946,9449073,19647719,562709669,886234,151602974,8586,13609,41680,556955625,4
5685082,172595462,113362490,644963,120031999,631522,7162930,16734822,545184495,569208,172176367,9499,10173,36701,622363081,4
5148476,347732054,221702421,902933,222865767,1131849,5619364,14880679,640437992,543062,362122353,7161,26974,47848,1099887555,4
5853465,127397392,90873916,1105442,89320991,1186439,6878949,17126651,480261602,686636,132930525,5456,51923,19741,481679501,4
9645048,329636078,264879499,1984437,267662772,1777043,10468061,23389948,995703561,1246121,388847647,8474,78925,88625,1022485123,4
5766907,157925379,103441803,767571,104208186,938541,8555023,19253877,547847725,682714,144794263,7971,58986,31204,552896885,4
5721149,333695908,234830757,1003684,234499667,1024455,4699704,13038656,685284071,537984,371834519,6781,18583,66033,1071924912,4
8324702,358422152,240129323,1692794,239951885,1533724,10346385,22962615,829887274,1025381,381206285,7767,20420,80405,1145552058,4
4742716,150787636,102034735,632291,106323030,636657,4549826,11159095,433702217,465529,146420258,6967,9747,30914,558338667,4
6673828,135231202,94815418,1191687,91859892,1037258,6429536,15107677,498855898,835177,129115203,6505,35737,25217,467342355,4
4500351,118924377,92718132,702454,91927283,703196,4175115,12069108,428675897,626817,124834374,3260,13392,13307,423835672,4
4797888,371163186,197484170,1960452,203066348,1724870,7917664,17380110,716672965,622711,339205348,9025,15791,32826,1122155505,4
4707668,123163972,93524072,682708,92922704,681343,4140169,11989845,425773198,635047,125603706,3064,5562,13291,437861815,4
4670996,143732771,116583788,670100,107663613,659108,4375826,11415647,428792039,490127,146251263,7577,9291,19560,545877152,4
4334036,115380347,102831668,598224,103393186,598058,5230935,13183688,450866550,568253,132480825,5212,19833,17503,436507803,4
4345266,142415870,112556437,675927,104808449,684694,4566854,10568077,423582409,459182,154698639,7188,9693,39319,541902163,4
6640034,134509120,93504102,853339,93704498,1034043,7572575,15529416,498110679,733739,131154733,7166,59929,30481,473538208,4
5624643,134726137,90677388,699144,88251107,709330,6305917,14897278,486499534,881648,125413422,4432,26370,15680,472728337,4
5055299,325896130,226461080,1129985,227431669,1127039,4651693,12836393,677680158,668789,360859715,3256,14208,24435,1016655435,4
5429158,321615170,232385637,887363,231873540,881336,3995028,11580553,662547405,630524,349182869,3255,11224,37015,999389305,4
22156472,198664654,158368167,7278804,153795735,7244669,17586249,50148285,1368476364,2648868,191328947,10537,22547,77349,669735571,4
4724912,145247201,116161314,601754,118289552,595344,5825872,13918597,457081078,488788,145736723,9235,12562,52171,524361475,4
5936796,135493247,92154683,935158,93589028,1071843,6707816,14879642,485666178,621549,136938141,6786,151301,17707,500684526,4
3829186,348035147,212167337,1410005,219407942,1251964,6409774,15361860,628480733,440322,362641807,6731,16077,46990,1098047382,4
6554122,137896660,92457515,763902,92057579,950657,7615858,15608349,505052967,732021,130229436,7163,108680,34855,468323058,4
5851166,171360203,132049838,653081,125318101,646620,7144148,13967670,517147072,643687,150558364,10539,14364,46501,614777150,4
5444291,326480692,224145229,883293,223910613,882262,4021077,12362006,640459404,610806,351237832,3057,9166,28608,1027340895,4
4492190,149845733,119364394,616985,112621058,626290,4959666,11609816,440336394,475842,140718089,9038,11118,41618,541273584,4
4187614,126340327,86969594,668279,86461818,664364,3797912,10166819,396534135,521528,127506109,2869,7588,12727,469458007,4
4469312,319493055,235875588,750089,236870807,773296,3727123,10587125,609144913,439653,357247998,6337,13637,71465,1002944473,4
9968355,157165088,127812243,996909,129078280,963257,10627936,23649668,795567181,1132660,175491488,7893,17252,65184,594766381,4
12589042,186532269,148861567,906576,151401024,844354,12515920,31079436,735787866,1137941,183002204,23567,63074,64898,741644004,4
6338429,143816824,86230035,722709,92399251,766792,5883979,13723159,504970160,649963,139833835,8398,26379,21348,502575917,4
4286790,325311889,239690081,731516,240657937,735381,4530250,12397648,617379598,415924,358138628,6955,14281,72207,1031950313,4
4697355,330506034,217827298,1044329,219588009,1024717,4122857,12580057,630886200,492836,361491250,2871,12822,25507,1058750578,4
4926694,127544795,95471830,1337541,93223745,1766529,7480565,16430744,505160727,711774,127714789,4562,7343,24816,449275648,4
4312209,124785036,88360245,977917,87594050,973654,5242493,14538676,395423570,506461,133188127,6213,8808,24639,470303852,4
6076961,123770852,104835999,551293,102732109,630382,6168120,13888038,442949073,706377,130360258,7515,45711,19081,451379212,4
6192015,156683279,107355662,1092035,102836882,978195,7233916,16457620,522606926,665453,151843927,7578,10289,57085,583889261,4
4978811,336415701,219761046,1017587,219991865,1011134,3795347,11434838,635696926,510771,360569243,2869,12258,21108,1070845955,4
5524235,134031331,92634296,1120448,89800500,1220513,7951521,16254815,483284048,694282,132712805,5994,42291,26540,490341775,4
12128629,182696821,133707345,1691262,139182310,1666730,15194756,31822690,808532573,1096815,212315315,11091,40312,71067,755463188,4
3666161,122350707,87411040,952341,92521843,802944,5431171,12539501,388094364,405874,139960820,6571,9862,38059,467738800,4
4305050,115141109,99926953,656006,98199026,687985,4962181,12678133,447058765,584853,128246444,4345,7486,22960,422617708,4
5179998,123391143,91971589,1359231,92598089,1211126,6931782,15812344,468879198,641056,135012928,5604,8375,26593,474090237,4
4397399,320222693,233491968,770868,236550027,781179,3364077,9587666,599709878,415497,356026670,5947,12861,61444,998960271,4
5293872,325562656,238434390,841653,236521940,858037,5378078,13865496,688256532,579590,362709564,5988,16626,59849,1031163843,4
4091977,116049205,100964208,620641,98824032,646145,4740073,12151230,444163946,605610,128357080,4169,7561,28419,428990748,4
5101374,168748912,148687000,731905,155358964,750150,5361109,11793236,496242220,443863,196164468,9657,9978,43545,652611709,4
6734570,127200724,100285246,734851,97909388,726938,7622664,17419021,525265620,922270,130774901,5994,82565,25374,443914503,4
6740732,128322468,99254857,698677,98114354,705553,7771684,17655952,525231350,917695,131102073,5992,52746,29259,449235978,4
8237572,193232330,124843089,725917,129082298,795630,8066760,16431476,592178614,764313,175640257,11462,14013,63885,687564472,4
5889441,323184202,234567495,875500,236615475,885438,4870381,12508570,679641540,612805,353280765,5988,13698,65839,1005000622,4
28050529,404149441,286250979,9657783,288209584,9785043,23478751,67525152,1916891974,3574800,419295245,9503,26836,92324,1234089795,4
4944531,149105875,104962093,590395,111531256,601146,5673930,14138886,456236158,491984,145674768,7969,10278,32264,523045834,4
7079746,151405517,106605105,785705,105496758,807637,7307753,16296365,559429927,965701,151118562,7127,85883,35070,545748875,4
14788741,384156028,273132065,5434971,274418316,5408742,9056189,34294079,1111955249,1077776,415951310,8294,18458,47153,1212274878,4
5048936,127634701,91591053,595143,95067503,599451,6705293,16887432,455046091,627902,132947920,4488,18537,14961,449398595,4
7646177,228336020,149622913,878591,139992862,890201,9258174,19219382,647338364,751980,201708489,12768,102223,85922,897677244,5
8849494,393369022,242899349,974860,243794392,956045,6855663,18259653,793230298,840128,384478977,7648,134150,59525,1195542387,5
8410324,196657260,114967455,1172205,109477102,1338854,11074527,22536570,685111492,1112573,170772286,12638,33067,45466,728473670,5
9496771,415166412,306068396,971971,314485883,1019318,7602667,18555411,893795840,719689,443429547,12760,58011,96772,1349961768,5
6925968,391134903,249452675,1405525,249791949,1300181,8256769,20342425,797866097,1055138,381630996,7205,96501,48772,1208587081,5
9218090,156793905,138375725,1257354,143402849,1341111,9283371,23457422,729673953,938204,173631452,9514,241695,53750,554701906,5
8501160,159432717,131054750,809379,127441798,790390,8284564,20318827,632305893,887300,158322272,7364,179729,52836,523665025,5
5768338,184443868,102272772,1367860,100957191,1278463,9009330,20441467,596249396,940910,164578161,4951,42943,23541,685217725,5
5949122,373781223,243803476,1438822,252158752,1269796,7582879,18005620,769137036,649980,414819676,6426,27495,64428,1239846427,5
7779377,221225522,135709706,935692,147276214,1074030,8693355,20092650,673227294,765479,238617189,14527,84342,123337,867357556,5
5596425,184103596,109684567,988738,108351254,897595,7341751,19641048,528913978,799196,150688940,6820,122133,31228,634986837,5
5752113,188948745,107975379,1051174,107480621,1039020,7835884,20249643,527283285,804425,151381308,6429,121797,34430,654855980,5
6629858,381074256,257165300,1598374,250981115,1433323,9276535,22893223,793725507,1031419,375382777,7206,51211,60761,1194110013,5
6313998,161728860,96150679,1832711,105977683,1517952,7717261,17990170,587076828,851384,191149980,4737,13540,23209,636689312,5
9824595,165843931,149571163,669864,154521350,718713,9457592,21404810,686602687,1167396,206743941,12588,28714,46622,591067709,5
10575633,259278864,136999941,1173889,146782613,1196756,17782478,31009413,819907181,1838984,214090938,13240,84002,89822,983632470,5
8859588,226865336,181898720,941796,180114583,1160516,9026768,19987819,726045775,930564,237685770,15451,23287,91687,841839381,5
8912362,170223986,156623370,1231148,158047912,1068751,8117212,19011994,657670895,867358,210998280,11209,16191,71932,672975680,5
6784496,203483052,108202921,1292376,116795009,1210549,8661365,17717741,594653664,843628,207318058,9357,28772,55857,769424871,5
6292506,141309946,133878286,748999,133552084,749093,5488348,15476038,554750490,819269,158430455,3655,9666,14350,491712084,5
10571106,183166795,141981151,788853,145251419,841522,10658436,20665393,657748552,1304588,210618753,10139,80733,53565,684679674,5
7388154,265514311,191089107,1320249,188894781,1336478,11401925,24493255,758732071,1062464,280262611,10430,37548,60447,1020328856,5
9465988,351245073,271457067,1051153,271307653,1054960,6954884,21320088,900184077,1075160,413800673,3448,14773,37448,1150987673,5
8097566,349220371,262368975,990161,262707224,989298,5564858,16926361,802083597,887149,396825040,3451,13494,33634,1097168655,5
7248136,154273374,133417730,771427,122224293,849805,7846549,22950918,547679339,841000,143775188,6625,107626,31443,517961841,5
8063108,348889926,263351790,1157642,263321199,1159509,5607782,16897098,812708275,897655,394640961,3451,38699,35707,1092180254,5
8297408,199764617,165430215,1164258,166642590,1051234,7553873,17370576,655878293,723054,221768579,12770,42661,69415,777042214,5
6698383,143560726,133734945,807850,134472057,807292,5690208,16026394,574409923,865447,188805921,3460,13943,12925,567392321,5
7330398,173079724,113709795,1182328,113925077,1033958,10036101,22817820,620078332,918783,148749906,7164,210449,45557,604550314,5
10575852,488748322,274209333,1157585,280905453,1374801,16728247,29852073,1142512361,1463365,470140805,14724,78068,81581,1622839394,5
5677946,184536818,102651725,1549394,100847549,1551262,9410366,19653070,596445666,923145,174468538,5409,43119,34642,708578667,5
8578491,196720169,133470499,685452,145515323,696101,9550365,21404154,686466015,1005492,222167381,7466,24175,41396,777629240,5
6153603,191453232,111882793,1811820,108490502,1976985,12545959,25771257,684422777,1134231,168749621,6389,109956,45206,693971509,5
5967080,355491943,257973510,1040801,246658193,1061989,5933673,17325795,797714234,922400,334011347,3256,11104,44663,1095804381,5
6690105,384280608,246344262,1044403,247033741,1058645,7552007,20883191,850849222,956143,403045933,3458,19024,38800,1297258572,5
9612500,380743832,262954652,1402496,264408333,1523571,9736252,21683486,909413775,973321,421440636,8334,151221,48452,1235614288,5
17380302,380923153,311037709,1175108,308541506,1166030,15407002,31106163,1267976579,1281674,414772434,11211,438225,72807,1164883439,5
9029320,361366809,270097418,1348139,269811526,1228101,8381129,20996278,808098805,1186420,377212965,8179,51655,68661,1103650846,5
8930279,152519217,151306076,1371645,142081209,1486922,9654187,25103845,709148154,1096068,139579883,5687,33052,28558,631461405,5
6857418,216724452,145133025,1079015,142521751,1028303,8752897,20917125,624540326,747557,193827461,9603,12696,45716,767106903,5
10750206,202340951,189831372,684167,192400341,925685,11825813,24365761,785643560,906591,249777280,13168,58535,67307,802015219,5
9963105,217251730,119069399,1521722,114555496,1344914,14995886,29851387,773360270,1294105,178068025,9119,214119,62988,722100891,5
6101942,225021653,123696786,727761,121104067,751183,9829247,21277517,618377426,974215,175727541,9552,135317,52735,732286592,5
6124318,139043439,133324356,763840,130347642,760384,5579298,15873205,553001096,803738,151688192,3459,9521,13658,474138279,5
9153334,412288939,305006413,1225370,304408470,1218300,6276273,15997784,904297257,674888,467829740,12762,39784,82631,1380777976,5
9176527,141017428,140176061,836286,138182310,809030,10509012,19774569,652572174,1006370,178535991,7946,116960,39540,555559443,5
8816899,370431544,245567002,1717325,256825840,1517542,9022795,22790783,924253702,1032937,413081525,5694,24984,54862,1224067674,5
5098984,198150129,105544357,1104604,101336864,992016,8060290,20202310,523878659,829902,154683967,5993,48141,32161,687037468,5
8803008,148006109,138893001,1156199,140333760,1192879,8005101,19050299,648203751,962884,188759684,6582,116630,46522,540611298,5
9183529,201848021,159812631,820189,158583987,826160,7783156,19970951,647819037,839954,213707032,10868,119200,63196,699650448,5
7443128,142963217,137776806,829091,137458811,1018248,7553519,17806253,562589225,844903,168827305,8089,26332,45910,526602208,5
5468999,185533993,108079476,949819,107045727,984500,8121952,20194842,532046760,899929,147249378,7013,67206,52263,636605853,5
6829700,166053676,118349148,780144,114308350,785713,9206827,22122763,621531865,1112505,141387566,4825,12159,15187,548071349,5
9302732,178752015,155814098,735998,165224888,753714,8881003,19879527,662809591,984111,207257955,10434,11960,39455,633150676,5
13440690,174026185,174499153,1032100,173612919,1028269,13043664,29320193,1000741590,1561840,203924454,8092,24492,80387,621970373,5
8175983,349798700,266273574,998016,266693754,993983,5674722,17052351,813318396,893662,396537759,4039,15879,32713,1092621799,5
6959034,164591853,116703663,844394,111868949,840331,9428913,22359171,623312001,1152918,140587748,4437,17800,23356,532662654,5
6104188,179573397,111363250,857569,112313106,858804,8457423,22759876,536631118,934542,142413294,5553,54531,25413,583549687,5
9567591,211661959,161819387,837550,163624587,1008729,11417965,23604036,721641756,1022370,212026312,14427,98071,97375,771523898,5
11577221,302032780,177182028,1894057,186244768,1675991,11516625,35937491,1074573462,1439476,304374362,6951,20589,27391,1039146997,5
10535429,145770580,138150471,1392531,140111310,1256235,10281694,24243696,734665355,1152672,187607511,6676,69655,40071,567975819,5
6525743,195265422,107198891,1241865,104947247,1396270,9773003,21394119,606775544,969097,143632782,5562,43473,28301,623479576,5
7108787,175677875,110529427,1212204,112246882,1054199,9355894,22236624,616086297,916735,145304971,7167,150115,50316,596941741,5
30822427,303488503,203302052,11871230,205450727,11786150,27867884,75431932,1995240536,3755003,286243935,16137,61589,113130,1068369296,5
7084327,164548188,104044268,744976,104264124,765716,9671124,21970540,628826435,1186342,140748227,5219,28316,15814,523126299,5
7416612,392528162,257249445,1923157,255391441,1942516,13306633,28282480,953666586,1059106,401535812,7162,161381,59807,1260895287,5
6992408,188241158,137682117,1278093,139575723,1084920,7682970,16648070,583918005,761516,207606423,9160,25757,46692,709807794,5
5467196,391262604,241633881,1511317,251268849,1505953,6264271,15830301,837756910,853434,420146315,4428,20237,29661,1280994754,5
7801820,157803704,128372033,1275117,121324112,1098868,9130155,20331858,625169552,971930,146353279,6399,39939,35112,515841733,5
5289516,194421165,106403557,801541,103353317,1030339,7658881,19857450,525806054,726372,154073978,6429,59054,35009,668814153,5
6585716,352436610,211513034,2459780,210793170,2526497,12258625,28382030,1670119314,1443078,311178918,7845,536562,647603,1206411297,5
10090899,171096072,162654254,821819,162751513,825101,12920790,25859916,875186150,1758753,215037939,8341,21895,57260,684488025,5
16185192,522639796,310592419,1036065,307028440,1028733,23987887,44227685,1312850706,2791934,465554117,20776,64119,117783,1725417805,5
7518110,163119970,119590594,1150308,116835939,1111870,9294315,21264693,623668327,977447,145131492,5995,181558,29213,538047884,5
6846810,372310850,246989018,1591704,254352264,1410694,8782158,20450275,847299656,841967,410941807,6378,12491,52863,1221365601,5
13228259,523986612,290918487,1744476,292326761,1676726,14104017,37712292,1319376233,1674890,479106602,11633,33646,66440,1662613151,5
5467290,393549918,240865887,1605100,241260616,1516782,9650490,24018301,778855574,728922,396545384,6621,87047,64549,1280397658,5
6617100,161517932,124057029,1008213,118219762,902594,7954615,19996438,544291345,872248,140568627,7211,60272,43139,549274650,5
6806821,197520830,110191511,1621935,105136860,1633182,11182946,23271829,683944031,1210185,151612715,5864,57556,27754,646710156,5
9949982,360526001,265449570,1177016,265508418,1173903,6435021,16379219,888010868,1016487,390690436,4989,115115,48037,1092497421,5
2436442,769902307,429771143,3689556,429946942,3616880,1559898,8025448,951267070,42954,747246927,3254,18121,51049,2304884696,6
950364,638095786,410540925,2916395,411282624,2919204,167931,3277887,745514257,20527,660075692,1559,12555,31540,1918078205,6
1921225,198503323,140480240,1229416,135355463,1360540,570675,4719797,302714169,11568,202776884,1697,5181,8363,617016777,6
15746675,277828376,216851432,9580107,221746185,9569008,15091060,42988036,1308956779,1585373,298327732,10685,16754,50663,945935664,6
16602470,311065059,249811380,11257053,249649957,11360094,11310870,34193425,1329487663,1433825,337054823,9821,23361,63531,1011761696,6
9313647,700538158,465870753,3120223,465087921,3097345,554247,5288094,957376325,36813,692689666,3839,12583,51238,2184063575,6
1523525,655978453,408463912,4301772,404703074,4472233,903929,8174168,846015271,46345,649039003,4280,8748,34423,1941291958,6
6271185,232799156,171963693,2487661,171117055,2465271,4500119,15930516,527917607,157150,250569162,8069,12755,46458,859421209,6
7530963,391256881,242417583,7659381,249353882,7656248,5241362,13369955,963654861,123186,396860479,41427,106781,240027,1446418914,6
10327991,204968042,207903543,813753,210100697,966777,761285,4198571,511403883,18971,220969521,3845,8112,32713,818624058,6
9797736,700664397,463807440,3144431,464321270,3129770,475342,5026127,959422312,35598,689212827,3840,11755,50882,2181322831,6
10902439,173873335,176561176,6615166,176441471,6687537,2599671,24956573,600099077,202156,211655154,7618,16722,59729,676690685,6
9997669,200577202,196338416,695439,195920983,961977,846294,4720518,500775163,18919,206997917,4431,7285,27160,675453436,6
2518569,133945746,174872478,2691871,174515370,2694641,401422,3115776,325887750,10601,140873050,1890,4735,11454,600072207,6
2488042,189819711,165554555,1553677,165280030,1900994,1475544,4786510,406709265,24713,224910142,4946,5313,10601,631925819,6
737996,636288314,393586379,3269531,397326438,3278080,198816,3484586,739469319,21399,648119993,1107,7626,26716,1904112119,6
30383144,721072674,439571004,3933990,444882416,4009066,1101845,6900006,1096950960,40593,725607925,4581,16032,49771,2144056230,6
2701141,141242345,152465624,1546709,153645990,1512421,663010,3216471,328723091,20298,165358820,4797,8365,32555,527359353,6
25868252,303429922,242891851,6504042,245514582,6393066,4913900,23345510,1180206503,432320,326127055,8556,240174,66750,1012172456,6
5865836,641891396,427589977,3481795,419672433,3469984,3697192,15344281,1051390237,525967,638635999,4427,13029,55723,1867359661,6
1156695,147055923,139495111,133493,140323870,166957,559960,3330130,284713383,18180,167386411,2363,5125,14263,499135466,6
16485272,276919754,211193346,9501101,211890614,9430525,14360525,41564833,1297954984,1581767,291761942,10098,22641,78126,959238242,6
5606056,200293573,136009711,3115731,137930143,3113807,2959895,11171987,406661182,120757,197719512,3654,4787,4688,690895803,6
1515507,151344941,136478521,317577,129834802,1052322,562749,3751083,265730382,11117,155401552,1697,4888,12680,484701275,6
15263324,739458293,496807950,9415898,490389403,9591063,13809167,40051426,1753448058,1621009,740369988,10092,20643,70047,2211434357,6
13044949,233023101,192909519,454358,191500589,913923,831576,5335494,559778222,24274,237524701,4430,7782,28734,748615894,6
7832295,698436260,434952326,3479151,434820198,3478279,811582,5315396,985537118,35895,700727473,4231,12642,55293,2064621803,6
12169440,678219356,484881916,3321761,466222684,3095480,6982471,27234721,1123543811,263407,705587523,12440,71740,142179,2148177519,6
16317242,726212745,488318350,10194429,487800807,10161089,14347154,42183031,1789886816,1545782,758898776,9698,292732,85780,2226204483,6
2136609,200337370,141000455,1174669,134638258,1334668,572449,4210031,306125120,13181,198487984,1696,4983,4785,622979287,6
15404902,734192631,500380416,9960785,505583563,9879633,14661103,42320753,1773959619,1556578,748647443,10093,24375,78954,2210384604,6
15263806,740328216,495989977,9416113,490529895,9592561,13872632,40418039,1757213794,1620085,741681254,10091,28338,76488,2213092010,6
13883590,247559259,223262229,9726558,217733104,9855514,10594765,32709830,1168137979,1315714,255396454,5913,17511,62646,825716037,6
1079570,163947759,142004769,1887680,142019484,2154238,255054,2768826,291286377,11087,158622536,1307,3583,4636,557249411,6
15586456,272888034,222305789,9592487,219122690,9611818,15762830,40063537,1355314286,1908170,284772548,11774,26451,80323,931165917,6
15635797,274288785,222906065,9591066,220887789,9611883,15981929,40522051,1357027963,1905726,287266577,11773,22083,87209,945879126,6
7444200,1170886482,836836141,3610285,832777266,3248049,4547380,19308916,1450580440,198008,1175462406,3646,14387,36935,3782786788,6
1960115,150253735,139230164,707816,125944776,1478901,475021,3458806,259689240,11035,149954318,2085,3484,8896,483853490,6
26721391,229852420,203929200,4018918,209403020,4082303,1233663,7887186,718297418,41064,274789255,6318,13027,46241,809876058,6
4557172,171875587,143089785,2286530,145245087,2273637,376981,3526764,329323244,16362,216289925,5579,17334,58598,671310943,6
14094216,737417233,478248579,12054708,479358110,12506960,10916276,36864217,1705249850,1284120,730375748,7402,23126,83177,2225857167,6
1097990,164695099,175016677,1860451,160667797,2640752,859074,4564278,365397054,18561,166377239,2605,4197,6375,599030595,6
23392734,313230048,215157095,7215095,223580552,7356254,20190752,39607447,1338318094,977848,333288122,14491,24695,71981,1078453722,6
1303959,667255376,410474136,2139076,405486778,2197740,780353,6825859,770086744,26456,667898758,1691,10569,36987,1916504779,6
2081118,178000839,144917074,1661254,146000009,1595423,279746,2820392,326838712,12772,229596554,2088,6625,14578,585930058,6
1574594,167285671,126282600,186305,118481325,889185,695708,4611479,285881858,11996,156663974,1697,3396,3879,542012814,6
1088588,153803183,129440492,177473,128996021,919848,414808,3667122,275034195,11959,160765363,1305,3223,6387,504255245,6
15854425,272194695,221139635,9554261,221228530,9546598,16072246,41472124,1361791103,1915653,286152227,12515,23609,89046,928612809,6
27413207,352396547,267366118,7974158,264544220,8003619,17001189,46340375,1476422010,1205683,348817528,10368,18593,83811,1177835131,6
15239379,731738812,507504650,9782074,507573238,9787660,13714351,41181022,1764638195,1561662,763493574,10092,21601,84661,2226941722,6
2751559,140148147,151597637,1544664,153063427,1478721,533529,3042312,329840164,19202,175188468,4798,17294,29608,537907990,6
781346,148967145,141242479,139294,136688004,924956,243608,2270900,263835476,8221,160431602,1112,3108,2734,497170303,6
15105481,738464097,497391550,9416420,493257766,9597806,14116170,40722832,1758035227,1615939,740038717,10093,22083,74208,2208048210,6
16165496,281702282,208027870,8795661,209112629,8648364,16854965,41595419,1381106064,2090103,291210266,11773,24429,77742,975093412,6
1246589,643647620,398976331,2809008,399791233,2803790,205627,3173066,732133710,20759,649490793,1108,5899,25271,1931265501,6
2344856,158562540,147824280,1641483,150982285,1657483,367851,2825415,307853339,14958,157886898,2847,7337,20186,572763937,6
4882063,665257982,453950664,3181154,443470978,3183572,4211491,12988519,941333491,159936,655976652,9331,15171,63876,1987567611,6
5772602,675544167,436791689,3401052,425796707,3658769,5973357,16241107,898680416,147680,647304603,3452,7470,23590,2018459363,6
9224033,669194532,455908843,2407441,448641091,2515102,4787519,22180128,952648712,198305,681380302,7992,25935,73045,2060099215,6
21407867,565042333,419709538,8208513,419764441,8125051,6464504,21633140,1423669728,260519,580826826,15748,27297,125359,2079161750,6
2318449,200469780,140890959,1305356,139898975,1428552,599010,4012123,306120822,14006,205157610,2282,7196,4645,634895631,6
16536510,309666231,234060118,9334011,235407166,10121636,14782857,38333901,1385659874,1605269,308542016,20355,36219,68045,1023481590,6
10766293,690261545,442915158,3241811,429249295,3439651,1119594,7628507,977955383,40913,668567323,5932,16776,52610,2010935585,6
2992144,176780942,143594657,1447105,144118932,1416391,404911,3029350,328501901,16075,209935154,4110,13130,42288,587739552,6
1640249,676390705,398218758,2414900,388385863,2378862,1312564,7489052,787617669,43893,641919825,4103,11767,35853,1930681722,6
8595095,232482690,194357664,1483122,197376971,1261605,3854840,15802259,459887305,126188,246813365,3261,9517,19607,862783061,6
1284502,635409506,386839570,3371385,387628271,3337114,615183,5301292,759072708,28461,638382962,3200,17134,41962,1899732879,6
6559359,693506228,519415876,1693121,529519180,1712251,5228779,21730045,957935946,190171,685020436,3259,8314,9312,2487859901,6
2132068,203653041,144021749,3377085,148701199,3270267,828202,4120438,374678646,18179,220112688,2869,5117,4957,623550891,6
1950778,644690016,423568010,1271028,413640203,1153763,1528996,8184410,777337861,46427,611366180,5785,13176,50452,1873380925,6
1004086,662955857,400226961,2731537,400708919,2767284,1258472,5520467,766128563,29069,674203558,3444,8409,20438,1955874224,6
8808454,239131589,185335820,2305217,195920719,2295459,3922033,19374455,498237584,241397,245236224,4754,7564,20566,821500972,6
15261528,736176261,509510021,9596530,502767643,9515115,14799133,42350558,1763612783,1566330,739008153,10093,20578,75821,2205958252,6
16733393,279095635,209298001,9693960,210088489,9525669,14184042,41229622,1303596230,1605836,289865206,10097,22299,88157,964400428,6
9707551,378536485,291213899,10857483,290219727,10863130,8391089,25678050,1223027675,842518,384301808,8160,29744,55690,1399059553,6
9478162,195257864,196480267,502845,196354606,766962,518931,4132225,504990879,17980,205058534,3845,8605,28076,660955113,6
5979890,211744813,173942717,1875262,174777016,1911941,3608048,13597890,447421214,98434,239808760,3260,5365,5735,823729082,6
9648754,233634340,151042155,6704116,148286913,6755237,5448931,30228567,631003179,234726,205931623,11289,11731,33291,844009595,6
5685309,195666398,133343015,2933734,133233130,2909619,2895118,11994608,401170068,115961,208921471,3259,7718,12182,662027830,6
9400049,704823236,438947455,3055568,438777429,3039143,486922,5008073,969419308,33338,694058569,3839,10491,40259,2071540317,6
6760249,312992231,187676707,92114,191967844,88895,55270,12994400,315795313,10904,306741876,233,2580,1359,1489316948,7
27322075,651893515,296175239,439901,296303407,432127,18315246,52651855,1328510671,296449,628349576,98337,128881,700561,2082106754,7
27481645,660834055,295641847,430097,295087943,418854,18312353,52309199,1324108558,292847,624934086,98332,196278,518981,2202683907,7
6182032,373447921,221286242,101593,220126410,103163,27628,12974481,535355536,16515,371162570,240,4578,2957,1448107659,7
15171147,438356955,301932517,385034,300153036,362361,8192661,27747638,1015966607,130830,439080888,97895,105368,426848,1978842898,7
26879854,636108649,306014656,400368,305930353,401455,18746687,52867264,1184046421,288659,624502053,98333,130323,912955,2004762909,7
26066624,772827131,428616912,580775,438472273,830094,24729761,49194365,1603097361,822624,818314432,97890,128956,559018,3238594992,7
6287569,190849294,104557057,36877,104480767,37670,9114,12200911,218469390,7125,206013223,324,2175,1769,924969766,7
27123167,613390593,516780262,495579,532668423,493009,23190422,45339748,1358137540,640701,637275480,97886,302591,413570,3076135100,7
6778563,312497037,193970524,103678,196069841,95432,72250,14032579,418014851,11718,306149367,232,2853,1438,1272323579,7
21928083,523185692,344805565,464695,344322401,463520,17810593,38123261,1199355963,652895,500580420,97890,105427,489572,2329079754,7
28139960,520232450,330504206,471233,342129345,470396,22849855,44586414,1287000916,681329,534099993,97890,104831,448611,2572727206,7
50426872,296426509,206516326,73336,206083327,73836,16068,90702521,385411174,9613,304257474,528,3369,2178,1118723864,7
25630942,495590713,206587957,85806,207094503,80267,49173,57157685,394090661,9629,517187404,726,3456,1832,1643780267,7
20479171,816986225,643933355,536455,643839718,548238,18016029,41646541,1687835917,664326,798869293,97889,306003,493494,3605020540,7
27703030,638667000,307082848,475208,302523962,450723,18455432,54209644,1333706473,305543,629163507,99216,130369,601979,2149023142,7
27045152,638972637,306533270,384161,306353255,383394,18597086,52913738,1184823230,293336,620519949,98337,129992,891994,2023581654,7
6442519,195005797,103548681,39169,103528623,37955,8451,12191739,216763432,7095,203364645,329,2205,1930,917305329,7
27904620,612028516,309334585,389561,310026390,387680,18876467,54991253,1195887115,279622,669501428,98332,123563,884652,2058881492,7
20917015,819181790,643876623,540136,643525281,548233,18338399,42098481,1688965090,668473,798790601,97889,236847,555007,3611639558,7
15630991,538972215,499637212,406341,501180110,400444,8264952,29229970,1410887182,137980,538987601,97885,105762,253058,2975769451,7
6285760,379628721,293478848,1399204,293045784,1412062,20971,13881735,375265909,12335,375491397,235,3725,2363,1302842696,7
27119053,640427803,308281379,399741,306576504,416650,18538011,54064836,1182798626,296653,613372733,98338,129129,611282,2118356580,7
21132560,533327538,331838973,456749,331806463,454984,17034724,35835397,1136651484,715456,482300436,97884,144588,425998,2103784176,7
6493354,300414331,203576221,111713,201992733,111051,50451,12548913,523067296,15769,302470567,227,3186,1749,1220326997,7
12857970,402056937,402303257,151162,403425930,146660,56497,29520102,834573464,21830,404988804,330,5695,3068,1924151803,7
27817567,850260922,498153870,442128,492643134,430850,18489667,53961023,1334308921,299380,814256053,98332,144359,668455,2959689144,7
16592157,592519769,443693869,558962,444106181,550004,8176776,30066900,1692238128,536888,600458655,195551,602103,1601341,3007437787,7
29016574,519299768,353961159,512597,365339120,517782,24805698,48171787,1353537082,757857,552103324,107663,138291,560246,2340433796,7
6079687,192037498,398527688,1163035,396554182,1265074,24415,10935925,483448811,12723,192713491,332,2934,3181,1256213283,7
26926200,634745900,306303222,391152,306183899,400654,18847025,54033401,1194363677,299564,624171423,98334,150167,739461,2007528456,7
24605064,299948144,204483053,67119,204808783,65914,21955,40460071,372456971,11309,306228935,332,3406,1765,1428339217,7
31079560,511904344,375555399,565456,375053762,561087,19708308,44333215,1610545418,689638,530401401,107656,138724,583441,2590388102,7
13042654,298385104,202427795,79302,203732878,85433,151508,24914396,281874580,9359,284324592,336,2323,862,1025140137,7
21212015,456890062,291238348,349370,291257682,348042,18104079,39457862,1128276014,234258,428440720,98776,105386,490273,2164879857,7
28552108,605715431,444721722,489798,452342713,498861,21779838,44270643,1324077124,687570,622758879,97884,127421,492156,2579811687,7
27766803,852643258,397282623,401697,397328160,409699,18534857,54281714,1307589205,294976,834472128,98334,127453,566003,2795828715,7
16158561,437138145,301236631,325642,300969988,322884,8005499,26900638,967681851,126772,442649656,98382,107121,538030,1780322182,7
6399756,293524895,206977293,53974,206946088,59528,27610,11496668,318234962,8351,307897066,227,1943,2070,1329802755,7
14873813,436947241,299774114,340813,299660319,339504,7818149,26425070,1137755544,126970,440825000,97888,297189,261005,2472346772,7
27086110,532548757,303626568,387520,303276392,383896,18517058,51987814,1199131834,291206,542332182,98338,150196,763853,2229680191,7
27644001,646745196,495006485,425214,491854485,419303,18448757,53279111,1334214402,305512,626000155,98330,140630,671799,2852057122,7
27553522,757668190,297951945,418821,298076441,417883,18296962,53659618,1306037069,345214,734412853,98333,422239,359227,2628851259,7
27129282,633683459,302231244,384481,302595073,389773,18547577,51951508,1195153063,290710,630474380,98338,145588,557431,2134555683,7
31740607,398342084,205403997,131520,205761711,131270,25503,53134573,455358388,14416,408393950,423,3993,2321,1637238884,7
21098779,823419112,640222658,554436,640641227,551586,18486140,42508853,1791340490,719674,803762045,97885,127336,296815,3614342673,7
28092868,503080065,340417592,495163,352442259,489085,22891523,45323286,1430947544,654861,529447022,97895,108398,394802,2372635600,7
6524533,197195824,101575655,41586,102278514,40374,13936,10068523,216666138,6112,209155427,331,2253,1599,926722432,7
27758312,649860843,298172060,394786,298096226,392915,18631752,54080828,1232455150,297153,636900454,98333,126987,732352,2364539875,7
20265816,550527384,500184125,372103,502480796,370904,18809727,41001492,1248091269,244524,520306579,97887,105822,520110,2780050453,7
27616532,653642061,292822315,425020,293479348,418361,18616092,53653141,1327339153,301026,625391976,98337,136349,615700,2182158748,7
15165002,438361192,295437487,376903,295598854,365662,8342014,27173232,1085149705,130908,439853294,97895,393088,436242,2276112106,7
12803795,297138931,206419074,62511,206606737,61733,23412,28490712,322169918,8228,308756725,430,1909,1204,1428182770,7
6478517,195394913,104460625,36361,104652221,35964,8238,12744770,219212454,6267,206821921,323,2155,1709,927968123,7
26957549,629875908,302891275,381740,302430393,380259,18742477,53921321,1203364996,291095,650447923,98332,126835,599008,2230771389,7
27326676,647496566,298753608,433576,297030743,428150,18632469,52865790,1330432004,304419,627070604,98340,127523,899348,2262592049,7
31796859,501677144,204581701,96409,204731072,94963,21301,52756020,537072448,16196,508235633,423,4674,2567,1936769270,7
20786949,715211692,548089308,555155,547592059,552602,19205603,43254604,1589133773,686585,697614141,97890,150341,521435,3065440279,7
15406177,438136542,299331066,354974,298453141,345060,8515513,28237461,1086335027,132590,437629685,97889,104040,392008,2272230062,7
27900946,638290244,309817517,488311,304081280,465655,18260076,54041812,1335000433,303617,624900529,98331,140559,778652,2138284350,7
25351299,495663668,205560043,121259,205455422,116495,18128,48706063,427037151,10747,512736338,327,2475,1334,1641380948,7
31643076,400477534,204264211,128981,204074689,127890,53549,50901248,705240167,20153,404269922,432,6032,2953,1620763813,7
27882017,509193598,333094775,467217,348834062,476002,22628855,45335271,1288068950,681901,539401188,97885,105274,426352,2551978297,7
12888260,498239155,202621806,85239,204251714,78856,48847,29471911,349951540,8734,514946824,327,2044,1028,1541442209,7
15766476,192079288,104808501,301868,104639993,308759,8827608,27071783,776071824,126500,184140052,97897,104794,455640,822028222,7
27108347,630745021,305991569,395287,305976693,401682,19212631,53970946,1189876615,298309,629660363,98340,139537,633657,2002066541,7
20588257,512632471,341727981,579158,345384967,582559,19155069,42802059,1897630055,683798,509241492,97886,110067,482814,2675374523,7
38474584,664273770,297793827,444517,299464661,433987,25215581,68890292,1331784951,387210,646507341,98436,148439,675168,2030140590,7
27786040,630878541,306312146,448558,305463886,431631,19032672,53278112,1206434631,284774,653154464,98334,127381,617555,2238841385,7
20766194,449791138,291892236,386247,292439659,385297,18290745,40696340,1308352154,241040,432697661,98130,111025,854113,2197480883,7
20469264,452988175,291847295,411742,291465728,405803,18335362,39145884,1396160989,240667,433499644,97886,264000,402125,2113943857,7
6443447,194137699,104265080,37888,104384878,38663,27225,10200415,218506794,7305,204508201,232,2249,1688,917564974,7
13695124,211126984,106355100,45634,107867907,45881,141171,26755462,253869038,6438,220049250,2094,1458,818,988308331,7
6463697,298172162,204337299,108429,203125449,102558,56460,13935019,524781897,14936,303414188,329,3082,1789,1424967831,7
27377729,629053788,303720856,423793,304167770,431294,19158502,55706213,1450942365,309332,641659539,98337,128165,897184,2026707246,7
27218785,839819243,401631378,437056,401586728,434436,18630209,55288289,1544859985,304866,845501260,98333,128581,586081,2579964312,7
21124881,516436853,345237096,493608,344982286,491807,18227070,40518671,1375946740,670381,508453711,97890,103211,287017,2315460139,7
12710839,294432525,207553752,70041,204897477,73246,73120,26123574,281208587,9334,307525524,333,1669,773,1141541949,7
27454956,642732114,304420795,427841,300341080,428645,18668061,54359786,1334702877,316422,623535021,98333,127640,649147,2243089202,7
27378532,747330841,401675716,453766,394970958,449959,18922129,54119029,1339327121,314938,718429448,98333,129157,915448,2849196382,7
5875448,452484333,224270728,4210168,225434177,4227122,4018302,16671182,757854825,81370,437035300,6387,39969,38551,1561604281,8
6098232,317339153,180720025,3441524,180742301,3445699,3105625,15937096,646907807,96250,319031964,4427,13237,43226,1183902141,8
5915292,374908704,187170223,3507781,187161534,3505613,3271576,15787806,699877976,82112,374015863,4232,12713,36601,1331618055,8
10981785,300613650,180577692,3249998,180614504,3309719,6162083,23037113,1031375988,2660731,313711721,5645,877294,11363,1055256590,8
8077539,236977789,144135379,2325244,143976879,2323732,5216541,18050371,486886384,68922,254976264,6778,5324,5679,886489307,8
10333962,264756124,161220816,2536667,161108954,2533024,11091721,27627084,664911287,809401,275952132,8143,16510,45223,866720964,8
7973862,229070463,175552104,512236,181055058,526270,3562076,15750587,495112902,48486,242950622,3455,4913,11337,1203465110,8
20159143,794231345,441080601,4048864,438677835,4016866,8491169,33731021,1545278148,383245,774874702,6772,228846,36422,2340461575,8
15580151,257323041,163036951,2855059,164775718,2897476,7697987,26703425,554770361,283622,273947859,4625,8322,10865,957048684,8
22221678,723908388,553651814,4266246,555846668,4226851,17636239,43410297,2123252462,1578328,727459859,90615,110081,696526,3116886318,8
17330791,331009947,199034334,3569172,199464266,3562229,7613328,29937783,1062640071,388112,340057107,4815,824384,220070,1224694735,8
8232909,245841464,142880425,2169535,143536595,2182365,5325400,18447389,518943290,60886,268837655,6583,7043,5678,885270884,8
7900344,338406622,158347700,2775448,159152685,2818433,4378491,16724137,577201939,78361,326223106,6388,12764,16713,1155202733,8
7559798,215228520,140472345,2281799,142392605,2374007,4382283,16910159,470049470,62451,231024096,4621,7768,6100,828279354,8
7692231,166267814,113135485,2670422,105447036,2628157,4689987,15653525,401436614,85857,157756922,5928,69974,131103,644526393,8
7085168,745119761,420763004,1573812,412280088,1526649,5333335,20400980,1421011553,269742,717704914,6380,220451,320859,2238690752,8
5830246,237435791,132576117,450082,132517841,446402,2870523,13404383,453970736,35572,243342395,3266,9290,27547,972849025,8
7557957,271223460,145348019,2565880,147049747,2701216,5119601,19898980,587207099,238781,286308919,4626,7021,4867,971707889,8
7431686,225283121,136417627,2307594,139766882,2398549,3797108,16350768,475932588,70747,237140318,4622,7508,5493,829052085,8
9929641,248503549,172805328,2510362,170850589,2520395,7903619,24501199,558011817,110353,263118007,5998,8436,5073,1074685196,8
22388410,771783735,460650298,4527054,460691822,4518327,6611498,32948890,1604157862,428554,788070146,6623,231016,90627,2445644476,8
7585629,211306871,123012478,424762,128763502,439753,4673826,18194292,405221913,50241,231154957,4627,4406,4621,810695544,8
6448301,712958975,442020184,3902655,442028887,3902664,2774027,16457421,1430312510,267710,741331676,4421,214387,46712,2238809386,8
9361977,336263367,206235239,3084016,197765346,3062422,7338784,22646116,1096708821,278864,336249174,16910,231594,463266,1174033208,8
8293893,265956987,159559621,3499450,159534142,3514683,4886757,17942521,548200659,92667,266822635,6790,19873,65611,1014117218,8
5942563,540333442,216182743,3322349,216101112,3321762,3021037,15399576,807889157,50100,556167853,4233,12583,32581,1552482768,8
8076321,249201912,144037592,2290539,144054648,2290318,4251220,16558666,506540363,88071,253161763,7357,8847,5180,904167609,8
7032507,363698977,149389858,514936,153903441,526516,3599711,15833845,583146486,55653,369764042,4825,18790,13654,1048636583,8
8351086,370763831,204117227,3093724,200220773,3078999,4764890,19195341,1061477645,275242,379678053,4425,217195,422684,1254073804,8
7884796,223154103,103158883,336579,111703957,381651,5092886,19458333,405901831,92344,223660788,4231,4475,4745,823209539,8
10524468,365997872,207407999,3094773,207761830,3086843,5285966,18911666,649909814,64050,342142716,6775,11379,21983,1361611603,8
16841922,724545142,430129636,1492156,429493224,1486572,5472347,27614860,1389514870,371256,752724375,3287,835989,50076,2213561026,8
6326931,717404675,440680043,3960349,441367430,3932564,2908200,16782120,1428156082,265335,742541198,4422,214719,426982,2248156513,8
8799986,780289599,446547758,4268077,447411977,4268841,4712209,20757653,1536809206,281501,761615745,6381,224166,422167,2485054652,8
10727953,281155463,159549953,2374539,161352397,2455176,8747424,24885566,600606733,3308617,294436922,6671,6517,6729,1018963238,8
7174028,708036283,431611007,1502145,434123108,1501148,3932414,18946041,1424609274,273925,737834958,4620,216433,296601,2251853919,8
17265610,244985789,106325893,355159,108553135,380564,7195714,28062227,448418039,244404,234522236,4236,8963,8472,820956904,8
8504234,257076123,146052821,2265266,145908305,2263625,4611949,18314381,494582930,45463,236351980,7954,12409,32450,839770325,8
5715322,237663757,140633971,2487359,143561879,2564049,3156495,13338331,468944470,56987,251999711,4624,11036,10065,865037578,8
8205525,276491607,158147920,2503258,156933697,2481649,5480212,17318172,526327716,62183,297324897,6778,5708,8564,998116369,8
12579209,266250265,158096116,2464753,158193263,2464028,9292677,26353976,584794441,3407698,265632583,9902,20983,60611,882789476,8
5846228,301619397,162942729,2793051,162794167,2789377,3947147,15762763,651315078,94254,290052307,6775,9654,13601,1110993815,8
28158968,279508632,192247690,2781577,192300640,2771345,19631937,46835212,1028933172,1166285,296723080,7749,17915,57416,966076391,8
7479475,292026043,143611209,503887,143630178,501498,4409516,17200920,464357746,54718,254508258,7949,27283,27621,1027957283,8
18749326,279995230,175750440,2788400,175544708,2687207,7148936,28288550,613326443,234647,272149455,6569,12556,11066,1111175861,8
8191835,252181941,150215714,2619686,152706102,2663125,3951092,17917803,530448045,81810,260180098,4621,7719,9270,911395815,8
8730018,302275193,196074125,8374170,197057848,8501375,6828578,22129286,756497583,55115,308682285,6668,10900,23062,1066670986,8
8192568,243780629,137399723,3003858,131742733,3116906,5327865,17795874,509903033,52015,239167607,5018,5270,6533,902205839,8
7393134,366666120,155486651,2534497,155506464,2555128,4988276,18782312,609834603,66424,360752432,4622,7898,8895,1149847705,8
10181494,346903223,201099133,2740726,213940658,2850388,8769372,21170856,934516338,144277,352319180,63026,70219,257155,1334459081,8
12073775,795160176,464620673,3861242,464988046,3868035,11532604,32643005,1726226345,1087647,821664628,9895,222105,90860,2374265298,8
8174364,251920583,185540855,3003437,187553935,3143420,4113927,17792702,569132574,56410,256691898,4424,5895,10509,1139159362,8
5539739,285681209,191351023,4667818,195427612,4850004,4241167,15171778,597473100,34368,300100370,4622,9631,13276,1031412017,8
9950540,428038574,194325239,467871,191906795,468865,5719341,20404535,646751428,58658,433786094,5800,5636,6053,1531450870,8
5856357,293671733,151863781,2637479,154649927,2739848,3195102,15047660,555836827,63656,308432038,4622,8383,9960,942392459,8
16135556,263626013,157338516,2843159,159863485,2903288,7776790,27567259,550793355,257786,279601773,4626,11887,9848,942327386,8
29657660,751630158,427117093,4011484,425044896,4157844,12930745,46930279,1594574219,792291,741245602,6785,225770,65070,2235613175,8
5818073,224581388,141896222,2718061,144634931,2807317,3309580,13936940,470304902,50912,240354179,4621,7622,7946,849263199,8
8017561,325127683,165746517,469637,166637529,467186,3364698,15873897,511367206,65315,330529363,6387,12280,76887,1166138760,8
17168872,232447711,126993643,434540,126823554,443162,7303989,27483989,458249234,253181,246667328,4886,7316,5646,806652036,8
15753904,225383623,141394376,2596603,144639264,2702593,7369431,25818229,511861335,231898,241735584,4626,7390,9081,816160948,8
8504379,486261297,218748111,3271904,218882774,3269594,3935097,19311118,781636235,93644,493581788,6664,14661,64299,1515201168,8
8130099,361455749,183124324,3198040,183021096,3195720,4692628,17673874,622189687,54367,343755284,6386,12647,14570,1315150311,8
8042803,243094592,145192600,4049144,147858159,4015050,4268569,17615238,529371540,46910,259417907,4626,6024,9857,885746558,8
5612181,239504255,146584677,2746058,149587247,2827057,3013582,13152684,460257302,66747,252899083,4623,6506,5113,902081396,8
6310670,237302150,140361910,2568059,143592640,2701211,3567917,14038380,484692906,289702,250535929,4622,7257,7142,867364129,8
38337039,1014389550,450917309,1920798,452367811,1920979,4712443,57347248,1568833487,75907,1027709562,1706,13576,14177,4581402422,8
8177266,328665842,160191264,2778304,159341218,2702633,5649905,19405739,610452082,156778,312890903,5647,8308,8451,1256778562,8
17509071,946569478,521353485,5939315,521131653,5937097,5930652,34791748,1848243411,1184949,956308858,5011,227152,56853,3094254219,8
8230834,279683588,158692343,3351185,158363869,3390435,4043983,17441620,555501047,76600,284176133,6657,15865,67509,1002496878,8
18543219,275685806,158778089,913074,162099380,929418,7306934,30307769,928332416,374171,290508972,4628,603909,139228,933729794,8
5896968,341440458,169583892,2627919,173059760,2727624,3182105,14652562,580682349,62669,353586171,4621,8930,9141,1101074426,8
10047306,372452319,222612818,3502686,222746377,3502094,6784174,24892889,810976461,2582157,369184739,5376,16219,10404,1343219175,8
6008619,244699855,129135340,2511191,129403870,2685933,4942413,16042487,471830918,58725,240245515,4425,7721,9178,888239638,8
7985425,272872600,149045747,2555409,149256500,2562500,4350090,17150396,509006492,71483,268902335,4427,11926,5223,990425157,8
17747625,726070266,428111418,1476692,427768212,1472009,5787180,28768752,1403383569,424979,758354123,3291,217260,48403,2188008874,8
17669884,230464217,133668653,2376417,137084237,2480997,7063743,28096274,460176253,206389,239607037,4749,7385,7514,788587556,8
8409347,693616263,424371850,3748772,425994810,3777350,4109062,19925382,1415577529,283482,711877513,4616,214124,38386,2204107677,8
18321187,782146706,479399637,6006398,480834953,6028342,6324009,35269639,1642147075,1201473,802389495,5035,216875,76564,2477418151,8
7807356,251496848,110452095,330735,115290820,364291,5006664,18761367,394538763,36689,249700849,4236,4753,6206,827443311,8
189937,145205573,79510126,80970,76248553,72005,107929,1496712,153377563,8920,137209744,415,2482,4106,382883754,9
187421,128891099,78447051,33735,78312947,32442,55907,662358,152341201,4821,142404062,374,2662,3617,361232013,9
283388,44038985,39209154,33595,39271403,35396,80195,408660,63515228,2791,70403985,612,2453,4822,170755798,9
206382,126094945,78488995,31809,78438986,31978,50294,634620,152180276,4457,142658206,375,2688,3519,368358549,9
182397,129482484,78680970,32888,78844860,32116,52459,643029,152089856,4500,143745015,377,3609,3299,373173993,9
199432,128582786,80636047,33716,80719217,33066,47477,658671,162066561,4581,147191837,1351,1801,3860,368077522,9
132398,49769126,20854369,53409,21024149,46378,113867,856485,37033738,3764,41039252,621,837,1059,132173366,9
69546,3058228,?,?,?,?,?,?,?,?,?,406,?,?,?,9
758723,52651237,34291783,21900,37206716,19935,409236,951220,65524264,1908,73692566,2143,2007,1859,183178460,9
378259,144682737,83140957,69128,82995454,65799,173216,1035795,172552273,6126,154307344,1649,2996,13308,398656544,9
216198,126961140,78591534,30303,78402599,29624,43696,604506,152167337,4175,142900812,375,2790,3728,363998814,9
583173,18125294,27089923,15245,27970442,26683,98181,500315,43009802,7774,38195030,625,11597,?,?,9
274188,127604331,80233670,35195,80370084,34932,46496,648423,155662134,4441,146131010,623,2918,8528,364252912,9
257735,8991475,29711130,12396,29579808,13590,50727,374926,43972690,3267,39393860,181,7674,?,?,9
165980,4099401,?,?,?,?,?,?,?,?,?,404,?,?,?,9
194909,108640200,14428808,37018,20842614,50006,1734862,3012865,120444223,33932,60257587,6481,12800,5929,348773712,9
250643,47621409,40984546,41615,40816828,40134,91623,431348,65648364,2635,71681702,862,2805,5805,185544173,9
141339,126649896,79518140,29942,79498189,28685,26720,591751,148685043,4021,143910703,383,2539,2211,361856172,9
81123,2793856,?,?,?,?,?,?,?,?,?,409,?,?,?,9
680728,34960983,46234773,44801,46094710,44168,78301,474549,72909502,2571,73243929,1376,5131,23164,154696120,9
210608,130217401,79334269,30487,79467170,28683,32830,616571,151170536,4249,145923480,378,2496,2482,370005861,9
172820,135758173,80427197,29219,80422074,29177,28252,617633,151899099,3957,149918039,382,2298,2609,370583824,9
251606,9303741,34059727,15839,34024764,15075,27183,355206,52019099,25473,31431617,2339,9707,3056,51239528,9
1801160,187224647,99726055,85414,95566695,81327,2344995,4230853,207239853,77778,118809489,6233,6036,22422,586532878,9
951771,25850835,26865414,25023,26986366,23537,226880,486599,58313768,6802,46597514,2087,3377,9602,121030763,9
954271,31916584,34978715,26334,35206483,27367,180804,491665,66755367,3571,62305887,3121,8852,9882,151850322,9
162772,5200675,26138358,15425,26332264,24052,75865,457250,41064710,3416,40423288,383,?,?,?,9
100050,2880331,?,?,?,?,?,?,?,?,?,454,?,?,?,9
188030,129946922,78939527,29177,78561266,31147,55065,631082,152756264,4381,144325821,372,2693,3445,367030484,9
316329,136751281,84026497,34998,83936040,34078,62668,690421,158751212,4576,151014291,1375,1534,2832,385853259,9
93432,3278218,?,?,?,?,?,?,?,?,?,452,?,?,?,9
271429,8989318,34586510,12421,32257653,15192,204422,697418,49514333,18073,32653494,1353,4759,4450,77841752,9
275839,8581041,28209996,12184,28191052,16320,71448,551908,45422217,3926,40866775,430,11746,?,?,9
84288,3373877,?,?,?,?,?,?,?,?,?,382,?,?,?,9
171205,125769437,82250511,32044,82322149,30792,48214,669637,165429547,4768,150170434,2349,2156,3428,363555007,9
170968,135238528,79376315,31303,79404802,30999,30573,637224,153456697,4148,146679750,380,3101,2865,375467646,9
231646,48083431,40663399,35958,40594077,40218,80417,424861,65091446,2749,70827301,612,2116,4686,182862357,9
521602,124791796,82902978,34710,82797215,34231,58440,711977,163800675,4835,150203085,1360,3566,15150,361049751,9
97125,2926563,?,?,?,?,?,?,?,?,?,406,?,?,?,9
259294,139390311,79909892,34563,80067810,35723,68866,718654,163537954,4965,150216790,625,2985,4993,384757760,9
236533,127773295,78726242,34035,79061288,34466,68977,698734,153881659,4710,144666910,623,3046,4963,371872834,9
241576,46527446,41479637,37368,41526071,36672,72616,416829,66614133,2586,73430326,656,2048,4030,193187554,9
694060,38973754,45385381,40829,45400038,40742,91457,483732,73372317,3223,76925572,1599,4986,22908,162646276,9
201674,128926867,79276753,34907,79205646,34421,61489,679750,159603252,4605,143923025,621,2234,3508,367130226,9
474927,144633798,121733989,43163,118334466,44537,348292,1117879,167928740,37898,128339588,2331,12514,25626,515530133,9
711229,45188161,44708124,43795,44686823,42303,78338,457831,71971669,2886,77126153,1599,4606,22268,163259779,9
182724,127238979,78556341,31310,78397868,31020,45858,638579,150637566,4423,143290880,377,3348,3564,366251330,9
111561,53272388,42213255,37466,42097665,37513,32576,315471,66649008,1963,74756875,177,1896,2018,200308257,9
161457,3728485,?,?,?,?,?,?,?,?,?,450,?,?,?,9
1004903,11112643,27524308,24419,27445306,22235,231119,596961,54963340,8644,44378638,2089,6112,5462,99487258,9
198136,129975316,78329096,34444,78271722,31850,55500,660843,157169572,4463,141835260,418,1775,3675,362140123,9
361997,13565269,37347886,27247,38109048,31138,235744,567741,60964219,5210,60714987,2352,2408,2049,128929304,9
794903,49103799,9189275,36594,22101974,31914,728022,1379965,73223753,3989,87212126,4067,1826,2440,192839730,9
228520,6097766,30560047,16811,30540178,16434,53640,430419,48771927,16207,36882941,1365,17386,5970,62706544,9
346850,5277996,31319626,16050,31269202,15592,34393,364465,49518904,4295,50273622,1124,3106,6502,104167080,9
231485,6857697,28748461,11563,28646850,11421,36287,460229,46062588,3260,47862034,386,5505,10049,32932704,9
430721,51376278,47639249,44684,47602009,45251,240373,651463,84081809,5101,80107558,4047,11464,10729,195104459,9
184613,4545017,132794,13351,146032,13726,11430,228024,?,?,?,1393,?,?,?,9
278068,6742763,22103812,33092,22064183,33312,207346,705676,25566538,11351,?,1286,?,?,?,9
200492,128156928,78810747,31480,78772782,32847,72423,702693,153235430,4980,143009753,374,3088,4151,362157707,9
227472,128458981,78452549,36936,78607159,35438,78317,714699,153132340,4650,143652462,620,2936,4781,366585893,9
189209,4811353,?,?,?,?,?,?,?,?,?,380,?,?,?,9
82911,3047957,?,?,?,?,?,?,?,?,?,400,?,?,?,9
300854,9697434,29555341,15424,29374062,15577,62726,445103,47950823,15954,37338485,1356,8585,18353,17023635,9
73133,2685674,?,?,?,?,?,?,?,?,?,451,?,?,?,9
243484,57810352,38975576,36798,38795130,38696,85954,444039,62598512,2997,68247520,610,2843,5045,181200148,9
320767,42317872,41437923,22693,41333435,21135,56567,398370,63832158,2465,70865119,880,4063,16465,162430485,9
194690,6663588,25983778,14055,25936344,20131,82201,459125,42961294,3812,42612263,378,5046,?,?,9
234616,6351440,30679014,11512,30665115,15311,36494,349187,45061246,2896,39121642,180,6704,6410,7673277,9
1025689,27955680,30029138,19601,33864309,17939,171822,487143,58092431,7685,67895708,2351,2219,2107,151479280,9
1137109,21476011,12787936,25967,12753768,25651,772627,1273780,61294485,17103,15608711,6279,16219,21129,78093590,9
253010,38073154,42819239,41815,42754677,41311,78140,461707,68691912,2939,75480258,1588,9366,4137,165225479,9
61667,1848016,?,?,?,23956,7080,341266,4869610,1803,675081,402,?,?,?,9
383263,141190708,84043905,33281,83964147,32076,60784,663183,160902661,4329,155145569,1370,1807,2049,395954219,9
223152,47044154,40854003,19328,40741587,18641,60494,380607,63165622,2328,71513814,634,3939,3568,175222758,9
236537,125759659,78879009,34534,78914404,35877,53741,663007,154204753,4709,144386077,617,2468,8276,360198585,9
102565,3259911,?,?,?,?,?,?,?,?,?,624,?,?,?,9
183393,4325542,?,?,?,?,?,?,?,?,?,452,?,?,?,9
121276,135452095,76979937,47768,78423339,44221,85048,757891,156345207,4826,146670809,621,1604,2752,378861858,9
244122,6206750,29320142,13225,29477944,13568,36181,477715,46414828,2792,49721893,433,3621,3857,99040411,9
990338,92639356,53131616,155393,63226803,153325,549094,2815536,172120711,14835,119616315,2024,3023,10770,354495277,10
2892462,100680690,85298068,391395,85203932,411326,1799993,5140859,243807885,114555,92767125,3248,6811,14105,421730817,10
2492536,122635528,91466741,285266,94526343,297473,2105212,5887137,270934326,142320,134351477,3520,4273,16168,450450162,10
2586464,96626611,78429545,171691,79450051,183136,2939814,7489838,258517115,178467,105897176,4305,9996,33104,367449033,10
1796721,94667462,93064672,132537,89411411,141338,1370718,5358045,194175042,22412,104495604,3717,5610,23445,344562576,10
3044818,104503819,82128788,240911,77722279,290866,2164168,5339317,263291347,157001,102524965,4302,9009,15230,374194956,10
2922130,103379665,72811988,393420,72388565,384151,2045594,5468273,253753342,153599,100166227,3545,4416,15684,365174086,10
3788891,127785389,104549541,471463,104583188,372780,3925439,9486944,316730981,203615,123179120,7294,16233,38680,474876374,10
2456173,116392255,90960186,290434,92802631,302250,2109656,5875624,270411066,151207,126849282,3590,7130,15410,428536059,10
2485440,101586608,77194487,342976,76983709,365458,3070227,7754026,279508447,183932,108023686,4565,7488,33366,376547632,10
1030193,238186185,172562580,624471,176134245,629935,376464,3155539,338327743,13121,283116746,2083,10233,20839,774204570,10
2391628,298437873,200544759,863765,195340174,816580,3048568,8351800,466405814,249120,286069928,3517,7353,26282,924971641,10
2992866,281389099,199479934,1089915,200986435,1095765,2492993,8150349,483546935,188036,293576796,5794,19554,38872,878695175,10
1048724,246816503,175887667,853140,177676250,864176,647543,4606572,350631662,15676,290161986,2215,9068,29785,784228004,10
833914,102157565,85576652,178965,86117978,186154,517269,3864426,186430778,10145,114497622,1986,2670,7566,370125424,10
6405045,220180088,190288733,577846,191688394,521152,6769022,15561813,569203172,442140,236737110,9765,25056,46475,825437868,10
2031876,84006327,69722297,123384,69698900,123879,431202,2557599,153425566,11928,86572546,2023,2015,7867,304179390,10
1306891,74766892,78309917,138227,78536067,139645,369605,2473618,175330321,12219,94921112,2071,2469,7889,298811787,10
2396968,269853439,179127275,754671,181770528,768582,3436235,8872313,456237425,181731,286610737,5985,17664,44794,855592649,10
2949559,265951374,189451346,743212,180391485,772971,1720337,5625991,416158103,116899,262196180,3278,9666,21768,825718526,10
2639414,264894957,186378706,884296,180454004,920351,1989722,6021818,432760144,161509,267883238,3520,5895,24510,826824401,10
2786221,121310400,85739039,269839,88408989,288426,1886432,5177580,268037882,117326,127763558,4375,5957,17152,441270075,10
3158997,101938570,82286353,180290,82138234,198223,2622128,6376150,272062687,151750,104980907,5797,8489,21823,365544021,10
1226993,100895672,82587498,152263,80034122,157418,555703,2612420,177437366,13670,104866060,2023,2405,6298,362611157,10
982052,83342425,83755504,152678,83660502,156695,243208,2132656,177186062,17628,112832228,1892,3586,12734,328114397,10
3522061,123553301,92770663,874223,91161439,874926,3561565,8866342,317960162,264483,123288379,5751,8757,41583,467132847,10
1077059,82243367,78904843,178456,77668442,169205,422377,2370515,170061748,11087,87814478,1988,2215,8691,299766096,10
3006881,103297422,70725525,391365,70635705,399607,2085982,5397645,248075524,194184,98698929,3522,4172,13355,365014324,10
2550072,107537690,71070149,412348,70906951,412149,1793747,5571530,240232200,126735,101220768,3260,2825,12751,371997889,10
2330961,106430928,76104092,1068473,75765682,1085513,1443912,4279182,256528278,121103,109295539,3521,4276,15392,389433603,10
1461278,84635909,76858616,139886,76667387,284355,545231,2481597,167434942,10801,90692801,2025,1985,6550,304415314,10
3024909,103830107,72013890,385972,72441912,378884,2142410,5597892,250452823,159160,99615123,3619,6179,14240,366285165,10
2416101,265429706,181965069,466789,179967831,472902,2583812,7242172,441174874,159563,281704504,5036,8472,29801,837036130,10
1982554,282134574,197348068,1356225,197340789,1358658,693759,3522235,412866329,19116,312451445,2993,10979,42363,938439619,10
2685509,114645513,92706132,343332,93666229,336956,1779862,5125317,264473376,144842,125450817,3520,10166,15647,410687912,10
2791511,106660044,74364052,378264,74268974,392307,1749707,5127983,244606739,125922,101273117,3308,3519,13457,378126872,10
2489561,99561236,86205970,166646,81506016,177319,2982529,7247010,278044027,163554,105898853,5991,11254,24674,369715479,10
3141620,266363417,183074441,719660,176850878,756154,1915985,5579807,420845041,128850,264324465,3841,8286,21700,828995847,10
4643182,146813176,110304495,3335468,112168437,3405815,2167527,9434053,439854164,122416,144871413,6449,7743,29854,547644802,10
3527254,156263412,142979644,607100,143039932,603314,5188382,9802567,417602453,435467,161051304,5994,7051,26554,646223336,10
1870265,270976802,176486720,1520970,177012956,1530952,1113306,5022109,417522824,67339,281703192,2765,8235,27424,850337289,10
2424337,142514532,107424117,1073411,119838790,924709,2535935,6058720,311171056,114764,162655163,6316,9808,27701,523376798,10
3184786,101647144,76983255,303540,74705957,337453,2341371,5588902,264391982,165661,100452949,4695,5863,23372,363367839,10
2277988,261373402,185944192,941541,185440473,958595,2669593,7404220,449713289,168075,283307448,4300,8646,33788,836848546,10
1312751,99102839,82673622,146802,82253400,145586,462027,2607434,176809231,12389,107256014,2227,4738,13563,352314259,10
2419953,270975544,179805121,600790,183509092,603773,3541643,9327077,457520864,190745,283660103,5988,12824,44298,865020039,10
2498229,100073456,85965980,176960,82483943,183244,2918669,7074487,278675433,159893,105234129,5992,9416,25423,368818809,10
4396812,139353199,113442786,372276,117350091,329349,5787049,11332371,442773914,597159,154300099,6254,23941,34383,528675448,10
1252390,257918561,191775249,681008,190372303,604949,1428995,5572613,368509169,26322,283747977,2993,13389,47045,837417841,10
1095142,234963408,176907602,441461,176635737,446344,251339,2479554,336379934,17344,271410178,2016,6715,26953,755993269,10
968527,243752259,175186770,821494,176766358,826571,461628,3253633,350227115,15277,287432322,2018,3793,19350,784793354,10
1408580,81640377,93873795,164074,93726702,164028,373514,2255491,166258930,10651,83417002,1891,3934,6107,354595221,10
975634,245590946,170730839,860365,173425358,869436,365318,2725499,348802806,14178,285292669,2019,4646,20251,784581816,10
4254897,122610793,90174606,408205,91763347,405395,3665750,7769720,364915978,130565,124746955,17324,55883,70790,469959423,10
2353899,99158984,88196176,161044,82622382,180397,2871254,7345357,283840946,170026,106837321,5801,10290,30037,380717600,10
1108201,81545346,78465291,152552,79454323,163077,646974,4063562,173800439,12095,110066031,2869,11010,34894,345785973,10
911577,84888873,79614604,141698,80035052,143905,421620,2437843,172798809,19664,95853879,2072,5330,6743,300940774,10
1143510,85992659,84366279,146372,85771338,152886,892071,4408472,193430446,17641,106153703,2999,10144,24338,342477941,10
2675681,261857611,192045694,920599,186678983,951477,1762798,5539149,431281679,166916,268753237,3517,5225,27179,815304326,10
2610401,262305688,188648755,842750,183240499,880163,1975846,6100539,430675635,162382,267906921,3519,11099,26081,813696116,10
1109124,236117817,174273298,844510,176598123,855469,389817,3013134,350114719,16842,278976633,2019,6109,26401,763781996,10
985963,249742784,175424559,847303,177008966,861467,491099,3730402,348081231,14732,289796955,2019,3710,20074,791026918,10
1622832,258371279,178003987,922912,178192074,808779,1730710,6822586,376453564,32466,287759451,3451,8801,25081,829977592,10
2791367,289204787,191080187,890553,189686349,850585,2995724,8791121,474492620,199378,289745128,5799,17329,42844,879524605,10
4345458,361079431,237965964,962997,229635780,958928,5969603,11857993,667494496,574109,340197507,7682,12942,36521,1130084332,10
2501240,98858414,86094200,161373,82103176,171415,2972784,7274507,279446852,166138,107077175,5989,11847,25405,370686078,10
10023452,134749595,107679971,3318311,107958174,3350169,10708041,24642566,719392209,1396387,134209078,7145,13862,50657,485280481,10
2206286,133999187,86875870,165943,85336030,165790,3675946,8800085,294510992,196789,124499919,5796,8476,24182,462836290,10
3946254,127116096,110580684,334256,109812422,336274,3147131,8437498,347338054,275341,145139781,7034,20677,43797,477657598,10
2988824,99844109,85138601,173079,83123994,191720,2762412,6755927,277052501,159965,104687326,5989,10330,22866,368219819,10
2254837,270587156,182227049,784039,183450279,790471,3391318,8807980,455105795,183493,284243477,5787,11071,40539,848873209,10
940234,90142090,80353217,140390,80061867,139449,385076,2594300,172045443,19189,95885656,2070,3100,7448,319574038,10
2477533,99520632,86215800,167474,82746688,178772,2851548,7023276,278327687,158892,105669539,5992,9943,25785,369340000,10
2085531,113374248,80008454,743951,81242628,777924,2438219,5542019,272181357,166180,116523398,4140,6159,21938,428844562,10
2525489,99390674,86278152,169645,82815218,177484,2830747,6965739,278297669,158075,105723237,5991,10176,24392,369271815,10
2310155,264836714,185036836,615562,182937013,636679,2326963,6870464,440521168,157023,279331334,4630,8341,28564,828640496,10
2273207,308930066,208612413,963132,212784063,987641,2702574,7591678,469233306,120797,301582975,4231,9694,21677,939966728,10
2406329,278231545,179050814,777625,180776800,789571,3411113,9689753,458435572,193831,288034309,5796,21431,41864,860673216,10
2913722,102427571,72427144,400738,72073511,393861,2021723,5411050,251961653,154938,98838371,3520,9329,15294,364020219,10
2455163,101923098,86845896,160040,82451364,171756,2901578,7200316,277226698,163735,106745610,6184,7303,26741,374772432,10
14270371,66088157,28529349,4880125,27875552,4942573,21205,2210170,231532378,8883,66286743,177,2898,1773,165123271,11
14703640,72723848,59353155,4185088,59611151,4211794,25117,1498885,218536981,8798,81987045,172,2413,1876,249026060,11
14247955,67288999,28252477,5095784,27948946,5106611,9910,952379,238594248,5915,68431982,207,1422,838,155577433,11
13166280,175333795,60789282,5364733,60972722,5369471,54279,1318860,287352850,10066,223191424,181,2668,1023,483619365,11
14172634,89578370,32394181,5566182,32366203,5561493,9004,839825,223847165,5672,94059892,224,2283,2014,197930484,11
24287981,766529087,614174727,5690427,613116087,5741769,126642,19243082,1160947032,39513,772481815,224,7836,3938,2628988861,11
26632532,69047028,40581028,9344475,40426047,9337713,38597,13529996,332840497,8974,67087412,187,2115,774,226756776,11
23847494,759723836,607117419,5795111,605864834,5773358,132226,20875943,1096802433,29625,762716392,214,7548,3885,2592506065,11
8376777,68235857,32181690,5449425,30565463,5513848,16619,1355621,208285332,6979,70397551,190,2580,1624,156305954,11
13686839,64819831,26750095,4803964,26712232,4802888,13390,1028452,210880957,7021,66056006,214,2364,2182,150811296,11
27029190,67496151,46420030,10124242,46139141,10136642,39066,17160647,339763963,9031,67456422,222,2575,813,196531256,11
5983262,64660572,39725581,4976363,39708516,4965160,40708,865197,220682882,6888,65754292,183,2221,1910,184552417,11
14229972,75844424,26708396,5602757,26738778,5600230,62312,5678817,212104050,7398,77037986,213,2517,2250,154996472,11
14156663,85836314,27616793,4906765,27787710,4900329,37152,4219815,206550531,6977,88339465,211,2289,589,204838406,11
13056938,64534296,26787340,4884725,26897847,4880251,8390,856216,214074726,7037,66358354,213,2317,2243,151059039,11
13657137,66412501,27052879,5127375,27019747,5003636,52950,1550395,199612257,7122,66340490,223,1316,650,162832103,11
6579990,77610860,52058042,5473037,52227971,5465539,9038,874185,245679407,6067,79825236,157,1605,774,312857221,11
7976047,64744089,40027449,5207477,40063034,5143074,40826,953856,203780652,6785,66053326,192,1464,685,196815032,11
67554384,429239491,314997762,23128715,314808417,23121079,103942,97429381,1965935489,49049,428816882,259,12684,7455,1144230309,11
13235556,65208778,25918560,4476249,26335888,4514717,8376,2579866,217063730,5641,67479808,222,2249,2048,138467786,11
11222419,64665536,32409464,5433686,32388368,5429307,12783,3420439,248813746,6252,67207056,199,1621,776,146624352,11
25238331,93234677,27742083,5641047,27704244,5641891,55978,16811570,258381368,6727,95737064,228,1615,625,182060008,11
14415028,64056586,26734492,5531805,26855277,5529791,36186,1976515,207983659,7151,66402334,175,2285,738,150975655,11
27632255,80889611,49248914,5635247,45980090,5781146,435607,2300542,363182198,11538,82394219,2890,2369,965,265741714,11
14339052,63365947,26500551,5455422,26555101,5456158,17969,2007015,213944416,6914,65782375,174,2433,1743,149759689,11
24643351,65695136,40270095,9324613,40059906,9358432,57615,3694205,358563662,11638,65550922,185,2254,1197,198988351,11
24163715,759436797,605697382,5829074,606383894,5823204,77742,23636851,1137919086,63444,766183656,221,6904,3885,2594649379,11
14563571,64100842,26772431,5539406,26788632,5538530,12982,1265438,207735821,6870,66365649,175,2175,1216,151113998,11
6072658,64835973,26924729,5365810,26716069,5314518,40399,1161155,199553873,9284,65928824,182,2969,1168,138183671,11
13720563,65207541,27028736,5207991,27201287,5232954,29712,3338910,198486123,7020,67081826,244,2319,619,132761800,11
14738543,64458042,26587420,5600831,26667882,5604598,7973,1864692,210139441,7005,66588829,176,2295,1556,139151576,11
6251502,67372158,27835888,5406141,27907668,5384404,28527,939545,205033219,6977,68626179,176,2198,758,171022020,11
7674227,70559884,32188750,4615209,32201082,4617467,41013,931740,237932649,5901,71763397,189,1545,1592,278978914,11
83130,2693487,?,?,?,?,?,?,?,?,?,209,?,?,?,11
63796638,277893875,169261534,40698810,170300188,40701827,103833,16852148,1637222971,40578,276671637,181,10650,4267,720727862,11
13399333,64625765,26707341,4795489,26784480,4804303,15305,2175992,218678095,5570,66617404,237,2266,2031,138898793,11
13387459,65932005,26521475,4767740,26651555,4780570,14720,2573676,210144865,7230,65718517,223,2277,2128,150859940,11
11021232,68167025,27723927,6319691,27657431,6322460,26025,2460540,233255844,6157,68694989,207,2344,2191,150018291,11
6084155,64696091,26832824,4700631,26882652,4741869,34342,923666,187601722,6408,66952401,181,1204,485,165012159,11
21128892,82718678,26742827,4992016,26744477,4990448,11059,15215949,231599373,5921,85238428,210,2330,1581,178493670,11
13877053,128524291,52446598,9714231,52024542,9713682,24987,1856228,414901338,10533,128859808,174,2661,1481,282377929,11
13551045,64940973,27110866,5223024,27023723,5221066,30530,1804206,214805352,6990,65973190,223,2250,2023,149745826,11
28451404,90946283,58862561,9953456,58896739,9810222,47573,14455229,362713629,10780,90990173,216,2319,870,249699895,11
6092728,76122671,26847467,5146840,26985850,5019693,35291,1995576,197217156,6812,77487942,196,1304,618,175856524,11
13535743,64962171,26451005,5006419,26540521,5019842,9042,2445080,226175956,5644,66847812,225,2373,2110,137521591,11
13901750,64845409,26316669,5089288,26737858,5134970,13142,2502949,197857891,6942,66824430,212,2289,2006,162848858,11
24141140,63827059,34636060,6168729,34643270,6164603,11386,9161294,304317707,8849,64348304,201,2924,1856,191845891,11
13450733,92805309,39625017,5001858,39644770,5009083,8767,3572834,247300003,5781,95852579,175,1571,585,216707419,11
24924789,73816171,40193128,10160342,40243019,10173100,46282,14706560,340657064,9285,73858397,179,2574,1205,201183187,11
21379046,75265724,46350365,7256059,46393031,7242505,12800,15992826,322435286,7873,75379788,221,2039,1147,224148394,11
21428594,75536633,46451694,7279984,46502358,7286151,24018,16192050,324327334,7795,75355969,221,2082,954,225436030,11
37085263,767656233,621664650,5870357,621344919,5867881,53016,38171427,1202585179,47141,775915102,262,9313,5740,2664482174,11
28666651,65536280,39337715,9731872,39404875,9732120,32394,7774861,330697142,7845,65554407,197,2181,874,198659971,11
7844899,64018798,26789506,5114156,26871665,5039067,32168,1891036,204235098,7015,66249996,160,1323,666,164168560,11
23703942,795757132,659566517,5886587,657954303,5868026,124332,21552222,1209730830,30040,802285309,240,7611,5349,2744744441,11
6095340,66649104,32450189,5733639,32433016,5735185,27191,964596,206778417,6932,65628182,190,2251,855,156020510,11
40343043,266439138,225275920,8568734,221124453,8665164,17690456,29790860,1330714279,259004,260398775,117349,369825,456973,1143684676,11
14088319,66180113,26662090,5506870,26655720,5459139,28461,1015558,205283576,6930,65416584,175,2013,855,150275940,11
14701007,64367019,26855865,5509630,26813041,5512714,38139,978961,207719052,6932,66406525,175,3083,1375,151334336,11
12048652,133801691,57697156,9925822,57778472,9919282,24928,1573707,407417129,10277,133590149,184,2603,1233,297238098,11
13475168,67022266,27887070,4935627,27845116,4916692,28481,931909,228355999,5664,68711805,208,2267,2275,155859497,11
18601624,99014178,60110746,6004668,60476005,6035751,44406,4200497,266901308,6998,101787353,185,1697,931,268487087,11
24187065,755996014,610490254,5846750,610987096,5855609,295330,20698533,1127855838,36433,763491430,217,7973,4942,2627441033,11
13417205,69101487,27816427,5022260,27854796,5017134,11796,1676473,220396544,6671,68510088,216,2321,2334,155683355,11
13545576,65501190,18127942,2729176,18195853,2720023,207026,4928017,147090558,4471,71701875,995,2705,2390,136245213,11
39416738,71305646,36803457,4934643,33595810,5178748,504306,46499915,460053805,9882109,70961873,3547,3907,2126,178614405,11
39494242,1536610831,1272336552,11642977,1270886721,11623221,157637,40671919,2274840768,57197,1542348716,228,14745,9032,5358076603,11
7718102,64285625,27103765,5115959,27057276,5043684,43545,905872,203826205,7345,66452060,160,1366,696,165255003,11
14645659,64130225,26967316,5538017,26942013,5537002,24412,1010895,208065747,7016,66426176,173,2801,1528,151106365,11
23956628,738273036,607551633,5783431,606209235,5776038,139096,20810388,1093787970,30307,747421473,231,6702,3819,2576741133,11
23455863,66041522,51546149,8710034,51827998,8735648,35175,3596405,359997237,10946,66716863,193,2441,1381,238173585,11
28655187,73690211,40275041,10213290,40348664,10211449,23195,11220755,340842890,8868,74224436,189,2781,1511,211070343,11
7764204,56677775,36413237,8234923,36221080,8099503,32129,1243150,278986941,8961,56273068,162,1798,860,169215350,11
12953631,109387954,68560791,5297434,60754622,5591307,81809,1122517,251866706,6704,112790698,1349,1618,816,264915564,11
23648677,758899691,601716452,5742629,603970976,5756996,107101,21798420,1082952278,26730,765250098,218,7987,2954,2614930218,11
22334668,81525750,27511237,5393346,27594097,5393832,9518,16423329,248459124,6279,82736844,204,1606,783,197256195,11
9950316,64567031,31830933,5339821,31977626,5369076,11460,890418,240115453,5726,66224469,175,1591,1059,168089631,11
23780637,744569393,613841259,5832203,613325650,5840430,71462,19331311,1129808325,29268,752291410,213,8415,5303,2592049801,11
20467442,111006116,46318974,4657976,46272983,4669580,24958,1938220,262367401,6827,175782470,171,1637,843,313128582,11
14532019,64568134,26912426,5407922,26879206,5407193,23926,2324554,211814766,6914,65837702,213,2129,2253,149997024,11
1584950,310434274,208516166,595671,209901058,592165,131430,2459402,382324669,17740,344759194,1939,9680,22572,985201287,12
10635377,154325236,152635730,756685,150707073,732009,1686043,8598009,532969004,34617,154792332,6384,13709,46803,559490161,12
957258,326735452,217235349,562760,213766801,564829,219011,3185683,386394912,13196,303954316,1937,8113,25099,963132666,12
622253,90915264,74155421,42587,75181203,74649,112663,1251587,143384282,6024,84771638,1042,3902,4373,348801649,12
23620724,248743962,171869169,2257983,171734974,2215498,1902724,21500986,923183153,52171,251965935,5697,15088,47826,842339006,12
172840,92387085,60763121,79543,69539065,124671,124000,1516124,126330587,9993,94276931,918,3574,2915,305065124,12
915039,79082850,95849088,33304,97242811,75094,141093,1718713,143886992,4491,82180694,916,4788,2905,380736711,12
22543150,248069493,171647085,1632550,171990049,1592497,5734280,12894428,863250558,93515,234749446,13316,23725,106633,833183135,12
211932,316551449,194959340,515885,196859912,510438,137750,1660340,347614822,9669,325695705,521,3572,9900,935792563,12
2822574,87492487,70342720,43102,72316379,41317,282356,2032203,148075488,11591,102919980,3748,11841,6526,363381186,12
929509,85214191,90485848,1752505,91447623,1753508,195481,1948875,219126810,10128,111026480,2297,8351,12718,413334617,12
854791,331012803,226251629,597228,225561607,615905,384834,3644549,372651117,15070,311861362,1938,8398,22926,967625813,12
3070776,83491272,79240639,44187,81353826,42576,289964,2226658,165345021,12827,103502745,3750,5504,9523,336125311,12
602452,320163808,197495721,555405,197266677,559173,216579,3323190,366037351,16854,316899226,1899,8131,30908,946183836,12
3225214,87854953,79657952,49583,81601243,45368,275807,1561717,169199192,13057,106460019,3751,4867,11784,355647894,12
601720,332499037,215032684,688646,214818258,680214,111852,2710884,384019363,10918,305058675,910,5272,14883,971733035,12
328953,315079203,207701207,765074,203453064,754471,190576,2756788,358890734,13074,325483638,910,4347,14554,939128969,12
3054257,85454422,75847326,48236,77890360,45953,343547,2381782,159336439,12736,101216480,3748,4943,5173,349198473,12
385241,321699033,202397534,604193,200364726,578020,198025,2464719,353202267,14854,319157711,1035,7587,20876,946862352,12
15621012,159465540,146791470,716451,147458491,713296,811877,3718058,427693142,25824,149426940,4830,8513,32230,574812750,12
28089475,212577110,180340231,565398,179738775,562455,445867,8921285,565896154,19145,215609786,4040,9723,29140,691219955,12
9213338,398999382,250776660,855390,250667449,852816,1561143,4811751,654622366,37475,397047032,4816,11531,43222,1225572716,12
236609,314272511,203016982,603132,201996266,573814,209913,1973413,355402399,10736,326815550,521,2851,20739,939254583,12
13202531,141245062,107925040,367864,106315024,365116,293123,2438345,337125285,14256,147385551,2476,6504,20221,448340028,12
15380066,160048341,149586730,718765,148146801,711627,867065,4194928,425534054,27765,147727948,4822,8484,32088,580207469,12
1738592,93558971,82426366,50864,85260382,107960,445615,3221592,149556108,6522,86685465,1698,2948,3280,329108731,12
210086,317631931,195600762,510538,197490172,509468,115598,1745211,348452783,9459,326003325,521,5130,12362,938057755,12
397060,313545216,200019968,555882,200596347,538240,149587,2073983,350267283,12269,322301129,995,6822,24383,929765861,12
19281988,432427022,292076595,1017211,288640098,1003091,3363690,10177688,876774528,73787,476419951,10649,24195,91152,1424733057,12
218815,315489513,196181548,498987,197579412,496443,71836,1455235,345479364,9825,324383834,518,3997,17180,932185102,12
205145,90349100,69005269,67561,75152808,123199,128464,2347024,128168183,5861,97479186,916,3226,3477,306531423,12
7049238,127370979,103540596,423435,105342718,422776,615239,2592729,271091317,12463,132352540,2477,5981,17875,452431833,12
876749,102831900,90224641,1544860,91199133,1572281,235805,2496062,219189558,12284,107070051,1947,8909,5892,435588517,12
237541,320119614,210399430,644108,208779073,608443,313489,2701586,355967410,11366,333361349,909,4283,18717,953239893,12
239249,315809024,196003191,522461,198108164,522368,186150,1689731,349697332,11016,327243116,519,3914,16025,940442427,12
265632,322266513,203643212,586766,203462559,560581,170917,2442686,351263531,10734,330854446,909,3028,18709,952348483,12
206671,89198502,68545497,80285,74116538,138675,167108,2211597,125605466,6557,95309453,916,3285,3681,304162438,12
602562,323615936,227742190,608057,229645420,633942,203202,3660482,373379472,15094,315987452,1938,12301,34574,952743099,12
215776,89713510,70382077,59484,75802437,124868,73384,2371402,130700741,5336,98467435,915,2378,3172,315097109,12
616215,325077097,229180235,600871,228237780,622606,223241,3798743,372469768,15110,314682293,1938,8579,30869,960372568,12
181103,84193089,69515879,84836,74984399,139859,90485,1277579,124833389,5828,93960692,525,2543,2688,304232043,12
576242,325923425,231222115,636705,228951500,676040,256142,3502043,371209535,15564,317958952,1937,8635,27316,963676563,12
233840,84864972,71978766,149908,76059228,174702,123201,1389150,123853479,5592,91260253,524,2792,5160,300787272,12
244029,87153300,70640019,110670,72574991,134710,101489,1336223,128002419,5639,88493379,523,4221,6229,307121500,12
9081375,391740389,270449530,1220933,271999058,1224463,835163,4172055,675519587,33618,397288995,4815,19708,50314,1168094551,12
10817407,383585508,322022805,1664753,320527590,1654360,2106927,12780491,786717631,42314,414055930,6377,31335,59149,1362591128,12
1311574,83213283,75424334,37207,76496989,62230,244271,2010918,154065332,7749,93705301,1946,5134,5420,335539853,12
573072,327175685,221954177,637557,223376353,654350,213788,3365600,372255594,15589,317306839,1937,14178,28441,966226526,12
1386466,81909692,73060065,41343,74966532,40659,236066,1652818,149021938,7986,97110963,1943,3675,4666,331944190,12
1633324,360699538,236154413,765293,236481068,775144,512855,3873853,421872939,12238,367720075,1692,4422,7260,1057037064,12
15645665,174638899,132956771,433902,133445344,432109,824829,3391778,424666096,29109,164542624,4823,8349,35082,563114024,12
10840047,400299916,252935852,994800,266275143,1010322,1702830,5921398,712387680,44180,421397458,6376,14516,59819,1239573644,12
182556,87013579,71543009,114017,73216474,138472,103995,1408166,128930168,6028,91639460,523,2381,3514,308551886,12
588563,324052614,227635498,632759,228096113,688522,294611,3448072,370201134,16672,320936643,1938,14064,27424,966508103,12
928105,325799981,210712575,577993,213190101,578624,183333,2985352,384861463,14300,308339002,1937,13009,21075,965465130,12
723395,97725641,73983510,39770,75923592,44606,142069,1222050,149634237,7424,99320342,1039,3357,3997,354427263,12
1594563,127172785,111524515,1994077,117775981,2139363,1121954,4381189,354848444,95650,151621765,11196,17475,42549,467099874,12
15515388,159451541,147275967,725474,147380129,712200,849375,4568204,428731541,26268,148453356,4821,20442,25978,578996437,12
1426192,84989521,76041700,39584,76799116,50239,306139,1760996,152143558,7890,94291281,1947,4370,5093,339925703,12
3201614,84429166,79536131,48301,81419072,45844,271079,1940729,166020010,12283,104202767,3750,4980,10596,346657439,12
1102129,319275435,218601434,551161,213641027,563353,212572,3013977,390015723,13097,299984916,1940,15660,18283,949807658,12
265647,314813086,194805324,512216,197139961,508510,133643,1576416,347365012,9613,326452204,520,4252,16680,937869292,12
16941734,479254264,337705788,2410427,340967802,2224219,10585714,28221730,695998918,155162,473744022,5599,14541,61383,1674654452,12
31017943,346708207,215689094,1051624,230082007,1059991,4940351,12730611,966212259,87812,334830624,15927,25212,104516,1202211597,12
10267339,146592690,102803054,428358,106222707,423508,1035399,3558960,376425618,21100,148701583,3259,16299,26713,466360201,12
586285,326576960,228809043,610210,227849774,628545,222905,3711543,370557512,15109,311590175,1936,8435,30721,949542607,12
322929,329048136,212162700,734063,212611735,731645,821537,5921317,367121958,14663,325593684,1690,6147,12978,972395132,12
179384,87067558,73478670,135212,76941173,155604,100221,1332994,122935752,5798,91617211,526,2833,2683,306676683,12
10118486,146492909,109808573,425933,109272809,416174,1055156,3438561,372829153,19799,147060693,3258,7941,29476,461749534,12
388428,322033790,203646672,571062,201308536,552138,198020,2281356,358983154,13739,324081086,1033,9028,20757,949853823,12
2767930,105301895,85892854,45150,87727842,45875,226631,1273334,177720833,12113,133363059,3748,5670,14526,377720101,12
15438517,171970810,147892683,428987,147489217,429205,746164,3692144,430240810,28053,164979003,4822,19378,36632,569061461,12
12861606,172253536,156780619,424334,148289851,430480,1744316,5394933,446094117,28798,161741790,4812,10674,40560,658874157,12
6126702,305933880,217579615,430635,220175638,383426,2115037,7577297,411826394,31492,318971446,8018,43063,28247,915384111,12
2055318,147649451,86935768,95361,79912223,90740,1470606,4394547,191417810,19950,132036449,2479,3191,2828,448477892,12
12891833,136086313,107583937,393881,106901973,392869,295350,1980203,327074479,14487,141851816,2477,6575,19666,442350161,12
971214,93635973,94941044,1866035,95234034,1872273,259859,2491409,227759509,10334,104611583,1943,4526,5671,414901652,12
930878,325616571,211280584,572372,213295897,570508,192687,3037116,385706756,13608,306223405,1939,14597,28389,961524196,12
2758499,307000578,216610944,767099,210495709,751815,448699,3859508,392556973,20000,314233720,3744,7915,29813,937905775,12
1325012,79067728,81388876,41719,82386168,40133,228539,1706904,161581324,8028,93827567,1944,5048,4033,323750695,12
114826,30066942,16940209,30188,19299393,32497,117328,832860,44907963,5961,32925791,523,1865,1210,107818112,13
48735,74376376,50085872,19630,49955340,18350,14951,348547,86125767,2330,80922317,128,954,2204,233068079,13
126429,79817762,54347457,23212,54278298,22604,33929,496699,97021999,2641,89179177,517,725,2864,257707195,13
291777,11192548,28949794,10605,28974016,10800,10409,301504,49030505,2888,37610893,132,2388,4003,91394599,13
78888,69556974,49475496,18564,49411452,16909,11208,329363,85840776,2298,80410660,128,662,2172,230328273,13
88247,69327890,49784964,15587,49740745,18397,23246,344939,86854586,2730,80805025,128,654,1739,232167778,13
64102,27895952,21085593,43301,19838661,44632,69036,782242,41164449,5604,29788575,134,867,738,100781706,13
326299,10597021,23607101,13324,24383327,23760,31849,627582,48527193,4764,35783826,589,3678,7675,63783884,13
61411,72059772,50137483,17675,50147919,17184,12368,324828,87521730,2326,81616336,126,649,1558,234688137,13
62503,69553384,49931867,19618,49716779,18306,19179,344710,86736267,2278,80661274,129,662,2131,231814716,13
94127,82895581,54154573,25762,54417081,22860,32436,503204,96679178,2643,90735264,517,1453,2504,259969526,13
305556,11392311,27381612,11079,27328773,15200,16945,805132,49112353,2982,29207212,525,2475,3074,93399313,13
107108,72617358,49188531,19981,49115037,20607,12943,366526,86160483,2458,80565549,130,670,1279,231133323,13
523179,9251287,22270211,9413,21769285,16035,30361,351504,39370961,3153,27238806,329,8129,?,?,13
107291,70038280,49526476,19132,49494573,17607,12167,337286,86814226,2394,80431715,129,646,2830,231569452,13
149838,7901172,22947259,10274,23261667,16172,44824,410896,42557064,3050,31405743,524,13472,?,?,13
104330,78440478,54798748,18572,54839076,17740,14337,402248,96031111,2488,89573303,328,933,3488,257699249,13
55239,71035254,49536426,19954,49487309,17493,19054,356887,87355668,2481,80460937,128,659,2538,231480528,13
86962,81466346,54831640,19313,54775385,18497,18154,466192,97300790,2643,90340079,518,957,4073,258769023,13
173706,7894889,20853704,10034,20966019,17996,30770,308273,36527962,2978,27317840,135,?,?,?,13
46309,74026958,49555640,18362,49340556,17457,11625,346140,86452945,2334,80604231,126,651,1543,231132469,13
69418,80900962,55587070,20360,55220075,19600,15521,427823,96485074,2606,89148539,326,949,4178,257600586,13
203096,7991322,21503033,8174,21140168,16533,24355,292674,38721135,3052,27199773,133,?,?,?,13
210353,7954837,21501906,9793,20880151,17587,24160,308295,38372963,3212,27161332,135,?,?,?,13
54644,73790869,51673140,20445,51770270,20402,12882,365078,90364117,2318,84004250,129,666,3730,241457681,13
109095,83585023,55693587,16968,55677505,19159,19528,474623,96902964,2511,91833249,519,721,2627,265020169,13
67638,77783349,53531577,19682,53493629,19428,15498,419797,94542337,2761,87592925,326,940,6389,251875964,13
69864,80124439,53825694,20755,53840395,20763,18122,414104,94770172,2520,88188056,324,1250,6006,252925868,13
160650,4769770,21771781,7813,21754260,15960,23718,284599,39729708,3115,29164975,133,?,?,?,13
261798,7533631,22724054,8445,22713833,15668,32139,336877,41675303,3016,30551058,326,?,?,?,13
75350,75916532,52949788,46968,52781304,39709,57476,829000,92816023,2782,86076245,325,1644,5196,247114130,13
255771,7704084,21011153,8053,19746601,16381,24514,289050,37647059,3387,26194080,134,?,?,?,13
106076,77352632,53401348,18889,53178158,19938,22297,450802,93818702,2928,86877412,324,1061,4887,250726746,13
112348,77961618,54205096,19802,54480284,22658,40981,447246,96441723,3198,89782116,323,960,4796,258606688,13
84803,80037948,54603672,18754,54679823,19393,15608,406854,96195306,2437,89422005,321,710,5462,256516262,13
72753,77874306,55284026,20230,55250099,19531,15733,429381,96286028,2588,90262468,322,983,6274,259911159,13
98286,70212994,50362559,23941,50199487,20979,22013,382378,88297118,2525,81261605,130,861,2671,233184073,13
260411,9216576,21305889,9084,21296971,17312,24039,300748,38034678,3083,26942414,134,?,?,?,13
48731,1891270,?,?,?,?,?,?,?,?,?,228,?,?,?,13
64389,79800535,52578785,16588,52469902,17672,14574,402372,92302950,2503,86006344,324,697,3850,246909565,13
335576,10730714,21059359,9641,19813996,17830,32365,309458,37252354,3706,25824743,132,?,?,?,13
119855,70899241,51121274,16431,51064143,17558,13243,382008,88957549,2331,83416864,325,668,4330,239738730,13
103218,75039326,51422319,21313,51326706,21409,32934,472254,90582085,2885,83771270,519,989,3447,240683703,13
175070,7049805,30629821,11612,30779699,11893,14216,218963,53915497,2966,36602567,134,1936,3086,127903796,13
207742,6904371,26608517,9994,26580275,13311,21660,845360,47916951,2992,32206291,525,3060,5854,111260064,13
220203,7872901,22150342,11115,21328803,19067,39043,327796,39207313,3123,27387411,135,?,?,?,13
571764,5786516,25293266,10994,25451217,11371,49982,464816,51266554,4737,33595264,589,2411,2906,134088928,13
45166,74580947,50244767,17897,50155567,17139,11986,347383,87870425,2345,81240309,128,659,2802,233464138,13
66690,73138113,49778702,16713,49866707,18306,27029,345229,87693088,2751,80861068,128,671,4156,233773810,13
65422,74943163,50529785,19396,50477447,19359,14538,428818,88492764,2780,81666979,324,942,3332,236246896,13
116806,71292938,51280596,21009,51198548,19130,14771,430500,88273519,2555,81888202,325,786,3353,236296936,13
236249,6333325,20948444,9351,20736743,18330,32678,319428,36571681,3330,26564143,133,?,?,?,13
79539,69786794,49854174,16932,49864972,19201,17391,348168,87135244,2507,80899226,129,990,2029,232823298,13
368101,10675073,22468231,7657,21493586,16903,33138,295966,39071372,3816,28830839,132,?,?,?,13
348326,9386541,20837633,7106,19856182,16157,23961,286825,37673157,3136,26065500,135,?,?,?,13
151317,7590952,20800208,10393,19591504,16981,27033,291837,36052800,3755,26044791,134,?,?,?,13
123141,75731554,53410620,20821,53268788,18586,13748,413040,93482841,2473,87094801,325,700,6024,250838149,13
49185,73996772,49574191,18109,49598529,18095,11780,355998,86765267,2391,80665889,130,696,2491,234116369,13
63059,70311394,49934410,20789,49890903,18123,18594,365631,87192392,2491,81399383,127,667,2034,232520749,13
64065,72383955,49976862,23193,49970448,19797,19922,378072,88487939,2527,80847495,129,1077,4525,232713758,13
47708,73188587,49488864,20972,49582624,20802,22288,371142,87552202,2320,80675560,127,662,3091,232938730,13
99466,69757922,50122993,22350,49953087,20179,24053,365856,87232286,2481,80844129,129,956,1451,232705522,13
191807,9054555,22623307,9432,22693305,15933,41811,488370,40467673,3196,29278483,524,8751,2523,5319597,13
683401,9480234,25526163,14220,25508275,18446,54729,628172,50062614,2954,28763289,523,1659,2451,100369339,13
92881,79371487,55299751,20812,55341671,20487,17781,469491,97092513,2558,91266768,518,808,2384,261192462,13
70755,80512990,55051492,24693,55099466,23423,44206,476149,99227663,3242,90258707,324,981,4724,260373859,13
377641,11341074,28200384,10662,28429458,11407,19668,422593,49883223,2742,42784192,523,2005,2609,123731462,13
43090,71921913,50592395,19286,50210007,17161,11619,358041,87682238,2411,81382565,126,859,2038,234947439,13
99526,87666221,59320290,79137,56523142,78037,75619,1063679,105105577,6967,90504741,420,1158,6009,279344355,13
82005,76047271,53699927,24107,53561090,22569,30625,435298,94272769,2581,87247063,325,1137,5951,250852110,13
49772,73490376,50832084,61930,50778207,52926,200228,619347,94187935,2723,81327403,128,805,2975,232874111,13
66145,72830599,49053225,23581,49481789,23456,34747,393415,88260411,2403,81122937,128,644,3369,233521518,13
49475,71089447,49762450,17995,50008908,24985,44116,529925,89536821,4066,81750236,128,1544,3964,233588987,13
70239,71901519,49999850,24308,49823323,22377,37369,378465,87558803,2479,80552107,127,870,2014,233379436,13
65366,70295119,50338327,17756,50185631,17048,11612,341695,87628472,2343,81467167,127,906,1822,234488553,13
101604,79630548,55105803,22826,55040807,22483,29576,446506,97055147,2692,89682434,322,968,4341,260262245,13
66307,69112578,50069453,19208,50142462,18575,12098,348778,87970814,2337,81969615,129,660,1567,232943291,13
57351,69820882,49983140,16408,49924378,17239,13154,349223,86784791,2285,82097772,128,670,4582,236027868,13
102890,74597172,50706132,22979,50933913,20861,27098,457637,90898331,2372,84311766,518,680,5133,243010477,13
59638,72124995,49740665,16856,49602784,15547,10978,338312,87257373,2365,80739995,129,743,1958,232481287,13
1396239,79333001,98229669,2545602,98966143,2434613,527089,3440682,227160188,16293,77236325,3659,6027,24347,450149342,14
2510719,124682698,171732570,18881536,174110189,19104267,296787,4896339,666119017,27190,110316476,4204,13277,29650,863784269,14
10894209,139038783,176519295,20910740,186600465,18715062,2584057,15439415,754094139,62554,133720704,8301,11112,27883,972564130,14
174305,89429697,124578684,13321988,124917833,13304928,24906,1878643,584972632,14323,89080403,136,3728,1275,528365550,14
73490,28397920,15008083,102258,14998223,102093,3576,240284,60607763,2726,33476048,135,1227,1125,101927303,14
191698,90235481,133682380,13432261,132959698,13489240,74646,2313851,602192293,17805,88544366,133,4363,1823,572254986,14
1396599,85724482,153313309,16114952,160371372,16022878,844595,5565741,613953990,27816,102143078,3621,7736,9275,663426316,14
16903002,93556829,174212360,18145642,183436742,17384300,1004799,17012706,711914606,43803,100302771,6285,30228,27037,814256798,14
7595909,140583850,152419527,6063047,158279214,6064915,4558133,20032169,1541203411,112069,135127984,4236,24998,15853,793623520,14
202787,86650732,126854434,13146634,126232914,13104110,58911,2220172,613566505,17635,86230479,134,5017,1384,491188183,14
17698534,151292632,231434821,19367498,238059755,19490709,2010580,10162165,834036451,56582,147017474,8302,16733,55778,1031364911,14
19085561,134958604,245915236,16870187,244799976,16608275,2577862,24058700,834387121,97037,141745954,9756,61822,108489,1045605606,14
12266068,122186689,173428385,16127527,176428072,16251967,1450477,12035380,674489433,36605,120914425,8299,13563,35278,946838175,14
285583,87641120,128372446,13441278,127769186,13345696,38439,2214818,631510835,15995,87756545,136,4807,2718,493079024,14
2256929,80847628,164050376,3194255,165538006,3620643,1496531,6132295,326549935,34642,90397964,2181,1932,1033,662584588,14
2890348,85174529,140899837,3456728,151103628,3283801,2823170,7219188,330303574,35437,95365141,4232,2508,1424,658337859,14
13670936,142194885,219887744,17101029,223386857,17212616,1800350,7979945,752238664,59003,137030626,8303,11503,31632,991403752,14
14947662,136317883,221165825,16136668,229238683,17320790,1606741,8401584,750355592,67597,135711039,8302,11713,32941,1004740326,14
1983109,62513620,25121321,110605,25074107,111253,875884,1440597,160071099,26938,58932823,8517,10968,39024,187130645,14
2549655,86026400,99937093,3027217,89915879,3069194,1251191,5086930,260386965,22366,79718953,7146,19260,47706,479988804,14
17864522,207528999,292417419,5727577,311627180,4938313,4128466,21662687,630299300,73614,230669821,10349,12996,48207,1297285483,14
13118393,98492330,181323608,15503665,180217908,15622196,1944463,13085580,636253827,36657,99126140,8295,11931,37667,799800770,14
1629520,71808996,171424846,16334588,165574212,16483485,402809,4023150,547782667,18871,74582173,1604,5765,9616,577041076,14
17539266,137221358,236968749,17009570,238279156,16881234,1925697,18360816,797341044,54217,148785837,8308,17025,47466,893973562,14
25836881,219434545,264662507,6830945,273503210,6592602,2379417,10016893,642800515,59329,246354932,10351,13892,51691,1418947611,14
20642276,104784498,229377046,19046584,233382051,18794417,2130647,18029581,746048511,50345,110003447,4229,9116,21329,982501859,14
231031,8341679,25902561,19460,27943377,17416,617244,1658608,45811235,6588,16343086,2306,3294,12811,16074891,14
21507092,157705313,261083120,18693627,245056551,18193427,2908315,10612169,826312164,47414,141201204,8300,14820,51067,1099254532,14
794743,26519825,16716656,74537,17104475,64144,592642,1532324,110906113,6621,34737398,2184,696,377,108160887,14
23398662,96300331,202087671,15885427,205485400,15427926,794035,14433656,724442269,22812,97003447,2184,6059,2935,865040489,14
1838869,121090677,208677376,17091787,208903352,16943652,161312,3653531,644868412,20383,111865067,3627,7069,19876,926134238,14
1556529,70350214,138678428,1151648,133008427,1250964,896934,2821956,234927940,15646,71584568,3345,3118,1911,508774692,14
1194285,63470301,28796469,290643,31172016,317750,1047023,3201958,175533477,22596,56820476,8302,29204,41132,198511295,14
9960924,143829590,171114860,4185359,162228525,4489978,3083650,9982838,432975951,43633,150188721,8301,9565,49182,819633031,14
3200102,77428808,192807000,15412359,186148209,15693791,1759012,8691788,687344667,48545,84624216,7142,14154,37515,623845947,14
20283636,78787445,156044135,3304268,158852443,3372923,2737284,16180587,364255275,43376,92055903,4230,3536,1653,603733311,14
24745490,110217446,212722137,18622686,218975028,18351833,487247,19129116,775417761,35221,108460991,4235,12569,35525,946926546,14
20641234,156266544,248023976,18824733,250223563,18014727,3244472,11304174,825837981,49333,142421043,8303,14614,43505,1196884147,14
1321603,80045986,155273660,21039391,159349055,20937932,209728,4345426,735406813,22705,72704956,2031,6515,14518,636185235,14
15117557,608785820,483975950,7171710,508077463,6531424,2476989,11804568,1003472790,52324,610498790,6284,9580,22946,2521845868,14
185129,86531340,127091012,13134615,126080481,13034466,74176,2380305,614111836,18172,86801310,136,4708,2529,490334758,14
22307419,161745008,231061493,19522372,236824178,19257134,2549882,10311797,823139518,49353,147503843,8295,14109,30595,1164018228,14
3048926,92256495,223480265,15727815,219295343,16206710,952788,5437367,657927909,33118,80951488,7145,14162,53565,756524803,14
13278247,127585645,151202307,5569674,146254641,5696957,1750066,8989282,410647865,37938,138046647,8302,10495,52367,763396663,14
13489955,151721305,204567805,3656601,198813609,4301347,3104600,9242810,462985335,43084,151941760,8295,10816,43314,896686641,14
2484462,66097538,104873148,2092452,106953889,1985446,1454126,4314831,242497634,20417,61491138,7171,24660,33029,447157802,14
1634544,144143874,207615906,3318057,215535540,3280741,609847,3278442,372806767,21543,153302297,3342,5438,6468,1015253392,14
2964664,76530413,136212120,12425724,141679321,12417240,5045223,7742065,708113545,89906,94495667,35216,40974,158307,537997379,14
16373451,195971293,249166258,17645357,258885956,16968313,3366383,11770182,801208791,62173,196094311,8296,12162,26807,1271393418,14
15845114,122478983,234804301,16306447,234708680,15160967,1289303,12283622,719898331,42706,130142121,8305,15124,50711,931886507,14
14735393,156716334,260029290,17263486,274321067,16997371,2889845,10666014,881207222,55951,160072416,8303,13658,40972,1246069905,14
198763,84961726,124184700,12923753,124462729,12900773,52536,2201481,600108857,16704,85556871,135,3878,1848,486686586,14
17286453,197194554,237433700,20444490,250705087,18042494,3511760,12104843,805822251,64235,202220224,8297,12641,28587,1250279295,14
188666,85960809,127350232,13138287,125856835,13050956,60794,2190746,615292923,17026,86181474,137,5276,2565,489586675,14
17516503,192306924,238288404,20945543,241591629,19168366,2252047,10187306,799856181,63165,197138193,8301,12512,27631,1218351006,14
188910,43301100,97256111,13273643,98316229,13365378,18408,1629059,485645539,12700,41433471,137,3433,1809,389060665,14
20593473,178471626,239778610,19378325,235755789,19530643,2546276,10425589,806063179,45455,167638014,8298,13863,36220,1252530047,14
97902,76071021,79827168,664311,79455520,648824,32882,755482,216055559,7446,78089779,136,2172,1360,401592280,14
15767628,149904640,248382396,18884867,262741715,17147158,3412526,11815209,798130925,63966,160051402,8297,13578,29569,1123427118,14
22432362,115567123,195814641,16587837,197960252,16821378,1783846,16667246,739224299,37416,120475749,8302,32065,32766,882629240,14
17001358,198295860,240067151,19219008,251922258,17548926,3437865,11822082,801916626,63299,198017193,8298,21141,30548,1274494669,14
14106598,152900641,196647099,3934167,199188500,4216412,3247189,9447140,443424236,42504,153784426,8299,9758,46789,880743719,14
18796412,169399229,247022475,16777033,244838660,16750424,3772878,11915854,832566186,67635,162423399,8300,22525,26604,1104904429,14
14964822,187969314,308041163,18845685,284258493,17995671,3237059,10840908,762528694,66986,194103585,8302,23570,33968,1074299525,14
144968,40615374,124057905,12968587,124152267,13005337,23147,1593226,494810313,12298,40761380,134,3517,1443,394531477,14
17089637,102972622,128959530,3706068,119549508,4050028,1695599,10319637,320895315,25824,113257879,8302,11715,55203,682666396,14
10109827,120672546,142598245,5104760,142116931,5285369,1455011,7976880,398822425,39400,131900285,8300,10170,51737,640294694,14
2691949,81858542,106585548,3675792,94801138,3679492,1383348,5462297,280271955,27237,95393188,4202,3283,2849,459754384,14
13250160,187527499,281107463,18656658,273881056,18195213,1836737,9931334,855987135,68111,196127577,8298,18941,41998,1225126209,14
12015972,130769284,267108057,18277041,269639199,18228688,1025738,8695257,860063098,54511,155740874,8302,15673,37070,981205184,14
654398,62015757,80998085,1434722,84100190,2033375,415271,1918379,182844352,6821,61403941,1737,1075,569,428145745,14
20294858,148409412,217716228,17055464,220669271,16437277,1376046,17006024,735429934,41470,140631523,8307,14365,38812,1115119297,14
161991,90318707,103521095,11362846,103110991,12121389,1609774,3331429,521659596,22655,88120115,4265,3203,1609,567700045,14
14083907,142881589,196365777,5134539,196791664,5365869,2153270,9210167,463983049,41996,157549909,8303,11637,56834,835663064,14
14998622,140370501,200931921,4638865,178585569,5081046,2771184,9635976,441390364,40390,146833614,8303,10248,50983,832666743,14
12345892,205334350,289543217,25908865,282857741,26248934,2978146,12448116,998282739,60461,190331692,10349,17349,42767,1232798582,14
145585,40090491,96738919,12842635,96657004,12843498,31114,1748611,452446892,13343,38989627,133,3613,2232,318263262,14
19489441,152766028,251644866,19490955,248693909,18444796,3589617,11653360,831022164,67257,143138155,8301,14729,36507,1171656533,14
5052766,102672070,138735120,13576967,138566105,13435199,1837851,4038020,654717707,65160,94439791,20356,25270,84344,559302241,14
18503249,174200216,304987177,18562402,299818913,17378418,2989313,10318953,843891102,59366,167909326,8302,20523,28656,1268549991,14
534209,133026321,67970677,2683865,69748822,2682094,215038,2045647,198673480,10258,104739152,526,3912,5615,408249674,15
4930897,106442660,132604035,2783225,131073079,2760886,2756564,12081825,483606765,411969,116315103,3259,7314,26764,493051154,15
533012,89000528,83653217,1246555,89151870,949052,139387,1429190,192783541,8268,135812443,525,1821,2751,343894096,15
1198088,97438987,86524726,1291085,93788015,978149,256255,2067704,198430877,12089,143419361,1944,7354,9786,361447874,15
627739,100146275,81049989,1416611,84799818,1076079,171139,1571461,191976919,11055,139849521,1041,6336,6296,364794790,15
648518,14670851,20268637,1831603,25153252,1385889,293444,2078557,84568976,9296,20607770,520,1957,2304,114172351,15
1047070,113333336,93704962,932988,96054514,717766,188453,1834840,195962186,8304,143605091,916,1844,3070,388990144,15
1191533,96492345,84855913,1417701,90140028,1083862,216456,1901536,196132555,11562,142672233,1946,5226,10140,360626106,15
532844,398900531,290809140,1137385,277217370,1674009,127540,2276464,495662320,12977,403268037,519,4144,17059,1176313785,15
1577421,102495785,96041619,1593832,96898894,1335149,415748,3345108,209625296,16670,139510764,1695,3374,3095,426289150,15
612590,417133559,294509116,1375436,286141671,1759855,172806,2512138,509533619,14694,422754239,520,4623,16376,1258707982,15
577963,84915978,113721614,1421162,114419422,1222124,194099,1587374,206440758,10219,113392700,523,7527,5499,442196763,15
627972,93052537,83199230,1422204,87817826,1075788,204427,1736556,198599281,11056,137533975,1041,3917,5752,352036124,15
563189,114256530,79704611,2040439,82002836,1904141,185043,2114852,210956012,12155,133436153,2213,4163,7702,428235757,15
580746,83999515,90922813,336577,94565747,259814,150247,1343965,186932182,5532,131677507,525,1667,3042,328369159,15
983119,425435166,281934097,1397618,285191364,1329051,297482,3302621,518334143,17770,445022821,909,6739,12749,1235059739,15
669721,107880180,87867745,1498330,91155572,1197036,207402,1742767,204582760,10190,140843560,1043,5044,6541,403122971,15
520295,97984355,87714543,1682828,90169528,1481078,139879,1456396,203477518,8499,137090073,525,2271,2410,407282156,15
588456,395071645,291555261,738670,290584551,976964,167346,2280654,509448486,14376,423115141,519,4227,16899,1176690378,15
1181691,84688311,97607486,107953,99809246,104940,247221,1698258,186500965,6343,129740660,916,1732,1902,319717745,15
639673,96712548,85805093,1202034,88390323,910705,162587,1543833,193413638,10544,141921056,1041,4613,7816,365203670,15
582746,70763507,116288822,430941,119613645,328893,188980,1397648,182893461,6790,107558975,525,4287,7055,385196422,15
584640,72430104,114217805,668929,118961418,504305,176994,1391102,189992166,7480,107928780,523,3309,4703,391637636,15
574077,409849450,286793220,1357402,274870811,1971459,131132,2452866,490582804,13701,401643717,521,4385,13314,1180024948,15
1148551,83728097,96965124,293630,99368173,226486,267639,1696903,186209572,6047,133182002,917,4098,3647,328091031,15
5639894,447037124,295175296,1385448,296291550,1367267,1969639,13933467,720628336,263989,462372039,2472,17389,39969,1345521014,15
536339,399991976,291610228,969328,279324359,1556713,135148,2355857,495896276,13470,406453995,518,4119,16295,1181911253,15
590266,80766407,94027393,620041,96560578,457933,184223,1402672,188828058,5366,131421325,526,1696,2714,326624891,15
643423,101517232,84789893,1217556,88034950,920878,175701,1552183,192344901,10985,142026925,1041,4531,8309,384542357,15
665821,93526632,94083915,362554,95871184,274806,177144,1489991,185913276,7824,137648974,1041,4353,4616,343176100,15
1036294,88877037,91435627,900268,93433679,684702,213592,1817677,189509898,8939,138809888,916,1888,3006,344795793,15
5540681,433674292,289555761,1367419,287993943,1348860,1885430,13109716,712063953,255437,451252840,2473,14271,37636,1296554722,15
1559042,386295852,282849611,693488,286413979,690015,210366,2496391,509874864,17520,435376904,1938,11610,21006,1166444685,15
663570,89814156,90538241,514329,93580815,386232,195994,1524820,186958055,9104,136663155,1041,4737,7807,338899252,15
853490,407443484,295905621,856661,287404773,1393350,220773,2593462,509613880,16512,419806453,912,6846,21706,1261397727,15
668822,94111678,82574906,1557829,87991685,1161128,167534,1589686,199182270,10798,139733995,1041,4577,4787,359856234,15
565656,88931587,90811849,554651,94246242,416421,187658,1424301,188597782,5514,135913956,524,2753,2588,336441907,15
1042931,87026449,91235934,763740,95159472,568352,224307,1789528,184425776,6725,139915363,914,1839,2936,337561650,15
1039865,114073811,91689195,1075653,97183982,823708,217131,1837466,195319483,8627,146035554,915,1846,2473,388338663,15
609489,82453967,92544193,217921,95689014,175502,157881,1310282,186900209,5367,130069113,525,1706,1568,324146881,15
1542725,123623974,117056328,2549111,134079920,2430524,774457,5011400,312332299,10528,182178468,1698,3464,3884,500987168,15
1079427,122136570,85795231,1822803,88531221,1671758,229895,2131614,203277509,11914,145076560,1944,9459,12974,425281082,15
1146551,86761908,97258976,105095,99082375,92972,256998,1497364,184883591,5321,129706605,915,2588,3358,315952706,15
894237,447041290,279256404,1722119,279457503,1768846,269895,3320233,527108771,16835,452237923,911,4760,10925,1300047076,15
519342,416542441,293095641,1186522,282683302,1618057,106547,2301067,503138964,13918,421908899,519,5017,16099,1242270392,15
6661989,916370032,714221845,2316801,710893596,2323595,2703283,14464528,1153638349,107960,960228910,4357,14254,33623,3092885583,15
641789,93468051,87519943,894526,92005773,666908,171757,1549335,190498787,9796,140624772,1041,4468,6657,345802847,15
1096533,112963915,96151702,1022066,99061942,785800,187099,1796305,196887876,7869,143515932,914,1827,2879,377011004,15
1016995,102211199,95627219,1495849,96730232,1316277,193165,1829927,204552420,7982,141325931,914,2384,2894,385854635,15
2301494,428870681,290661209,744283,290972235,771646,216470,2718762,507472808,15120,434199073,913,15924,44889,1295179453,15
650275,108497166,93021995,1607554,94387536,1494433,104778,1515170,209158211,9979,139080604,1042,5834,6585,416258600,15
1964737,154348788,109107373,5065036,111870449,4868855,252758,2623391,315713005,14322,166145673,1696,12048,10708,576703875,15
589480,90417752,85228779,1346821,92908465,1002272,142474,1406970,197305172,8790,138545500,526,2807,2267,351556582,15
675722,93430566,107940200,1584317,110651254,1251786,168460,1506336,201889085,10515,118683729,1040,5417,8398,475256543,15
1172666,82981441,97798903,94206,99596509,86166,225108,1347835,184838649,5390,127999926,915,1705,3031,317176761,15
4421204,159011718,102168450,1306102,102990121,1359118,3894082,12807317,287971528,89363,158942937,2869,3334,4879,577857422,15
750033,411260852,297797507,656782,291397664,1269301,125874,2544295,508890398,16708,426031776,1034,9304,21635,1227529960,15
596753,97926925,94117675,1516641,94576736,1281694,187893,1538413,204321926,8935,135969388,527,3018,4400,378473778,15
748833,398034068,288920609,694679,281205306,1534840,122401,2563563,491602676,15660,403781744,1034,10024,16317,1160988877,15
1546960,416724223,279907250,2181574,284354177,1769953,274118,3137598,526214553,20121,455500193,1938,12958,39393,1259460325,15
594358,98645432,90431180,1247566,93186523,924516,142215,1430681,199542230,8055,135919374,524,1852,2539,377937501,15
655934,83490935,91228753,101458,93497555,90650,213665,1238930,184700286,5724,125966231,523,2888,4309,307171103,15
590895,82521870,89490336,902347,93353211,684276,166990,1479518,194262041,7948,131679545,527,2801,3521,326817080,15
635107,80814468,100701229,119329,100658100,107348,183934,1339754,187975321,5371,126889883,528,1681,2416,317149930,15
669971,80509151,93695318,106968,95454507,96522,200126,1251023,186179174,6534,123212145,524,2688,3022,304110763,15
674166,108538297,87490682,1563435,88624802,1399100,153150,1560279,204243860,10348,141306432,1043,6057,5623,403316305,15
1147517,94984826,88336681,1269169,91379191,971000,223586,2016057,195420359,10948,139465441,1945,8622,11653,353192783,15
795594,100726023,91769083,1734868,94936246,1239370,217044,3060567,201045895,8051,141095956,915,2037,2617,423067203,15
1213358,83453437,100145161,74501,100196375,74202,152003,1075135,180905582,5247,128733345,916,1627,2605,318412899,15
597797,92328803,106929256,1606388,109193636,1421023,152716,1515070,205498948,10834,117230930,1039,6681,10208,475382980,15
748978,105815712,84591772,1821562,86227193,1639769,187941,1730703,199600469,8752,138972269,720,4456,6981,416553227,15
1122217,101105362,93407312,1077990,98004222,814980,216387,1823721,198780564,8855,136678036,916,1805,2688,371896912,15
709108,412508843,295116724,579015,289935964,1250998,125558,2518112,503185792,16381,424566800,1035,9318,21648,1231606438,15
719261,411989320,304664290,878111,293100726,1485220,135806,2998019,504837658,16966,421756744,1039,9122,17479,1233762843,15
580507,98298695,89608871,1566068,94854462,1168972,176425,1528476,202368927,8036,141150575,525,1765,1721,389039718,15
534366,106356106,85410379,1667775,87528699,1468481,134047,1448952,197003754,8155,140201391,526,2618,3165,402980843,15
1081043,395503041,291730376,718996,291250583,727784,249495,2535413,507744095,13412,430798322,909,3985,13745,1175946863,15
731142,100022632,118355190,375681,121460825,284438,145545,1346262,206400448,8062,145801452,525,3172,2532,383187156,15
532829,90481261,83529410,1364270,90376564,1043861,157629,1447656,195681363,7994,141157947,525,2667,3283,352140055,15
559594,400415962,291870659,649009,283557214,1349425,115058,2171113,494626290,13573,410679345,518,4401,18726,1178909109,15
514457,313611923,199499123,1088211,201506837,1091241,396001,2798633,535774734,22965,306151311,2087,7712,14727,1591966180,16
388456,300298455,207667643,1125848,207579636,1125051,183420,1993499,548954690,19791,306115105,2081,6582,7007,1435074592,16
321188,205700824,310559539,1631016,310863386,1646036,219160,1986726,503197936,24749,209357843,4047,7202,33207,1046325951,16
21151768,413988955,355885452,461124,352578834,463463,27433844,40319874,1172838414,752244,418396077,98766,108330,483035,2131920627,16
284384,303980524,208613765,1119060,208541521,1117897,74729,2017944,558005838,15623,309741834,1107,4906,2573,1342750800,16
363848,308928303,211780707,1111545,212810612,1120657,501748,3017582,555204514,16613,315918611,2081,4478,2672,1472511327,16
271827,209522881,213256145,1115972,214849807,1119212,274220,1881624,370016335,12110,212211484,2085,3538,1786,1502826457,16
314372,308796629,208317553,1139691,207725012,1137821,336196,2612406,603700679,19632,311312732,2088,3775,1695,1364832444,16
316759,304373210,207840178,1116388,207797570,1115086,61796,2010915,560318247,14544,308568023,1111,4513,2726,1337367363,16
340622,307773179,212284487,1138835,212261096,1131371,285390,2430591,530638478,17845,311005319,2084,3789,2213,1471436575,16
371689,308387878,207294676,1119442,209139380,1124232,363333,2529755,546610045,15412,312067623,2084,4564,2667,1466413761,16
13456059,210809100,210854684,72675,202408400,68425,7248325,28082989,347487213,201818,208338576,2086,2257,1274,1294777420,16
397446,329653792,200626526,1001208,201163575,1000796,1119720,2429664,398882947,19453,316263684,5994,4440,2872,1578587923,16
459277,315935600,514413224,1326266,520628993,1333899,441331,2588329,560163744,15614,324417569,2519,4029,2901,1794043374,16
362209,309407438,310676983,1133513,313359194,1139861,544908,3287544,572587494,19152,315051665,2085,3555,1494,1687151168,16
340840,320258149,205262190,1089395,205226756,1085356,1141413,4030513,610330206,41857,312246531,4042,4377,2466,1304387108,16
359877,321065471,381611036,1250182,402868501,1290667,575635,2269248,379606654,11457,332901369,2521,3159,2240,1514937903,16
362356,301461630,514152514,1131368,514453918,1127422,126522,2283461,634037681,16696,307197408,1112,5067,2471,2344814558,16
314045,214359136,203569934,1079226,210633936,1100286,373573,1816075,291457364,10456,215727354,2082,3035,1965,1078754817,16
449879,1016280974,607341202,1380786,606690963,1376363,372869,3885920,1006403935,29109,1020003742,2804,7485,20816,3584806926,16
278793,300640114,206381274,1111111,205184924,1110810,169971,2127520,527086026,17981,304190129,1110,4218,5652,1538058984,16
290582,303721651,206091370,1108107,207142569,1111246,56620,2013691,541024575,14368,309901918,1111,4682,2852,1545835728,16
262387,212285702,312993295,1086229,318517084,1086911,757793,2865787,376355461,13590,213346911,2082,3134,936,1632306272,16
362606,308110267,211370619,1141129,211479067,1140680,128986,2322197,590100042,15192,314074964,2086,3484,1828,1264449683,16
257719,314730364,216326120,1121368,216963956,1124565,298539,1920181,369605249,14686,316643454,2089,3640,1111,1511647847,16
906609,910902422,617547643,1401790,617359233,1401037,393758,4313853,1117312142,34136,917523640,6427,12224,54264,3270477754,16
53205645,476600986,394511457,156999,400426332,158503,40087690,109517876,860061921,430963,460377392,5997,15515,11001,1984187190,16
713843,1622147328,599390966,1413764,607400225,1417055,729471,5406535,1281267199,39204,1633759293,2956,9635,6228,4611347688,16
267863,302002008,206340296,1122652,205968369,1120801,193178,2225403,528309236,18215,304359686,1110,4540,6090,1543398955,16
417428,305029992,211188091,1128997,210801689,1129429,150240,2141627,544500565,15401,309813843,2084,4416,2361,1458002946,16
256769,302212818,206225990,1106410,206122617,1104274,147417,2068511,526466691,17108,304131475,1109,6500,5314,1539226802,16
352726,409784362,206013160,1148957,207237710,1147466,310237,2918872,675344438,18312,413660102,2087,4441,2150,1355082912,16
250183,311742335,214736096,1118528,216115873,1122602,181217,1792878,374600065,13534,318306462,2118,3431,1767,1487569236,16
354354,307782723,209107488,1142799,209642846,1141423,195411,2385213,589205814,16966,313313707,2084,4224,2061,1262243772,16
304321,308812218,211661916,1132042,211451802,1130923,247826,2364098,534618967,17741,310623306,2088,5019,2218,1462953723,16
398736,305955585,419106136,1129868,419208890,1128342,142089,2130757,559122743,15313,313472315,2082,4134,2190,1763451129,16
393157,303877822,208422061,1129458,208357225,1128592,214370,2674405,569536594,20881,310160291,1107,10024,4940,1346098222,16
345323,206600195,316450621,1535399,317612157,1537606,175417,1937446,481876394,11955,210553096,2083,3005,1918,1469119869,16
13769203,213575705,211984295,64049,212492909,61358,7155330,28220980,331512356,169845,209686101,2087,1944,1202,1205056952,16
267966,310503104,405815780,1128259,414169944,1137686,665875,2892297,428784757,11130,318381564,2083,2538,1480,1815742936,16
228191,305731152,311484958,1114936,311631307,1122820,156442,2113374,529279660,16509,308098780,1110,3376,1283,1764689577,16
446166,309735657,318167489,1138882,318339042,1157248,509213,2792604,546105265,17604,313501628,2086,4874,2657,1570366823,16
366023,308669969,311237116,1126136,314353312,1131313,513064,3181817,566621188,16511,316048496,2079,3650,1974,1477066866,16
241031,306818326,210820119,1130282,210299919,1124553,116791,2171141,528107778,15009,308376809,1108,3274,1500,1567343545,16
283775,302394161,209686539,1127234,209292641,1126135,55666,2035297,551518358,14167,310714728,1108,4796,2724,1340760780,16
494302,1136681329,595246499,1327907,593763745,1339953,1315379,5240013,1016893481,40380,1122452781,4618,7460,4100,3671849074,16
28104866,569441942,304879707,476894,302022635,476417,29243713,55576957,1263742980,315501,549654620,98954,109748,399454,2198462595,16
338096,302030187,207645956,1114434,207760071,1114745,211133,2279337,537863146,20704,306272048,2089,6484,10093,1535036911,16
321740,307418179,211721080,1136653,211898299,1135857,154273,2232891,589359921,16670,313595905,2090,3800,1662,1262998496,16
20576349,410389748,353942711,506552,353787820,509257,26830470,41995524,1517448163,766236,407478724,98764,206522,354234,2278731261,16
13669367,213070135,184027784,90506,193409791,79976,7372105,27815772,348327885,174820,216263693,2089,2048,1090,1312824839,16
366260,306445785,316686913,1138207,316490268,1137112,207904,2320616,559432610,17084,313373105,2094,5444,3003,1461884132,16
330054,215890885,528847034,1334739,528461375,1333311,128734,1900881,478061561,13130,220754464,1827,4007,3113,1695720420,16
336531,410945095,208790868,1153117,209130379,1150703,267386,2679200,666930889,19233,414642647,2087,4012,1668,1461139825,16
363080,307855473,210515632,1146409,210473703,1141443,254525,2497164,587963611,17413,312427687,2094,4268,1946,1258796854,16
6642393,308652828,565118286,714938,592412821,500610,69328,14693193,389285515,10222,315454599,1109,4019,2086,1976897480,16
302679,304106813,310202019,1130567,310471845,1129221,62516,2327732,648942538,17169,308878113,1107,4324,2134,2049254154,16
279027,304766835,204341643,1132135,205578596,1126658,162814,2397468,597537984,17796,308723743,1111,3499,1618,1344554753,16
353039,305654053,207832881,1121218,207813949,1121633,180733,2175575,537429149,20346,306115183,2082,6510,12109,1435715983,16
275672,315656822,313758195,1329579,314009395,1336586,181776,2389683,579547920,17300,318256223,1537,3851,2228,1580698947,16
276432,303427877,208505183,1120550,208539446,1120608,64747,2055346,560685021,14370,309417759,1103,3596,2502,1338498414,16
372099,308148272,213074881,1216014,213407020,1208094,238175,3094312,581158405,19850,315089196,2086,3438,1796,1262593156,16
14639376,437131064,302352202,339470,302936691,345328,12760098,27124072,1124159718,210045,446755545,98765,105511,475262,2279235341,16
280372,303546539,208912211,1119088,208416016,1123029,87978,2009445,550254806,14354,309172313,1112,4715,2246,1339190180,16
14462344,342363848,405050881,484687,404923219,523497,12641575,27378485,1151605456,215037,344886780,98762,106706,438901,1892262681,16
310469,304969556,310156968,1134375,309916658,1131810,75477,2393033,663366965,17495,308086817,1110,4798,2641,1546618225,16
311008,309205060,211019468,1144297,210802294,1139727,191785,2293429,587784799,14650,312661547,2087,3460,1905,1260264951,16
318973,310738862,209712079,1127533,210501914,1133109,543997,3506950,596082934,17441,314556589,2080,4046,2362,1265997997,16
273471,304916078,210196266,1115648,210228333,1117418,145794,2060601,529202271,15262,309293936,1103,3467,1438,1566244032,16
598381,1221840395,698256113,1424378,702654939,1425949,874501,5984030,1415912123,39114,1224397338,2808,8282,4857,4204785250,16
242902,198579687,210569200,1080651,210539852,1079697,89346,1121355,302134167,13734,205177352,2088,4751,17121,1031422180,16
309501,314735667,214997338,1118898,216064910,1116824,297412,1821220,367090462,12941,317704054,2087,3093,1180,1405543778,16
288854,300878660,315311177,5411278,314185597,5450185,50519,1719297,463354027,15363,306961783,1104,5094,2485,1153488224,16
393696,1014944418,613998184,1369979,613759714,1371031,115681,3506533,992412844,26066,1023699641,1545,6275,3183,3171644272,16
409804,1111166415,512074313,1203157,511982678,1194784,149471,3906302,1078472267,28374,1120702662,1305,7182,4431,3880659513,16
295279,304862459,207633206,1112113,207757732,1113415,75599,1995333,539314112,15665,307029255,1110,4157,2622,1541895287,16
302883,401785943,207328345,1116876,207084822,1117541,71735,2006459,567783133,14193,411134997,1111,3797,1718,1332013680,16
286395,300789187,205732648,1111963,206082101,1110819,101960,1974283,550516319,16393,306353702,1110,4990,6463,1325765142,16
370063,320016042,509403175,2466894,513174482,2492090,1030565,3744252,620925419,19329,318667646,2519,4556,2821,1806719541,16
252790,303726130,416158584,1461830,416217032,1459476,51089,1634193,423356539,11142,311441954,1106,2515,1335,1569437723,16
713474,309308686,206053371,1269956,206504972,1275798,210071,5589812,1540520965,53249,308228004,4040,23871,36545,1855076516,17
1070126,1118819146,802341219,1507479,802438083,1507955,581368,7031543,1747874827,54355,1111591994,2810,21184,20464,6394811032,17
448087,305084772,207281806,1248469,207113374,1245332,154189,4805887,1412180826,35910,305596914,1111,8378,2624,1840483104,17
559351,305727853,205977832,1253958,205893378,1246848,203691,5040779,1411513261,43000,305434997,2084,15887,20211,2032747810,17
1906493,433949616,217364631,1644363,220449116,1800561,1508389,11073905,1515215144,79494,427754503,2619,53895,66498,1932240815,17
505070,207375621,207091928,1230437,207140728,1233213,257642,4484152,1242792392,33089,207102362,2090,7940,2379,1751403058,17
701693,311402084,207296061,1267276,207685841,1271181,775426,6008211,1543695690,48775,309581361,4044,10081,4011,2068930891,17
606290,307690703,207741832,1277841,207085455,1276314,401171,5828691,1573663787,44409,307286536,2083,9843,4538,1846754296,17
665817,209881971,207674763,1234894,208146120,1235766,405581,5034909,1308961448,33141,206426831,2086,9444,4602,2982888863,17
739312,308726571,207187299,1290580,207172826,1283570,294925,5641003,1537421802,40068,307116084,2088,11080,5584,1948564924,17
544403,1013203114,609430018,1447876,610788973,1453808,276850,5406580,1483353109,38646,1018157826,1689,9450,5333,4179242556,17
317337,310705994,204374495,1108736,207290690,1117799,425863,2652215,584481895,15951,314652454,2081,3975,1609,1790510147,17
363040,305440935,208193992,1142175,208079768,1138475,190261,2359133,662288228,27569,308556030,4035,16633,32756,1344297388,17
310621,303538157,209400018,1133025,209379445,1132254,68510,2360762,665419299,16867,308449384,1108,4772,2117,2058908846,17
794695,1420483994,705383505,1516158,708840138,1515283,692455,7571806,2000893413,52524,1421964024,3014,13490,6383,6929234254,17
545597,306084009,207682985,1300546,207050051,1281213,378668,5334102,1418246767,39837,305739154,2078,15234,18258,2034771165,17
583735,208889847,207522696,1238300,207816941,1234124,403936,5007501,1287425030,33732,207092884,2081,9348,4608,2765828699,17
972280,308114585,207861564,1490221,208626403,1498797,311056,10089989,2969714339,75935,307522358,1108,20324,9913,3842100807,17
698583,307743773,207589727,1286912,207488480,1285092,273076,5473393,1542505994,50418,307590264,4038,21898,34773,1840980524,17
540114,306279466,206656017,1241223,206678647,1242233,138384,4912866,1434792921,39992,305686999,1108,10474,3740,2641794199,17
526400,207161329,207232258,1244883,207877860,1239601,575917,5415529,1255879086,35945,207168486,2081,8821,3644,2061713081,17
646120,307508328,206851462,1258269,206866517,1256595,195245,5183870,1525838968,38921,307532359,2094,11191,3968,2045025539,17
378416,303944929,208419297,1136841,208321123,1135120,72939,2386597,651443414,17292,309072628,1111,4038,1801,2166785792,17
3022155,1049829740,624707368,1357298,625563077,1348451,3957269,11519795,1734549297,82280,1039647005,17710,29658,110465,4293274485,17
433224,302909998,207638656,1135677,207648504,1134927,190836,2325619,626345020,27034,306414198,4034,16751,32819,2036454780,17
662407,618940287,399542651,2145122,402898238,2183087,955785,5161397,1229615879,39712,617638877,4038,8940,4119,4155626341,17
584534,222209523,398834537,1321825,400904388,1323226,1460179,6335656,1334489657,48431,222404041,4759,8818,4135,3668751521,17
462934,305657104,206518394,1240713,206750762,1242601,299355,5015428,1411046720,35657,306107905,1111,8837,2858,1838603839,17
544769,305580896,206066822,1249869,206012260,1246441,119935,4913178,1463141590,36235,305749199,1111,9419,2778,1834743042,17
2890396,244016570,337698161,1498801,335524292,1508322,3807167,10041066,1415624123,74087,246273545,17705,252776,96694,2404877154,17
633540,1223250552,591253088,1419100,600540806,1422736,952938,5918006,1411990783,40377,1230329490,2955,8451,4309,4121316338,17
473414,305620466,310800989,1244806,310582251,1243119,189066,5382010,1436522362,38056,306547777,1109,10852,4680,2855541913,17
634862,307154409,206687192,1255895,206703864,1254232,231840,5251959,1530870080,38967,307342436,2088,11137,4217,1843877051,17
567097,208704674,209217351,1254006,208903287,1245965,362372,4814105,1252011915,43019,207824459,4037,20159,35113,1956172990,17
372810,701218977,206729176,1143464,206898950,1143796,64063,2701189,801042049,19633,715692119,1107,7113,2975,2547400970,17
486977,306359432,206361535,1265770,206100501,1256421,247597,5096482,1409902318,34686,305383999,1104,8637,3915,1836928796,17
904875,209577187,209293300,1447110,208493753,1430679,686851,9321564,2437985681,67307,206517480,2082,18553,7835,3857248046,17
698780,308076098,208137520,1285561,208380100,1280528,281809,5455536,1537690886,51481,307912803,4038,22140,35158,2045289367,17
779228,309556108,207396076,1269116,207368396,1268120,214503,5172868,1534851177,50383,308204936,4040,29801,35129,2049639267,17
666742,307842026,207456810,1279271,207298230,1271872,247347,5435451,1540933106,50283,307080356,4037,21760,35723,1941513583,17
653125,307535238,206554912,1261588,206640760,1257926,279069,5285397,1530145088,41538,307192368,2088,11285,4402,2043099746,17
576535,306623989,207725380,1285996,207195529,1283560,423682,5860418,1576261011,43097,307030482,2089,10044,4652,1845578803,17
493629,305355527,206468272,1285270,206559703,1279602,216340,5299088,1466438545,39128,305878176,1111,9359,4357,2037780810,17
519396,304826505,206292135,1254431,206195378,1247883,214177,4880783,1414731118,43246,305656954,2085,10223,18558,1834092257,17
643339,1114252311,805152406,1492942,808709408,1499223,489055,6712374,1827366211,46979,1119571771,1834,11548,5777,4278082320,17
976250,309904074,208558574,1477142,208504499,1468010,517631,10258672,2767379692,72624,308066787,2086,19827,9463,3958393736,17
479059,305753007,205973298,1266672,206041575,1269536,266025,5131103,1412453651,35363,305794114,1111,9448,2931,2040695456,17
695358,308437526,207723696,1283876,207887679,1275418,457054,5861693,1533107117,40152,307674915,2089,11038,5658,2051714830,17
515439,306775947,206229074,1259706,206162514,1254405,209931,5108593,1414839911,37317,306911744,1106,9152,4393,1839918653,17
485141,305922036,204536842,1226888,204983321,1231545,183992,4955035,1410273289,38138,306132055,1107,10901,3324,1841930717,17
1026533,313608444,207025876,1266926,207088685,1271063,295164,5583407,1533541206,41224,308220350,2226,20862,16798,1869085001,17
749076,1004939710,710295011,1434933,710470983,1430873,306481,4917623,1377572191,36907,1015258625,3153,12019,21639,4354165409,17
667904,308577633,207822182,1280468,208537166,1276012,509753,6099379,1542225678,41935,308439479,2081,12668,4348,1951378908,17
735138,308067367,207184802,1267749,207360958,1266730,226478,5272217,1546616048,50473,307730537,4034,22869,34109,1938757041,17
609591,307824982,206056023,1266284,205958709,1260345,498871,5692054,1527006260,39314,307232062,2086,10246,3674,2047095101,17
428911,313174613,411403974,1459061,411193562,1447338,184748,4125397,1146829459,29187,313394544,1542,7340,4207,2061273138,17
461039,206660053,207212048,1245712,207128764,1238913,176272,4745591,1333562740,34316,205867483,1110,8950,3094,2045512993,17
472982,305265428,207840558,1282728,207945530,1289453,209831,5336609,1417221346,37852,306052101,1106,9109,4302,1839449760,17
481686,407587121,206228172,1248269,205740539,1248365,194670,5087663,1417137221,37673,407655595,1106,9110,2793,1837564697,17
697365,307989257,207449956,1275705,207862579,1285764,366550,5584217,1547833494,50936,308206677,4035,14213,35352,1943912596,17
536595,306178035,205803657,1253271,205779817,1247511,193208,5023141,1410473987,43506,305474731,2086,11020,19372,2037212184,17
570173,210790176,207154545,1202332,207280253,1222612,862953,5268088,1248417732,39398,208786796,4040,8055,3392,1977173316,17
687824,307876459,206686715,1259215,206771345,1262390,224728,5423697,1529963670,40056,307211322,2086,11445,5583,2045599787,17
902532,319858385,206084965,1251518,206396165,1283527,203589,5315592,1468915386,45389,306186557,2084,23422,36094,2053570119,17
354508,309464660,211595689,1143137,211748179,1145319,268744,2684736,612478457,20225,311229435,2082,5449,2267,2088736386,17
654880,307975681,207996909,1275394,207935949,1271658,253812,5529487,1535220010,40122,306893260,2087,11027,5677,1843810808,17
742162,308358078,207263294,1267946,207270612,1267553,210393,5572027,1548333076,51150,308496207,4039,17290,35801,1845657580,17
775838,1029205675,507172630,1457304,507430440,1456559,908522,7850159,1698949058,55955,1016587174,4714,12638,12804,4321903262,17
728338,306997181,206229950,1258139,206315902,1257004,210903,5224295,1527327232,42575,306810904,2089,17836,8285,1836716052,17
493507,306008509,207598013,1251062,207463543,1247613,216755,5148247,1416054854,37425,306286557,1108,10233,4348,2046710943,17
699591,307854972,207417298,1269379,207315207,1270985,212081,5371745,1542170275,50262,307325772,4037,23679,34812,1941497409,17
464929,403783695,434115900,1267472,437696467,1267702,501015,3515021,832601279,23542,407996717,2521,5139,2718,2708079668,17
527163,215140976,413477272,1425235,413145761,1418660,348200,4727048,1188494365,34477,215019758,1687,9086,5247,2979547748,17
482543,407720971,205544388,1250555,205709840,1251408,178322,5110474,1419213386,38773,407981559,1112,9145,4245,2040563694,17
620887,306206659,206443233,1317259,206063149,1312987,366682,5822446,1633056532,47134,306502551,2085,13068,19470,2232039209,17
267329,208297091,216521313,1114106,212144997,1123607,292129,1858467,360693768,13478,212832110,2085,2342,1036,876395608,17
298913,303122491,307432398,1130954,307793109,1131793,103960,2383979,668486475,22438,306968509,2084,6355,17837,2247357700,17
666802,307489448,206638634,1260911,206713622,1260143,195903,5298881,1525533050,38459,307333297,2089,10868,5616,2043974197,17
474617,207104773,206344735,1206428,206414173,1203971,108706,3904249,1127268640,28023,206933134,1108,7919,3439,1839868773,17
723655,308077110,207245279,1266289,207239103,1265463,205198,5177863,1541288697,50062,307718987,4035,22460,34731,1943116006,17
13373889,210291215,201759516,118680,202910394,119018,8198569,29270719,546345858,208665,201750627,2084,6936,6008,1872466158,18
12815749,205253572,207159428,92922,210888297,89781,7828693,30170062,546662249,204678,201513806,2085,4314,2368,1805691870,18
6690018,207519855,203819997,78982,198193989,79142,157312,15495910,475644741,12856,202070985,1107,3934,2575,1902239634,18
20747272,505677459,558196588,683423,558996468,697918,28274163,45083378,2261393693,807340,509419832,98762,113920,305347,5270974137,18
13332650,213215460,108208969,113186,108548979,103940,8008783,28734749,512914487,203407,198620540,2088,5292,2584,1455634140,18
13328658,211661840,106922883,97068,107935028,93644,7975175,29288429,509709890,195635,199497116,2086,3025,1713,1672482073,18
28199349,577089757,298345034,460821,300139460,476529,28117591,55183147,1431949211,318626,571174490,99784,111214,279724,2700624580,18
6818497,212377632,206833815,93439,195676875,85457,276036,14522790,437352441,13279,199220870,1104,2618,1258,1831764480,18
13530379,214977555,189177856,117498,188444595,115636,7584080,28218080,573788307,202541,199856234,2083,7075,13189,1997502554,18
13674761,214950197,29927799,74479,29463904,69754,7003580,26597984,317947867,202078,213134670,4040,2940,2136,902987608,18
6748827,208605015,192565971,92323,196375341,91399,466831,16033454,549210277,14114,209049869,1110,4358,2403,1785935605,18
13060413,210017234,213091801,91889,214654920,97223,8468673,29430327,533421475,190440,198802575,2083,4534,1750,1726492067,18
28848838,585732434,299406349,464173,300476525,461383,27901271,55250050,1428128638,321043,568216656,99786,112410,298036,2714024512,18
13214529,212782742,216863830,103905,214406072,117119,7815765,29352655,523530826,186620,197987636,2086,3538,1880,1751507658,18
7050562,57669601,34420585,32524,33592131,30649,453818,13468541,154469599,4244,55327833,2086,1357,1382,366792075,18
6604137,207856811,105427139,95514,105709363,92051,548402,16192415,551398216,14408,200854525,2079,4375,2461,1437373030,18
13047537,308673882,321732728,109628,319427491,108919,8605855,31224739,660443214,207471,302675026,2087,4383,2376,2351024643,18
52996680,566066350,299775934,233432,307184598,230287,44720203,92215539,1377295150,621171,556126647,7942,14423,33124,3649596185,18
12786513,203884807,107525426,125985,107568945,117779,8018965,31295481,602099794,215638,206284021,2085,3599,1690,1627817587,18
12723344,203813501,201568878,119822,205193141,113119,8241234,30227273,558963944,210587,207560352,4036,4598,2528,1818472421,18
6708466,208711588,212109283,62960,203726129,59587,480690,14931712,342678161,8653,207482651,2085,2011,1047,1493049817,18
25914195,408450645,340060760,498426,345686001,500348,31949259,46298147,1396428434,738442,422327324,98768,205484,459835,2665782690,18
12694136,203365098,201887022,111593,204798003,105025,8044840,30120031,555582947,210361,208263689,4039,4280,2410,1819931257,18
29504618,603197184,312915571,912750,313851190,894268,29939662,60438288,1552283224,377661,593076861,101299,330173,416133,3028003390,18
12708208,203301011,201388967,107821,204348030,102321,8201505,30092111,556149829,211433,208615293,4037,4360,2640,1823139279,18
28163038,578391594,298471562,459862,300633641,466040,27510951,54735685,1430326898,320531,570703044,99784,111909,590151,2702828673,18
21006907,416018822,350431470,540946,350076168,530445,26874273,43079155,1583793202,753456,406305506,98764,312465,592452,3684564740,18
6554386,103799588,31303998,35649,33071307,34547,32043,14010061,178303993,4581,109115945,1108,1125,425,361604495,18
6389234,387001322,211691024,171978,211508432,169192,833506,18415038,985694050,26716,407770280,1113,5888,3427,1374801155,18
15019851,336332712,301511970,331633,301381438,333530,12489368,27429975,1040033285,214448,341434677,98767,104798,404211,1973839602,18
15399250,446604248,490197823,569527,495180048,572233,13075531,30812929,1980444069,216929,448187757,97790,119046,467366,5007284675,18
29094462,579700622,332950890,708401,337317619,737189,28016042,58151059,1496732985,423601,579875130,99789,283260,508614,2583253275,18
6847200,211010055,200100181,62828,206153141,63322,240740,14880659,286140783,10105,213137435,1110,2442,827,1303969789,18
13216491,210750091,107202822,122102,108121167,111833,8084555,30218686,513973909,210694,200160248,2080,3114,1802,1539521810,18
12937268,204564559,201757580,113563,206181041,116015,9077974,29801325,616921682,217963,208719665,4042,4923,2450,1845442340,18
12863303,204538512,104869436,122864,104154920,120345,8636143,30532937,701800112,213384,204256665,2094,5698,3251,2020895522,18
6724465,210905446,213499476,90228,208992453,101672,788038,15122053,528476261,16299,194582570,1109,3577,1569,1954647497,18
12830411,205569402,211862055,114281,212980631,115015,8607882,30402273,550851602,197626,202372365,2086,5926,2854,1815291007,18
6921139,212652765,89139950,80624,95737389,71125,572236,14582537,267893449,7205,221438401,2085,2090,1076,1004020097,18
7125443,215920326,92942223,70765,96518636,63204,521010,14579043,268108287,7133,219378416,2088,6441,14705,1013817026,18
21147755,510201076,543788293,514464,549630202,509080,26105584,42757875,1512716278,785327,511745074,98762,116066,511785,3590045380,18
13604534,213811081,197307332,92470,196044127,104133,7538711,29104465,528277050,187770,202808405,2085,3627,2084,1816032622,18
15142147,338465432,303688215,366654,304009983,364779,12699430,28198353,1267653572,221399,337415996,98767,108371,510164,2667559972,18
13090407,206121741,104980869,108402,108580938,110094,8962533,29597140,533144944,225165,219061675,4139,4398,1712,1558530043,18
29344771,574234044,306111746,560155,302715335,557228,28925321,57381815,2110446957,330564,559465805,99788,114729,476953,5287151863,18
12881581,394606543,294077940,46699873,317568736,46700740,12144579,36471389,1883826107,154376,434905908,3064,12361,6212,1444895316,18
12871818,204496828,201995016,128199,203838459,124735,8595460,29662139,707947487,219381,207028496,4036,5469,3023,1834835172,18
12742097,204401510,201433939,108934,207331237,102296,8687171,29538722,562628484,209776,208151651,4036,3845,2496,1818062632,18
6791666,212622713,203560633,80112,198889537,82398,674666,14699472,443098412,14395,198690542,1105,3834,1385,1806739427,18
13073576,210380094,214670195,93155,215298653,92153,8425746,29317236,533734014,185821,198539910,2088,4293,1810,1736718073,18
12858282,206523480,211065650,91110,213184847,89301,8323766,29754538,546034470,176513,200147117,2089,4985,2885,1613927371,18
29542602,580165400,302011323,461361,300448063,461427,28334282,55335790,1431541718,316441,564936711,99784,112306,438143,2684752821,18
13129159,206640201,206913215,181606,205471808,182524,8673119,30294135,924309493,227196,209114398,4041,5632,2684,2789436052,18
20751525,512997467,545675409,540384,546686137,549031,27577918,41693149,1629414733,790860,512474196,98763,154596,317453,3654433085,18
15228617,543607411,397228830,457260,399399046,449112,13072039,29522094,1721300983,223003,546842720,98768,108398,346028,4399314811,18
19311432,232034580,214484854,95240,214537081,93847,14506886,43099066,585843168,218885,229287471,2084,4205,2211,1886094243,18
13041833,208895054,211766701,89642,213937854,102489,8379239,29408599,529339001,189316,199184935,2087,3678,1569,1725090493,18
39309446,261664158,201521783,246179,206696564,240192,38702434,81752712,1447690733,431459,246615293,4040,9723,5337,4061878755,18
30169923,684505817,396160848,465481,398875383,465987,28340873,55735758,1529864985,319172,669736977,99787,111601,457151,3426210191,18
12675834,300695765,326633064,146962,315986971,148293,8911297,31260340,953172514,195367,297966832,2084,6707,3672,3155404954,18
12746947,203178118,201484565,110018,204615293,104221,8366441,30082253,559835710,211715,208188775,4035,4275,2663,1820584638,18
6861139,213821687,214620559,83440,205426227,92073,739762,14703323,443664603,13728,198450053,2080,2609,1535,1827772920,18
13055473,205385593,208126209,194345,208069428,208237,8722186,33187974,1174052952,226393,208157263,2083,7393,3841,3869081853,18
7073399,207718818,202852930,357793,203153151,356457,590245,21485025,2334876255,61579,205900826,1106,17129,7861,1727358353,18
12876035,305526992,208080557,120406,210234269,115665,8627405,30008568,591502922,205514,303279870,2087,3481,1879,1814065662,18
13095052,210801585,215596290,92378,215998158,103993,8447893,29342528,529948384,186362,198183934,2089,4185,1720,1736957220,18
13392633,212634764,194804646,92863,195836246,93482,7947133,28660215,551224115,193835,207112343,2087,4438,2596,1909377994,18
6895146,214514293,191621958,90055,193930749,98661,758123,14442965,443937873,19726,205582115,2082,2634,1113,1835129606,18
13089370,210200293,212450289,86896,212981025,102948,8268802,29705047,526092606,190683,199258410,2088,3163,1550,1730902209,18
13267289,310710502,201418929,205719,201132724,208725,8661901,32387361,1237427646,221340,303634162,2088,7674,3780,4001136938,18
26717968,513315892,436042854,599706,442627646,588485,33199595,48761893,1961651936,901505,530637845,98761,167905,517953,2442370702,18
13069412,210477152,215074500,88558,215725801,90802,8542368,29385244,532263917,187115,198331082,2089,4702,1680,1733266005,18
6921337,215628803,90919856,84044,93853305,78488,741000,14364538,348991300,9633,212036371,1112,2076,1105,1322816560,18
6731279,416230392,194827751,86504,195884575,100357,751319,15220550,523331614,15758,413380900,1110,3114,1753,2013083296,18
6890229,214113456,214605398,77748,205301766,89604,516846,14700962,442876904,13912,198483027,2082,2956,1629,1829281631,18
13129096,211615524,216456735,83675,215822547,100793,8416088,29257352,531731685,188426,198734838,2088,3994,1927,1739449673,18
6635970,206615838,202702065,60058,202448904,58215,661286,14781438,316420569,8436,209205749,1111,1951,1372,1368127553,18
12830914,207338662,212016342,89424,213674671,89817,8413864,29688847,544448685,175169,199649719,2087,4147,2447,1615528647,18
6736131,209276343,101426831,74611,99444720,73513,531469,15256872,463270829,12544,197075520,1107,3897,2460,1678722884,18
12881190,205219479,103837397,108538,105143113,113210,8072700,29664944,523705630,216499,203499528,4041,3330,1497,1526991684,18
20344162,655348906,342431646,2206900,343863120,2225079,5070838,25182197,1021240587,596695,652894679,24689,84576,130698,2818325591,19
7324059,170182148,91596151,837217,93014067,888904,3942220,10486117,461493086,100134,175831648,45679,48413,120372,676925071,19
4700408,124748842,60062344,138411,56787091,132826,3659247,5930583,354951726,141446,126643403,20540,69102,112957,534054298,19
4783469,147713569,127249734,1057105,123805837,987753,3609929,6225821,369383978,134949,151691543,20541,25720,116490,629786748,19
10726029,198051253,126978352,1582189,124082036,1567064,11627875,16539067,548791169,250974,179114531,40944,121315,199199,764914774,19
6907260,267394996,103668271,140647,103340748,147915,3814694,6847340,363921066,55150,244469415,20592,31139,184312,792304157,19
12677902,187849086,146226951,854538,146397579,856275,6969279,11933457,615956448,137489,177628941,40988,50387,375482,875698986,19
6677372,185788487,63304381,878998,62317472,893600,3879648,6617349,346811237,53163,170443343,20593,28162,111788,513986325,19
3570175,134374010,110234376,995832,110277372,994968,1946486,6057771,308434987,56979,139135535,23383,66697,99486,577815286,19
4831909,126068848,73078592,983959,73338159,987341,3765243,6024514,344848586,141685,128401093,20537,66688,108738,540296008,19
9402158,174035369,92843802,943102,101949947,964238,10582058,14096042,549416218,279863,184382690,40940,128993,193422,703254156,19
10059517,230026164,152612867,214019,152820500,221034,13745071,21450737,637221799,298202,205015527,40944,125789,207809,1038585265,19
9076860,164075046,91747238,205819,92181019,204468,6798016,10720011,536779153,257845,172509289,40947,133543,250332,693251503,19
46894327,734687384,400426735,2467760,402107734,2506849,12159772,62003783,1402079109,4419959,725216835,55930,113240,307276,3308640082,19
4653711,124940749,60246861,897707,59927812,900498,3937378,6192879,325737611,146468,139935106,20541,22624,103072,480648327,19
95606778,888236617,468775039,3424129,471900418,3438753,4568534,170994976,1487346185,9612722,896519421,24743,85224,99538,3125133467,19
89805382,640572948,432593773,1166710,432219427,1162250,5002286,165912495,1303629946,5895360,653271376,24689,80096,104050,3184753652,19
25600733,929965251,518790841,8627540,522212458,8671123,5402242,32983983,1555072810,1007270,946056680,24695,47264,199897,3261342442,19
3652245,158609426,108243651,113516,108213116,111983,2048342,6332078,407492205,44048,160363178,23366,71070,91819,849221167,19
16184135,635797836,350524967,2106562,356588829,2157412,9106550,24583756,1191588863,183984,630211228,49126,144784,189281,2473923282,19
13796670,783727935,430986675,2996623,431091644,2990704,4641135,17923052,1050736522,98144,810552713,24771,74339,116742,2899634729,19
31004581,947133265,368151891,2244350,372347758,2224994,8852463,36420047,1278075934,677681,893859976,41094,136925,288966,2828833168,19
9021492,228313832,148441296,953142,148819316,959162,7118869,11177796,531339050,289658,230827982,40942,47511,179372,825310644,19
4566780,177412763,123665598,1063952,123427537,1062882,3908418,6255700,382817099,138877,189771013,20540,65964,66174,640395944,19
6817551,138896446,65426735,842091,63695378,861952,3807234,6489083,348938994,58396,130492250,20592,27278,174165,494583022,19
8769508,163984632,84667604,206613,87973943,208330,7194628,11109046,541731774,253603,174612956,40945,130069,215912,703610360,19
6737778,265070718,166720809,2836562,165537911,2979156,3990898,7525383,522246505,77479,254726737,20594,34724,198686,850274655,19
6457875,134587382,62472083,954537,62361150,951961,4032047,6415230,330206343,51600,133905786,20591,27839,144971,473892871,19
21788888,794269992,436061173,2296087,435813417,2301684,8762043,27164888,1150544892,160211,786627416,41172,53225,221270,2846957607,19
8277978,219827490,154039234,1173717,154188151,1158088,8027466,11737371,559384494,278121,231577859,40959,44399,229615,798426897,19
4660408,125049578,78063961,910400,79042975,893046,3723867,6275310,365938535,140898,129532176,20530,70733,69720,557597800,19
6540997,130336500,63697614,992030,63564734,983506,4143348,6780094,325029016,49677,135541920,20592,26113,185677,482117754,19
14747339,740093196,356966365,3054420,358449270,3104699,9705184,22610336,1308305449,195148,750576467,50084,146094,188464,2679158556,19
4685518,142412436,69062540,117018,72049315,115518,4318885,6970792,371795257,39240,145413224,24558,26919,100278,653894998,19
6763845,158512355,85338701,815713,84381022,848632,3874054,6885227,351294956,54718,150570653,20591,40658,215253,547552886,19
7367422,207720228,136038335,988470,133270633,1009332,3765771,11462308,526660369,109765,209324369,45689,150567,247723,711400880,19
6302676,130163149,63858286,1003192,63673351,1000041,4111662,6749819,322379011,48804,138445689,20592,25887,182787,500442185,19
2942473,170304343,126961722,2936216,125898260,2995140,35346,1101146,263352535,7373,172381475,149,2132,978,693571629,19
6756507,159513139,68571648,778497,68916164,797663,3953169,6925263,361289074,70467,148373953,20589,29575,170050,594019541,19
3772184,145037311,41711220,97627,41726661,95468,2577080,6044557,308170904,51913,144109633,23386,22108,82381,597269473,19
3928163,141722701,64547135,797859,67784416,802439,2653219,6355071,370500757,54158,142542558,23389,67389,106078,629369029,19
6446085,212419969,106529261,970089,106544102,966769,4082152,6671616,329960861,50512,223691106,20590,40124,190874,659144017,19
12445255,303739635,126049409,181130,123869618,183628,7693422,12261931,551559405,132426,255335862,40999,64048,197614,1016904781,19
6849246,137779562,40463225,105039,40354390,103291,4085706,6626617,336160489,52220,133864757,20593,34930,191710,497949410,19
3774304,145432877,60693911,849759,60663592,879408,2607725,6242788,333109428,51571,142763804,23389,68162,108379,618874536,19
6974366,160068741,70835598,772148,66826382,808374,3896191,6622442,355353132,71317,146564393,20591,35942,206781,625984642,19
5158717,136618109,52014826,126632,52505813,124343,4538066,6751565,345807483,138281,138167847,20539,23784,109566,585002185,19
7266356,173619856,91700786,903790,88300574,959911,4523952,11312003,520831957,100652,171619695,45677,145592,144145,819051766,19
12353166,233907827,126006941,1053333,124745758,989249,7838904,11968935,558497064,115009,207192195,40999,49708,274707,751967093,19
12608722,210891667,80459245,1017059,80540529,1017315,8014547,12410816,506825318,140907,205185192,41197,63007,340400,732952095,19
5493654,167596778,59794631,143168,59752477,139447,6751336,9866368,401840783,168024,151479787,24600,63868,102758,663195664,19
13857022,628196440,350605945,2252785,350933135,2243856,4637704,17960590,957974734,92898,629933717,24774,75838,96885,2527709260,19
14558332,192652703,73337477,206758,74793303,205650,7655160,12433326,546645177,114764,173565710,49223,65447,318629,707995346,19
13169031,185009521,65131175,206691,65002156,201447,9083741,13900016,579315107,133320,180638703,49115,92357,384546,685189743,19
3726408,160773397,138252275,3315642,127306584,3258442,2722694,9874096,439030252,60604,170456028,23370,58809,70228,614273914,19
13027733,221408780,122464369,206648,121091630,197442,7570142,12123317,520180987,107584,194391987,40997,58748,274848,812422853,19
4763779,143624929,101788373,4671841,101719165,4460948,4037669,6974398,460098746,136224,154286249,20537,67180,103763,537753971,19
11747210,191130366,80817193,1056252,81283558,1061998,8046347,13070891,569732819,152086,179275467,40996,49494,291268,683808846,19
6691499,271915113,105451272,144009,104622004,144784,4143149,7376093,441513700,76337,252740258,20593,30714,167793,885525194,19
96515197,877330004,437140338,6029216,436451977,6035121,4460290,185478544,1554548397,11243126,900396059,24692,80444,114779,3078300975,19
44462300,878622622,376356483,2237292,374695565,2262769,12021826,61225384,1414680422,1414776,858549539,41139,56593,193894,2587948820,19
8336872,162589211,105841836,1172967,105863045,1175782,8092108,12026879,504088881,316337,174726866,40942,74295,143809,700208677,19
6530898,262892245,105006396,124414,105024018,121124,4180396,7052758,422311639,71651,262949643,20590,28140,122687,890141521,19
6858199,174107662,62792948,962831,62742970,963833,4141414,6749968,337424732,52327,178828791,20590,28470,192310,513990825,19
6743904,263238752,104985048,117832,104999937,117522,4139143,7184882,422773662,71671,263774088,20592,31853,179186,889369015,19
70433597,505929939,300840070,1077720,303114599,1085707,4708967,82283945,840266637,544816,511299495,24807,59420,96686,2049525195,19
12160205,255118940,127092912,1055937,127176750,1009455,8251510,12834551,562134985,114089,228458264,41006,50260,352949,779243035,19
6854727,159614275,70316145,802729,66189057,830069,3979376,6724700,357412713,73849,146668060,20592,32068,174143,630549403,19
4430636,152313790,87364474,1112181,87687739,1011398,4172316,6635773,377170988,55070,160111360,23388,99962,103516,699658595,19
6674208,188928575,45821455,147826,43758810,134972,4266091,6991876,357521999,74060,172082613,20589,29439,195876,636747180,19
47517476,1190416258,337401637,2339348,337983548,2345530,5638936,57892530,1368097558,1272970,1179704195,20872,33765,189208,3368047721,19
12275055,188678296,126945775,1086046,125430816,1018909,7606146,12173153,555849576,111397,175447025,40998,150570,292259,728626580,19
6666551,133079423,65131961,1030026,64896012,1025869,4097690,7163090,335165126,79816,139245931,20731,42206,173860,477611772,19
4344665,135452267,98383719,3356969,99345196,3376055,4035726,6431282,391159633,128593,150859607,20538,23718,64594,539448143,19
6803082,136545356,61440458,940118,61471770,939033,4052392,6600906,338932020,51952,131508357,20591,27233,164132,494851173,19
12789865,213125362,121338069,923151,121348326,902605,7532893,12306955,542871414,100245,190614162,40996,53552,354014,740070808,19
3836068,142358030,60574780,842646,60992354,893084,2654549,6173252,316376114,63198,141990578,23384,21660,77662,538665839,19
21845272,626315168,355924238,2294529,360447783,2341849,9864448,31924556,1153028591,809424,642075527,49176,52829,100871,2607708824,19
6870044,210558042,106437355,159018,106706412,159044,4089399,11365815,497250892,127392,212634393,45687,138802,181133,778902083,19
56331814,1001438994,434534961,2576557,435089417,2627601,13628196,69684694,1415308341,1451037,985519285,41239,58234,355956,3288388378,19
471798,40579205,24085470,45959,24943355,50571,108987,1064562,56135517,5553,55695812,525,3935,3916,155532594,20
60490,1550640,?,?,?,?,?,?,?,?,?,134,?,?,?,20
37883,1538841,?,?,?,?,?,?,?,?,?,134,?,?,?,20
32483,1663017,?,?,?,?,?,?,?,?,?,138,?,?,?,20
1370028,109876309,86819936,577304,78959222,491696,973714,5207740,185789008,58579,108974446,1340,54759,97738,403590053,20
748080,9555408,28168168,16111,28360275,14341,68054,703448,54108607,3616,34060925,917,2107,2009,119419147,20
258106,90506092,83535560,137803,75462018,123803,110252,1168854,114280796,7814,92640036,1035,5628,10292,285026433,20
125227,85311981,56612457,19638,56554396,25310,54208,479963,101380777,3331,92994837,519,833,5248,273013972,20
4301710,68337870,62218004,377294,59843961,372178,625023,1978994,201996590,14599,73828931,2479,9269,20646,242100255,20
666019,35738295,31477519,24819,30023598,22241,111937,774944,67267359,4134,47032796,1044,1973,1242,144991024,20
270747,7783171,25089287,11602,25003701,18647,60980,420151,43859532,3274,34152784,525,4538,?,?,20
40801,1610318,?,?,?,?,?,?,?,?,?,130,?,?,?,20
484637,12227894,27844797,13439,28742210,13255,45543,488101,55878731,4579,34796508,785,2199,1892,112559558,20
440737,90066228,83270375,107485,80829976,128842,170033,1944798,121412086,8018,93635824,1940,10619,19736,291852566,20
99243,91508138,70581678,111886,68532615,92223,71873,924532,110210974,6384,102642782,521,853,7651,294797012,20
697100,24303423,26560741,13172,26006861,14876,64482,532879,50188390,2208,47588196,522,1620,1630,153137376,20
432943,10128043,26502967,18006,26462969,17449,59573,456196,51859400,3422,29345440,526,1788,2330,104498932,20
71079,1495909,?,?,?,?,?,?,?,?,189236,130,361,551,820583,20
139293,28081421,22580996,31534,22433965,32482,43327,822837,46762253,6985,31504808,588,3667,4095,101908391,20
238773,78613281,50923065,55611,50658671,46730,98428,874807,102222072,5289,90594855,995,5153,12545,256367477,20
99689,93160298,74486094,128907,70254697,104909,56481,941592,109503034,5496,100108665,520,884,6446,294812081,20
601202,28851148,33006437,13943,32876127,13342,23991,590128,61695387,1713,45031470,526,1522,1275,129998850,20
602488,32810653,33236260,21668,31875787,19587,81902,702507,68226816,4279,45994288,1042,1709,1297,135552084,20
145267,85202268,57477773,45058,58287600,43874,87483,797518,106844696,5516,95198025,585,2151,7006,281155144,20
66456,75617791,49345528,17745,49764704,18915,27463,409603,89992917,2863,82620652,323,710,3406,238811138,20
26427,987458,?,?,?,?,?,?,?,?,?,134,298,733,1215149,20
1166597,27041184,35736073,14353,35669983,18024,54198,1074536,64933920,1847,45485514,917,1458,1327,126129908,20
1566809,41412934,30012415,25697,27706537,26174,226185,901402,72853458,7158,48480426,1946,2915,2189,161860234,20
209987,8091630,23420131,14796,21580983,13837,67053,497177,45691435,5820,29923657,1042,6587,5820,34167590,20
589672,30532550,33416149,18628,33483451,17803,44649,637604,64083105,1830,45115983,527,1433,1142,126181180,20
32541,1044491,?,?,?,?,?,?,?,?,?,130,?,?,?,20
1656589,40414156,30593706,24205,27288342,24047,229902,891053,72174759,7210,48110654,1945,2728,2696,161507428,20
43987,1559575,?,?,?,?,?,?,?,?,?,136,?,?,?,20
572321,7825493,26502053,14675,26614874,18006,73438,606240,54106854,3602,49524595,525,1811,2569,145127964,20
124653,78536307,55687210,21365,55591734,19243,19365,470087,99916934,2734,91594304,521,1003,7961,262905481,20
101544,93790988,72345322,119722,69563971,97644,60554,921890,108306876,5233,101647870,521,996,6825,294610365,20
954997,53534214,35743859,17220,35756905,17574,61170,353811,66042673,2594,56802156,524,2527,2164,194880676,20
113921,69203209,49494113,19732,49474533,18450,13269,397950,86800318,2432,80989007,326,675,4575,234733414,20
441128,9331742,22479308,11282,22347411,17720,39854,372175,39781806,3392,27776260,330,2115,?,?,20
337441,9322497,22708913,10030,22682302,17905,30949,314993,39122454,3349,28138808,134,?,?,?,20
1168903,28098500,36352280,13720,36354448,14308,53795,1094970,67050316,2113,43236789,917,1377,1104,122049101,20
60233,73642772,50331363,16888,50242154,17344,14998,375014,88225825,2516,82261299,327,683,5035,237143669,20
1626350,40469816,30434077,22973,27142567,22892,228848,867011,71424819,6900,47697777,1944,2511,2456,157091152,20
38090,1039431,?,?,?,?,?,?,?,?,?,135,?,?,?,20
195163,7992980,22419244,9300,22378852,16225,31658,346990,40381807,3528,29849536,330,15451,?,?,20
108627,92348971,83662738,129796,77047276,115298,94693,1161876,113395041,6477,96258018,521,1054,5344,293012951,20
461882,9622048,26534060,19797,26592710,23930,62734,643007,51922280,3413,49533291,525,1871,2441,142571982,20
458202,9543033,28306282,14124,28047000,17241,26081,465451,53129553,2936,31361662,524,1809,2719,112593689,20
138929,77982633,54436505,21228,54658506,19433,50188,468124,100749699,3218,89590045,519,1430,8898,258455257,20
280565,89231067,81651504,144071,73034108,123607,85170,1158358,115421712,7581,94975463,1035,5763,11084,293526373,20
37621,1424408,?,?,?,?,?,?,?,?,?,138,?,?,?,20
489526,87382869,84369061,106206,82398814,125316,174758,2071195,122854307,8531,92387300,1940,11207,19393,286258192,20
145542,14764236,31329954,11503,31144267,12175,30725,249523,55565586,3070,37573344,317,2409,3462,139149209,20
101608,81319195,58565741,93307,57635449,72670,99840,805641,101085307,3329,91438461,520,1537,7253,264103942,20
109622,67724170,50319693,21512,50183735,20255,27441,399879,87859124,2429,81987124,326,745,3257,234407956,20
33045,1298799,?,?,?,?,?,?,?,?,?,136,?,?,?,20
1234543,28455578,34546030,11407,34533298,13820,49109,1040073,63590048,1944,46711947,917,1437,1440,135296881,20
1606480,35594956,37841100,29753,32402214,30375,189131,1259872,78671126,7510,52191555,2818,3595,15366,145710477,20
571596,27778218,32362237,13504,32496301,17365,21141,611490,61439958,1593,44516452,525,1544,1316,125716656,20
250962,88671213,82048190,127547,72632165,108995,117282,1166109,113878304,8392,97585896,1035,5593,12960,290997762,20
285454,74704854,53785753,25694,52133164,26687,84347,732501,98934952,4824,88520851,1425,4862,11549,250721176,20
250687,88927130,82891015,158201,74665793,134033,96884,1246070,114704136,7703,95564136,1035,6499,12936,289868254,20
101627,95371049,75493905,122644,69964293,100904,57520,956717,111378321,6120,100733187,521,882,5431,299679166,20
7125561,68637031,68321030,380343,68002739,379152,276899,1312541,170422273,8095,69627823,2674,4214,19995,263565205,20
260395,91104473,80363804,127660,71808227,109716,105896,1182128,114759131,7114,95391437,1036,5874,12684,292003657,20
399685,10279444,27431194,12132,28542101,14061,22844,828817,49917993,3564,35692791,526,2594,2895,116612042,20
331049,90676052,80217073,123203,71122431,104705,88095,1128334,114489887,7751,96422229,1036,7003,12709,293244101,20
107564,88976835,56864096,101104,64368759,114914,336759,1747045,120947079,6437,99086063,779,1320,4977,295130519,20
5722563,50844969,51799984,175933,58142822,189652,538949,2610903,221612616,18962,76300458,4139,6722,28869,184996478,20
620936,34973330,32268455,22128,30696975,20625,107864,771575,68636468,4292,46345478,1042,1901,1182,137209939,20
178285,79749925,55627156,29642,54651864,28603,38804,576851,102747492,4069,90403263,780,3280,8890,261099668,20
246176,10079670,24498837,13637,24446332,22968,96425,900652,50023132,4672,32444850,915,2514,4622,106708847,20
94235,86182287,53515156,76606,54820762,58305,80366,720040,101404315,2764,93530718,519,831,6797,269106341,20
35702,965379,?,?,?,?,?,?,?,?,?,130,?,?,?,20
1515145,38033977,32328754,18247,28339543,23182,227325,975022,72765738,7293,46890341,1944,2155,2026,150414083,20
1409015,37901281,33946411,21786,29333695,22266,182939,1122180,71579178,6877,46222582,1946,2391,1867,149603784,20
98545,83304766,54946192,45557,56250130,38526,58550,686201,103233955,2800,95379110,521,783,8992,275201418,20
77722,71541116,50493391,18234,50498640,18541,13988,390813,88545994,2514,82643192,325,682,4795,237666717,20
160704,4469493,23805904,11359,23733574,14513,50377,343306,42620856,3430,31193702,330,2731,?,?,20
1610814,36706482,37893561,24720,32395267,24239,186304,1223717,78869919,7461,52626938,2815,5197,15144,147236223,20
99154,2057660,9820745,12693,11103050,15145,15981,303349,16049491,2762,8559157,136,5011,5977,8319386,21
110772,2705946,12944173,16095,12520707,15969,3372,276110,15580191,2711,10077197,132,1954,3511,12577496,21
4086054,73969789,15545208,45183,22440121,98744,2347959,6783329,90150245,19879,81202850,3061,554,279,255291731,21
506381,12470178,12472961,15540,15792467,22983,323593,1103521,39299495,7158,32520043,3110,5504,5906,9346971,21
909008,25076279,8057668,31301,7872986,28696,561672,803833,77774672,8382,20342352,4326,604,622,85525134,21
286622,656239843,1010936831,617295,1010794961,631462,86940,2423945,710914186,19993,667203920,140,5915,3740,3492378129,21
105020,3429955,?,?,?,?,?,?,?,?,?,136,?,?,?,21
47032022,204155563,134085054,920446,133895642,917841,1050128,41219607,889868930,35522,198989559,5990,11445,40837,610841418,21
2445690,123404599,50393040,83484,53035530,72612,1600670,5253706,131469468,24381,120491222,3057,1875,1243,320789706,21
343713,10377547,11066319,58618,11201670,45293,426014,1002842,53912922,8041,32218936,4142,3439,2398,129970694,21
2471468,39605704,10662301,29637,11670812,32382,689818,3272773,63639598,7789,52799340,4144,1555,1097,191137107,21
52165453,261835218,247485763,1838155,246471940,1869241,1687600,12405115,1006943858,43979,272272629,7927,14839,62318,888464754,21
49434203,665751600,507056964,570787,507416245,570099,42498,2213239,644113073,15809,675427438,289,7863,12488,2698341028,21
96323,3281358,?,?,?,?,?,?,?,?,?,138,?,?,?,21
36246,1136576,?,?,?,?,?,?,?,?,?,140,?,?,?,21
86934,3163976,?,?,182863,23169,9093,215757,4683807,2511,630711,124,?,?,?,21
272367,334021129,669465897,632546,669798211,631504,70400,3141459,879804383,22742,337455863,138,7221,3706,2010783399,21
215823,332809241,502953102,585284,502522631,597417,42423,1938694,532173643,15695,333926660,142,4151,2335,2345058944,21
2751831,42024910,19517900,42386,23938773,39943,962856,3424015,98392309,14279,42639971,4142,596,328,180199962,21
188732,331220292,507145635,569232,506509618,575144,19285,1753064,545624315,14290,335735058,133,4582,2167,2180399819,21
2143354,24856397,19775322,62644,24596275,62341,1697380,3543165,122592268,31845,40917517,12064,16291,78053,96943819,21
66382,2249231,?,?,?,?,?,?,?,?,?,136,?,?,?,21
254848,334039173,419422876,660838,416203052,645928,50055,2793816,767121864,21601,334762588,139,5001,2125,2269856608,21
242066,497443079,670431130,692675,670738260,700952,23999,2367792,703727105,19182,501743263,138,5491,2705,3345036722,21
4378917,78086728,68066015,182972,58378064,151745,1739842,4491111,122828265,31372,34172496,6141,8196,28941,227301713,21
118514,3809660,?,?,?,?,?,?,?,?,?,136,?,?,?,21
241140,5580976,2423018,100321,2455706,100979,231825,1257746,?,?,?,135,?,?,?,21
168834,4917718,?,?,?,?,?,?,?,?,?,140,?,?,?,21
178480,4223696,48346,4362,54640,4577,3782,84703,?,?,?,136,?,?,?,21
2710720,114726460,40763813,34354,40135978,34707,577430,2842953,124291642,11778,78905853,3334,2099,359,404642093,21
139284,330594615,510084815,512040,509576896,516273,16501,1464844,426852113,11114,340024688,131,2876,1422,1864434532,21
195429,7294496,11883588,12667,12375945,11884,2478,214871,50505678,2488,24395149,139,2434,2875,86848175,21
171892,3654070,173761,21300,186595,21520,10269,311553,?,?,?,137,?,?,?,21
2757116,111114940,43502207,40376,42824234,43432,425498,2157339,129917052,11115,80081910,3142,2350,1796,399701820,21
215628,330515392,505238080,603362,504729614,619946,22609,1929463,535485022,15461,335385821,138,4323,2009,2357829174,21
26100007,167974899,108583025,922721,106766438,918761,1328216,5718740,767566630,31397,163065144,7938,13614,58792,512870243,21
587091,835115795,1673842219,2434039,1673167843,2439581,93976,5959529,1778318606,44998,838688475,137,12374,7796,7506157802,21
669671,25497049,13464173,38366,13198540,34963,374479,1325813,87752768,12591,25369715,6206,6485,20978,87671889,21
66964,2890955,?,?,114567,14229,4194,129599,2636200,1038,383002,132,?,?,?,21
946080,14422309,11921314,24620,12527277,23547,484685,1280669,63548735,14117,17026498,6094,21751,60844,60371035,21
219177,7842913,10989950,13976,10850381,21881,174582,683735,35676095,6087,14193212,2136,?,?,?,21
256681,660499303,505129513,603646,504346255,608557,56721,2374168,706346918,20442,669836890,136,5510,2109,2680437689,21
1139482,13730067,12166381,26356,12006433,24940,466206,1303070,63529478,14066,16259894,6094,8018,14454,58685560,21
83371,3599972,2254256,66047,2271535,66882,93811,1066394,?,?,?,139,?,?,?,21
196095,331059732,505844503,569229,505510932,577624,22180,1869748,545635359,15725,335543434,136,4999,3093,2180760829,21
103457,2803238,8264784,55602,8273206,56408,39685,864619,13151067,3499,965343,132,1516,2872,4635991,21
201130,328654854,508069093,530659,508111138,535826,31270,1673518,494662804,12512,338897933,137,3001,920,2027279820,21
353832,334180714,502956922,647008,503184681,650501,45146,3494985,1047424460,26805,336784833,134,7608,3992,2845297513,21
160347,329535839,508133959,556852,507798164,564266,65518,1630207,465832940,11850,336751251,139,3891,2243,2018431828,21
207722,339377213,512248220,743147,511610664,750634,19865,1873176,551423547,13843,346114804,141,4115,2706,2208567502,21
264544,10807534,10383411,24651,10225054,23868,410514,968966,54807384,8960,29198331,4142,3740,2894,118786424,21
97860,4111833,12509439,31847,12492362,32591,32352,493044,17146304,2893,892173,136,2645,2470,5210694,21
317981,337398439,504296772,606317,504271275,614253,30413,2959128,877354531,22717,340575732,134,6725,3657,2348979432,21
171181,7247811,6125343,12737,6547899,20194,22684,296399,40427149,3033,18518546,133,?,?,?,21
661676,22412148,11669624,30839,11846955,26940,198295,1088139,72774241,7626,25580993,4200,9049,8980,77722322,21
173697,333006255,506279470,573737,506333415,600205,81910,1976951,540451378,16162,335916320,140,4442,2025,2186959234,21
48463,38635870,15372633,23600,15302372,21085,4608,310755,83624598,2156,43199543,139,552,262,115836022,21
3689714,78650527,115446344,222556,121550044,251091,1564946,6901539,192356336,34429,91338665,8093,31480,33547,351789531,21
387575,335500587,505762390,609665,504759885,631410,117948,2466851,546485270,20695,339211877,133,4836,11220,1533310053,21
228615,332965975,503933963,587302,504235519,597370,76014,2443955,706130068,19395,334339060,145,5865,2783,1344777544,21
98356,3205020,?,?,?,?,?,?,?,?,?,138,?,?,?,21
899841,12005449,6294468,17422,7017071,15941,29656,240736,58852240,2240,23008811,2198,1869,1586,69669323,21
211313,664290910,503123227,570171,504700336,585848,51793,2138168,625072666,16442,677348715,138,4663,3012,2698950909,21
54169,1894502,?,?,?,?,?,?,?,?,?,136,?,?,?,21
223906,7617832,13689968,16135,14578738,26566,183610,753622,42849626,7138,20622884,2141,?,?,?,21
164505,7230828,9295935,15296,16133227,23351,149145,610733,40339712,4658,35674397,2142,?,?,?,21
248712,333297342,671810402,621189,671998166,623664,66144,2326612,704709126,20264,336784403,143,5104,2495,2849997721,21
74550,2664799,?,?,?,?,?,?,?,?,?,138,?,?,?,21
92292,2274631,?,?,?,?,?,?,?,?,?,135,?,?,?,21
28223,914322,?,?,?,?,?,?,?,?,?,143,?,?,?,21
102677,3614503,?,?,?,?,?,?,?,?,?,136,?,?,?,21
655122,21891572,11850782,34723,11957300,31159,202821,1100577,74395562,7718,25499689,4200,5864,9756,76851038,21
93096,3330854,?,?,?,?,?,?,?,?,?,136,?,?,?,21
50378816,672685542,516332382,914204,517935218,814294,412479,5290502,713059569,43883,714480713,151,28593,75552,2652072469,21
247197,330388785,339625643,582734,339776978,587953,40142,1892882,538245439,15509,337153416,132,4503,2638,2355104647,21
1695948,50282704,48711814,63869,50603008,73551,631318,3362195,72495978,3786,85752237,2082,726,961,208485150,21
157408,4756375,4946974,14544,5268986,19728,24739,300620,38504992,3505,12795808,130,1512,2064,2860520,21
88633,3312904,?,?,?,?,?,?,?,?,?,153,?,?,?,21
314835,332442487,504420082,626559,503844712,631574,33989,2784520,876869586,21934,335126371,139,6377,2924,2344680712,21
191900,333209372,499288575,603398,502189839,584766,77529,2254083,594599189,14642,338210228,139,3887,1129,2529855883,21
71319,24388406,20009615,19202,20023718,19914,22878,366817,38719962,2547,31213523,133,670,590,94468189,22
214516,18156604,23341693,15483,22602146,20041,56080,447155,40972850,2198,32236151,525,1567,1565,97092341,22
265286,9243683,23897783,12080,23600690,11524,64311,359694,45683838,3575,35500270,524,4051,13634,17922128,22
113840,73536749,50511684,18298,50528561,18016,19497,441857,89475699,2415,83536983,519,675,3252,241086656,22
95624,71908519,51095136,45659,50003396,35949,106107,628794,92339601,3600,80901873,323,1821,5716,234954230,22
84373,79684206,53222729,22830,53067700,22394,39022,478262,94622559,2450,87820960,911,782,2817,253561169,22
44169,72448711,48801029,23289,48749358,21256,25296,370634,87183015,2552,80908148,128,647,4734,233414599,22
298052,9125464,22079919,8478,21735333,21539,73040,557543,40374903,4767,26190064,526,?,?,?,22
49006,70910734,49872448,23503,48990080,22216,18603,402097,84466678,2855,78999221,128,755,1640,226717288,22
806063,15036149,25643479,18047,25530107,17015,160887,786590,56708531,4323,30168008,1308,1760,1854,105416023,22
190811,6119224,22204388,10519,22205374,18220,47471,496114,40215566,2964,29167615,526,1833,7629,10192649,22
229924,9407409,21883055,9200,21891772,16623,41431,483037,39317516,3330,27392451,525,?,?,?,22
228530,8601698,22447815,14026,22477066,20162,60873,535794,40549196,4015,27588465,524,?,?,?,22
291381,7382508,20602504,13214,20540878,14252,132460,606458,42452950,4187,28244224,918,5892,3723,4763846,22
525996,15085594,19392219,12956,20767229,14371,90983,596606,44244639,7040,29643355,1040,7831,2790,3784077,22
216795,7533090,22711062,9021,22188985,16430,45021,512824,40919896,3214,28567300,524,?,?,?,22
301226,10285746,24134161,11780,24226289,11772,110767,644416,43899718,9211,25504364,913,7071,16175,22631302,22
217110,74900750,50424659,26400,48758056,24682,86391,631702,96468642,4860,83386949,1034,4839,10231,238296684,22
124894,76123874,53668053,22410,53747207,21115,34361,482834,95020752,3218,88737298,909,1159,4098,255256193,22
201501,72290503,49578435,23569,48091676,22876,72787,616395,93685309,4611,82812132,1035,4712,9827,233431432,22
426574,9216956,22042368,10494,21312641,17035,53982,518162,39735820,3378,26004497,523,2285,?,?,22
79871,75103545,50202433,19312,50192075,17736,17909,441151,88817428,2443,82676623,518,644,1684,237891881,22
257777,8995662,19934744,17633,21187051,15587,100005,610929,44808086,6975,30417112,1040,7405,?,?,22
191360,4780517,21854668,7748,21860298,16852,34118,399554,41124603,3202,28739235,329,?,?,?,22
243647,7721381,22623325,9945,22378863,17481,55193,512551,41711005,2977,28822023,525,?,?,?,22
462607,8932707,22116571,9967,21630673,17227,43355,504499,39400659,3631,26478624,526,1696,?,?,22
146936,4144733,20729275,9917,20687139,17089,31263,299846,39275878,2922,28492446,134,?,?,?,22
215946,7488437,20219427,9145,18810748,17977,39549,310604,36743630,3311,24420015,134,?,?,?,22
92567,73560451,51632078,20451,51492045,18200,17251,441490,90407603,2454,84680278,518,1316,2216,243309841,22
222945,8191559,22231951,8231,21904646,16100,41966,486437,39744034,3500,27245039,526,?,?,?,22
46039,74125269,48679852,17096,48755598,16243,11264,343086,86237253,2343,79959213,129,728,4041,232577362,22
1319161,38965562,47800364,17383,47425833,20623,191241,795127,87184686,7158,41218451,3260,13523,43616,165622175,22
91732,73554613,47817276,30862,48347954,27483,72793,487962,88633998,2871,80806848,517,1097,5704,232969456,22
83068,74610843,50732064,19445,50694212,20390,22276,455586,89147377,2460,83424852,520,707,1940,239577574,22
132738,73844749,52039555,20401,51974158,18574,16369,455385,91294362,2524,85957037,519,714,1781,245978211,22
253770,8285747,21482586,8630,21472877,16047,30243,385522,40301180,3315,28294459,331,?,?,?,22
3224289,137188478,77981462,143370,76196778,144425,3662786,5371035,396178717,87089,135301896,39195,106533,184296,483091517,22
175095,8565455,22207462,10245,22256983,17483,59643,503828,40417771,3169,28223733,525,?,?,?,22
81901,76057723,49613054,26036,49841289,23440,39343,482432,89522982,2414,82880573,520,681,3000,238796160,22
115242,73282684,50638744,18339,50673192,18048,17389,436658,89318675,2303,84225125,517,676,1930,242505015,22
160267,6237162,21628023,9153,21526687,16563,29995,406526,40476174,3508,27537595,329,6365,3339,5093244,22
417847,8871495,24426219,9257,22942677,15071,117417,813408,43757654,10384,23197983,916,6367,1873,2479999,22
287493,8650418,20231243,8918,19198740,17203,29415,298606,37520547,3352,26211494,133,?,?,?,22
7065619,48243145,64256874,168856,63505428,167752,751571,2167610,191131099,11924,63257846,3259,12195,24254,168411057,22
297230,9434945,21099340,10885,21018304,17771,36636,410977,38470616,3402,26235802,331,?,?,?,22
94966,73602893,51244392,39630,50887276,33686,90929,580130,90921343,2344,83185803,520,763,2220,240586817,22
149041,71363455,49893420,28066,49812052,26608,51520,536696,89218812,3278,81855564,519,863,2084,234569344,22
97304,74264969,52111568,21887,51960859,20125,28271,471731,91364966,2590,85327138,517,662,2495,245089642,22
206078,7682065,22308366,8761,22372778,16366,41804,496834,41514516,3213,29489260,525,?,?,?,22
62917,73624760,50492139,20126,50537823,19313,16008,398598,89452077,2367,82744841,322,694,5791,238217904,22
209337,7320440,23246936,8418,23264023,15468,44530,495801,42653781,3381,31081909,524,6698,?,?,22
212352,6732447,24997804,10644,24962499,12183,85472,721279,46127999,3079,31708729,914,4609,13588,14906841,22
135924,71735241,50913490,18188,50867856,18306,25990,455664,89325917,2706,83313286,520,734,1411,239401812,22
1791242,51699027,69608563,237393,68227932,270569,436968,1490624,135536828,12517,73099553,2868,19899,53758,254111994,22
114997,71069390,49993603,19568,49903998,17847,12366,389958,88728142,2333,82118730,322,690,4201,238703558,22
93875,70387956,50774118,23151,50346265,20457,26682,416631,88642857,2678,82018736,324,709,4659,236738348,22
198761,5842022,20910258,10033,20880140,15737,91394,476954,42130671,3896,28145839,523,9453,?,?,22
242567,6178031,22145002,9125,22227095,15687,41754,469156,40341701,3309,28957640,524,?,?,?,22
70229,68124443,48676140,16310,48609328,19042,24691,353763,87396022,2619,80504333,128,654,2432,230702107,22
315589,8396912,19838418,9444,18383309,18240,33350,316703,35423385,3410,23761573,133,?,?,?,22
172326,6271512,19770330,12659,19014453,18251,31330,307761,36837330,3463,27258019,134,2613,?,?,22
256867,8673347,22009961,9058,21998025,16042,40743,507397,39932203,3477,28889188,526,16049,?,?,22
203985,8345477,21982068,9424,21952637,16384,42580,479067,39436705,2875,27895020,523,?,?,?,22
81788,76092770,50574194,17197,50492962,17250,15446,434331,88543889,2406,83231478,518,669,1493,239259423,22
359846,8829195,22139296,9510,21394310,17854,43668,504739,38735917,3565,25648911,525,?,?,?,22
111775,73073915,49298746,19502,49185922,19735,45882,409534,88536666,2735,80842274,518,1087,4690,232771723,22
226210,8162196,20836235,12348,20307186,19971,85348,486261,39825702,3509,25049787,522,?,?,?,22
266614,10371812,20156375,11870,21338319,11099,80526,544782,43209550,6429,29885032,1043,6953,?,?,22
224419,7698238,21005775,9072,21032739,17588,29810,308657,39514038,3127,28125085,133,?,?,?,22
188252,7704508,21858727,8061,21891510,15441,41053,464323,39145044,3361,27598115,524,?,?,?,22
150366,70987974,50417360,19495,50497285,17390,19529,441922,89269491,2507,83437001,519,652,2096,238402662,22
137948,69866511,48247887,23201,48132736,20827,52803,439373,87331406,3320,79156425,519,2081,7668,228209052,22
900999,25032265,31309657,21786,32930611,20314,132083,651784,69049327,6301,46347039,2993,3103,2787,160773871,22
195443,7471084,20070185,8014,18795410,15953,25177,287959,36495894,3553,25126737,134,?,?,?,22
388270,8539302,22287484,9484,21216830,16895,47030,519610,40015438,3199,26277883,524,3277,?,?,22
231664,7704133,22600976,9919,22542292,17011,43980,506869,41604662,3539,28865772,524,?,?,?,22
175701,5506072,22982976,11240,23260490,14059,60718,519253,43377980,3530,31997416,523,5397,?,?,22
188938,7006881,25620653,11316,25701525,9997,23790,507480,48003114,2826,37975275,525,3789,5587,60782164,22
240246,9108932,21677360,7874,21576815,16043,38518,480089,38609374,3390,26642804,524,?,?,?,22
153013,70936438,50482214,23561,50288136,20317,33986,459725,89250326,2369,83031778,520,675,3344,240120474,22
1364920,92982758,61552124,340026,64662530,272005,343175,2275272,139553100,8118,108893938,2216,2350,9705,334160492,23
2974431,325795361,194177313,1348480,193259989,1362660,2049105,9466775,479512157,135809,311310447,2467,26580,62095,973730119,23
2860593,290176251,207468575,876552,209682752,901542,874335,8624451,441624883,31315,342239815,1953,4914,27116,933874755,23
3756454,350817990,202386429,1906371,203876025,1870796,3918075,18408040,583600284,122576,330817446,3551,58719,79673,1072539390,23
4590233,109244265,81438968,500944,81189383,498647,1470981,7051348,258621530,51712,109147880,7165,13665,17881,379754137,23
2846998,118785458,69428632,980137,70070810,940044,906874,7942502,227083599,43925,108782777,2657,15104,28356,411668212,23
2597193,119881280,89607204,646899,84158062,710531,960399,7825160,241406764,53722,107410597,1891,17519,7974,392130713,23
3242228,109332075,75477206,720395,71891320,719796,1679382,8267802,237857668,164514,93053971,2477,3626,11593,364191460,23
27686747,250654233,195598369,12057092,193001339,12141843,18435251,64138552,1698697907,2764740,245875967,7991,20303,67099,841664832,23
2881524,329804377,191160547,1364975,190176047,1420879,1904309,9797181,467572063,122781,315911938,2468,6749,27816,1003472998,23
1646989,88443937,49920623,397085,51701915,410497,165002,3311030,138411900,8124,86174500,358,1882,3278,294656572,23
2831230,296309772,200368653,1001774,205320613,1030667,890653,8459180,445558702,30674,343982842,1956,5015,25626,950948127,23
3447761,290486262,207993464,870248,209335900,898541,1048354,8690036,439248740,31440,343563270,1998,8800,25949,924715059,23
3617607,109349850,72423271,719025,70166290,734075,1891547,10087989,238351581,223696,93014618,2730,6710,10277,354879950,23
901839,72341102,56385724,395944,55854891,400685,74315,1785973,123635283,5554,78601610,232,1850,1379,255873115,23
3312361,290291845,210646181,914145,212012828,918332,537062,6889023,427677198,28896,340412203,2471,5144,25311,918729610,23
4099829,103346516,92230100,525565,91803935,562486,1495120,8463434,251559376,147473,102413929,3597,6012,12081,346285748,23
1578373,75722208,65657709,408059,64429268,414063,60537,3643368,157860145,4205,87990941,390,1462,2306,257962471,23
3326213,104442209,81293546,633962,76388500,721083,1617585,7970042,246091257,148827,92332032,2473,8070,12829,358126898,23
2198089,111019865,63208179,867902,64696118,847593,1306709,9266322,214614504,34098,110479601,1890,3434,9384,395192201,23
4563320,109389774,82155136,507428,81597545,505068,1577925,7223184,261026907,50993,109916574,7153,11311,14064,382744015,23
2695779,308831441,195423919,847365,199810651,877424,949629,8503799,432657426,33229,333070913,1864,8327,24320,980065793,23
2368979,320441972,200874171,1106819,203341243,1082506,1528513,9393726,440726769,35309,338995156,3045,8853,21421,1007431003,23
3611099,286740805,210777775,908939,212822581,921418,784082,8168247,433538823,28146,340889731,1872,7393,26810,908701904,23
3317498,105455742,79466094,647279,75336585,717778,1597963,7979096,242610513,151188,92411281,2472,3942,10669,360703619,23
3413161,289975487,206963194,876158,210548171,896718,993368,8628954,436534140,28146,343138652,1865,8104,23139,922765855,23
2622042,325878522,189056577,1581073,191508858,1445691,1135767,8343880,468584223,47827,315649749,1955,13186,21533,1003810021,23
862632,81732526,62846660,232039,58908900,350936,64807,2109459,127015446,5913,71454149,377,2350,2473,271630776,23
2715719,113724815,66660352,902830,66373385,841503,1395303,7700548,223148288,39455,105944601,2027,4278,10444,415079159,23
2570316,114073620,69124239,772783,68905610,851228,1501500,9374302,235966009,58652,99279018,2603,18036,37619,386778446,23
2948066,104083753,80722464,705476,77612988,750986,1753852,8501503,253994374,155235,96776729,2566,12860,12342,354184698,23
3266718,105822218,97315806,589391,99203806,604871,1524639,8552189,270384901,126354,123161301,2430,7498,11351,355426894,23
8003971,114490224,82565366,1868351,80623222,1818119,2771011,20434835,299657122,340875,117526585,2656,8270,13211,387778233,23
3537194,100697950,88260595,605611,80624735,739045,1623398,8443444,265096204,157519,94864756,2483,14236,21113,359403114,23
2912062,104466331,79398089,757989,76418897,768913,1758469,8459933,254983652,157872,96236890,2496,15542,11052,353104397,23
3468856,105661569,85128621,596110,77233632,740951,1661181,9280408,239257736,175484,89346309,2374,6700,11155,349520187,23
3737030,100663963,97434412,560903,90184935,610803,1811415,9541831,261164824,211041,100365100,3121,7227,23534,337534149,23
2597582,110961624,71769614,885552,70558943,955105,1443515,7922162,241293396,54367,98027092,2107,16199,7994,376493903,23
2221161,322934938,192227071,1395510,192749094,1299446,1153254,9172358,456254756,44280,324174675,1891,7796,27566,1014921614,23
2497174,112517739,67747255,829802,67658567,853624,1659722,10456197,233936075,66619,98544522,1986,18102,8597,383604279,23
2979848,298374491,207212315,868980,210128644,890088,1081884,8816940,435188523,27786,340799753,2052,5639,26889,951515691,23
2687830,113219737,64817323,757558,64489517,789947,1337703,9530315,217296751,61435,101315875,2079,3123,10505,399229274,23
2610436,113830929,67474799,801387,67203608,803298,1265053,7822990,225844959,40963,103264540,1959,5133,9985,403805815,23
3850137,117914946,97456629,545024,88988174,685523,1199225,7650079,250364677,62013,107526271,2210,4059,9195,400513381,23
829588,278069906,185074664,718459,184742078,721752,67629,2215389,337038649,8536,298470778,286,2687,18466,851648522,23
9319596,141934598,109982381,4591919,107046011,4759269,3386601,24013563,606178803,368717,138070683,3600,9660,21862,457923627,23
3332045,112833130,69658206,776488,67352903,846176,1758721,9097592,233877153,172735,96763734,2409,7538,11439,369431603,23
3710739,102508769,90621651,568457,81234812,708723,1614616,8591709,238332715,163502,89106041,2384,6117,11291,339119858,23
2869396,297123505,206980829,867740,210022979,888644,1046598,8722503,435083836,31469,340226037,2038,5891,30385,941862906,23
2626737,114092534,67207430,1016658,66634675,1047191,1205792,8818918,228479535,50807,102133029,1889,18332,9870,389654828,23
2623745,314848515,197482055,881732,199909841,887690,1221897,8588434,451348070,41197,336176176,2557,9934,28503,993339911,23
4063097,107968546,86385497,495239,85853652,499521,1811158,8058456,272132066,50030,118539545,7126,8310,17042,392139939,23
3207743,299644711,199310150,974058,203076046,1003541,988172,8449875,442438656,34976,340930603,2056,9056,28600,947809063,23
10206755,152379160,106924475,6379710,107711403,6397843,1699051,19980185,568190687,152737,151531159,3118,8093,15648,510119778,23
2638795,305697565,196336462,860608,200879985,877491,1318142,8662814,454790497,38529,336361857,1955,9492,29203,979118555,23
3188692,303904455,201635207,872191,207715750,1033925,996748,12261181,455777448,38965,335981005,2048,7462,29069,966698661,23
2727438,115655119,67405118,794591,67192778,837643,1623320,9106971,229838237,64268,102943924,2259,4359,9306,401264035,23
2809371,326025645,187532282,1350737,187059925,1402843,2171398,11351067,467872779,140042,314767489,2542,11376,26125,997812164,23
2695124,295786750,211266494,859104,211206850,885757,1177859,8833213,441429472,32535,341801415,2034,9532,27831,947371402,23
2656569,295457725,208868968,878247,211504168,897044,1013842,8611088,435808844,29798,342257226,1955,8235,29194,938067180,23
2840155,101537953,85419841,653821,80719925,755077,1700872,8215218,261588020,155144,98256903,2539,8470,12591,354687889,23
3624419,289587145,208499743,875693,210652310,900368,972901,8632008,438519369,33380,341225980,2049,12317,27685,918247518,23
2951603,320779619,191836644,1594547,192176401,1494997,2571318,12095242,482854093,187522,310323790,2661,25683,27764,959626349,23
2771690,116289277,67593077,851429,67376551,811587,1281039,8206406,220326839,43659,105763241,1993,3734,10598,411051971,23
3427833,103452301,82454973,623409,77181206,724995,1762220,7974171,247234642,146674,93286097,2539,9117,11169,356651268,23
2579658,114020232,65623995,860679,65458711,841133,1269688,7993747,219869068,39746,105520780,1962,6141,9521,410032696,23
2909629,114750462,67503980,699239,66058805,779847,1454796,9377441,225975242,72720,99801953,2066,6240,11311,389357410,23
2458142,110290731,63601355,959684,63217442,935750,1292912,9245570,218247992,39968,103219419,1877,3294,9142,393393173,23
2736380,115139895,68549025,756331,67780624,793736,1360856,7808467,228563230,46427,103635345,2028,4531,9481,399326543,23
3050413,325918780,191597991,1377148,190758812,1440819,2152043,10515812,473416386,149562,311130572,2562,24566,23843,976207468,23
2738055,111888374,66721787,773381,65867207,837621,1335148,10173115,226000131,70817,102183534,2060,10082,13253,392498880,23
3206365,109735572,79043609,701397,80001993,722779,1492030,7741943,251112887,138910,104823740,2406,7119,10950,383800385,23
2710465,116438819,67862970,793793,67807402,777303,1303334,7618385,221849661,40446,104668298,2026,3240,8618,410260450,23
2695509,114097927,67275201,777619,66777097,823385,1576538,9969484,227254489,70384,105457908,2142,4477,8956,404171645,23
3471893,100478816,99742021,601091,88691812,683645,1853056,9320241,263810755,206166,98181885,2862,5682,12292,337400124,23
3092377,303898230,195909178,865259,204233359,868872,1033964,8517532,442640624,36277,339851340,2132,9066,27249,952137781,23
8223292,142383251,102899318,1923759,101197836,1973611,2524414,15047470,420133882,207154,135834795,3515,10557,21624,500037701,23
2751570,115850157,68123814,748125,66823531,819328,1372730,7677605,225420684,46302,100727153,2027,5338,9382,396021303,23
2952516,103373285,82286801,678917,78624071,749668,1790575,8411910,255455789,158019,97635553,2606,9506,11082,355066766,23
2718873,307317016,196916764,879882,205006978,877653,1142750,8537776,450004804,38741,342446835,2558,5844,29835,979307834,23
30730378,198027750,129151213,2026483,131904656,2020754,1342234,34170006,511594316,68834,210202252,4782,14577,45619,752513482,24
2583589,344370970,204815262,1458532,204768191,1585756,1801970,9851951,500598804,39710,337378999,2925,502684,36075,1071668756,24
2096959,107024714,75622371,721228,77362672,650853,1001111,7835567,198338042,21793,113962845,1960,2623,9422,388745784,24
2090296,110179645,65785457,1088534,69616373,871680,1145008,7906439,208433614,23993,112164304,1959,3116,9553,396705093,24
2116251,108823923,72481360,774580,76492129,680130,935962,7966297,197792185,20570,114593192,1953,2487,11021,387545744,24
2085872,108321182,79382936,703298,79848053,649276,809359,7945910,196055506,20707,114010770,2007,3077,9412,387318015,24
2945756,293714210,206104239,994794,206351587,997710,510152,6655259,412598604,28554,325213898,1956,5301,19987,909867722,24
3103967,111616153,87445623,480320,86666893,720253,1692246,8461336,232362942,79726,107991973,3270,11912,12937,384693393,24
2514764,323245391,192298352,1308578,194859677,1211819,2209180,10575368,452150212,77858,320152593,2746,10340,26263,993096448,24
3008594,288421517,206939818,854954,206390690,852140,699672,6852401,413121715,27150,324893910,1883,4884,25135,902418616,24
2447564,283233707,210236087,871201,210521584,869948,688628,6920697,418325377,29769,328483055,1862,5633,21237,901341600,24
2058583,107374058,80234348,598346,79216671,567379,934375,7651303,197086774,19056,112511827,1858,3305,9015,383449736,24
2996980,109083332,88084329,582105,80535652,860085,1680039,8482760,223891730,74065,99565337,2486,5311,9621,376517377,24
2473938,321917172,195880378,1129346,196752351,1120935,2214371,10155107,448370268,72956,322949249,2872,9510,24140,991729499,24
2980487,293233826,206895565,845834,207196261,848298,732084,6793200,412505902,26557,326601988,2056,6236,21748,912741089,24
2916572,110112390,83621242,733550,77404524,971814,1881107,8645268,225766377,74327,102666657,2690,7558,11673,384179812,24
3115913,130649238,87105422,826453,86934588,694793,3688619,10833545,294592331,101211,129508656,8206,15572,31764,495328973,24
3205497,127169523,108028203,924428,102200718,1029724,2521271,9749928,292170049,84088,127223000,3852,20712,29870,450998398,24
3230079,106273811,95729296,562735,92923411,598585,1642159,8025810,250435901,68539,109477881,3652,4765,14896,385161722,24
2312658,300101372,208682783,815763,211745664,837643,1112520,8894877,433585728,32248,343065620,1982,9061,26875,956106465,24
3055932,289545825,207661189,835785,207342383,838664,648398,6702380,410240712,32296,324561566,1858,4544,22980,902335732,24
2153626,112652376,65755016,1719640,69690655,1268785,1235260,8154122,208415115,23728,112582352,2059,4798,8548,400539730,24
2825077,118041120,82743900,435946,83771760,440618,1781324,7219997,265466309,42576,113863706,9019,25436,43681,420080955,24
2838310,109448804,81187291,819907,75506209,992443,1800951,8658803,224774212,70929,100911803,2489,5275,8712,388685880,24
2138713,111760114,67072722,879892,75975470,718753,1001882,7822120,201514666,21492,114799145,1866,3495,9262,396760110,24
2206683,116077251,70797173,1136125,72255479,935088,1169368,8197624,206901150,19739,114159442,2821,3683,10899,407231552,24
2679457,289571261,208769158,853234,208826976,853867,768416,6802465,416334143,26649,328180940,2004,4530,24067,898558883,24
2077625,109239784,65398562,1035607,75160487,819502,1076870,8067951,200068721,20469,114121423,1888,2872,7954,388125694,24
2943375,291258691,204825805,836184,205160693,837588,733132,6733743,409961410,31181,323433980,1883,5032,22642,909238526,24
3109919,107243313,89143529,519568,87524071,701465,1717955,8447458,235735061,78227,104987834,2880,5255,10469,364361163,24
2113803,109239060,66447910,1015354,76408272,802602,1071266,8001848,203319119,22639,115213560,1961,4283,10683,392424914,24
2061202,108112926,65346900,1250002,71049702,949481,1247073,8505890,205255398,21896,112221152,1961,3124,11900,390102171,24
2201635,111138157,69265075,1036226,73299604,805460,1482551,8360788,214521425,24557,112922161,1964,4534,8755,401266395,24
8372628,153772536,117644389,5749101,116903222,5808884,5514758,22505634,675529139,733813,156006138,3398,12691,19549,522509529,24
2531274,290962893,206701877,862616,206780119,863327,658929,6782475,415087893,27680,326024590,1858,5323,24073,909555415,24
11122605,197095534,173065712,546512,172675051,564973,10763893,21237288,686490972,190274,189229636,60167,192996,313681,808556916,24
4515640,104807080,95721267,577618,91032677,770119,1505091,8422050,245180589,68514,102893234,2525,14155,11943,370331344,24
2485779,324388770,197634809,980138,197894104,1007151,1992602,9712868,446039740,73822,329359542,2865,8207,21493,1003500569,24
2858625,112025857,85423173,763886,78610481,1014671,1803465,9008316,221672268,74167,101989959,2682,5152,11439,390740455,24
2039121,109336950,71102586,924761,76961123,772564,869685,7992719,198536326,22076,116179887,2058,3572,10624,390608885,24
2461040,295459060,208599017,848495,207960984,849622,745024,6778935,416260582,25673,327790784,1952,5360,21573,938508593,24
2066636,108283957,65820086,1185882,74460458,912714,1160756,8470852,204218895,22472,114452060,1960,3227,8962,390179112,24
3077452,111668436,86271312,902510,79459339,1107767,1559983,8367030,230816520,73355,99251947,2682,5677,15051,374880961,24
5031099,114069208,105025240,1559032,104178519,1547133,2932688,10639902,325781478,259797,131574046,3720,7547,22548,401890001,24
2938819,108097409,88750521,524499,81512387,837197,1856431,8765743,230406356,74935,100318498,2682,11014,11093,376195842,24
2100414,111614583,66135043,1174374,68871143,932672,1365051,8307656,207672176,22963,110493787,2349,3361,8351,394898168,24
3165436,286513973,205230725,842851,204642632,843110,673765,6720018,405939514,27182,313221970,2069,8036,25398,889229224,24
8208262,362711060,263932135,1089046,263441112,1051699,8212874,19694086,833819547,651863,387208992,8569,18404,76738,1165432233,24
2638000,312083677,220566794,1035386,218830816,1013159,1994513,10334292,451464806,39211,340203555,3321,9070,33144,1003329690,24
2327894,296191664,207291422,1096048,207185435,1104415,647449,6784910,424018011,26741,325742894,1958,7159,26282,936247340,24
2731798,116924318,79553253,796462,79132817,803659,933301,6746490,222327512,22814,111852935,2430,5341,11611,411169716,24
3087030,108650507,90212802,504648,82666546,704076,1604398,7945140,233135040,71843,99533668,2688,12372,10920,366772383,24
2152184,111399994,66234896,992894,73285314,783360,1073407,7953009,204668317,22860,113981926,1867,2926,8803,396301722,24
2526293,115462201,69602770,1523241,69331050,1538132,791951,7247018,218577275,22536,109694197,1960,8758,8755,412649793,24
3019249,285978687,207698032,850070,207649985,850235,669865,6760362,412536358,31148,326504244,2152,8809,27502,895282516,24
3418105,306616729,204350090,943559,204435675,943163,1274844,9434260,645261230,84944,304002322,2672,19465,18426,919019545,24
2194206,116459571,68058340,1467870,68153321,1386865,1130928,8008671,215693032,22298,108671120,1964,3430,11085,401468902,24
2129196,110368951,66642479,1094991,72634037,846665,1148412,7922445,206273680,22559,113812188,1959,3984,8642,399176886,24
2416859,322663495,182647644,1592549,185973232,1447733,1747240,8926779,445296886,69270,323508419,2674,6250,23582,989521418,24
2053030,109702640,76080243,838480,70761036,1016985,1052189,8526272,201033665,24055,104549605,1863,4279,10621,384699547,24
3151971,109335372,89650180,493059,89527362,655323,1556175,8447092,234482698,87473,105174771,2993,4266,12501,374086076,24
2778024,291577087,207261670,841078,207549146,843272,699713,6798281,413277091,28426,325254982,1859,6521,18992,904527550,24
2093964,108087893,71197199,926819,75367294,775461,1042056,7985105,200424468,22250,113050925,1863,3237,8275,386182326,24
2316037,335473084,188050483,922634,194588709,893366,1894914,10258240,443241410,54876,336195227,2874,5857,18065,1012758783,24
2091235,109927784,66078725,1043655,73271602,810624,1083554,8006625,204759396,23283,114353654,1867,4104,10520,397325368,24
2051707,106242859,73381375,830523,76922454,718446,1078148,8099159,201343046,20824,113838809,2004,3310,6629,386146721,24
2088876,110808669,65180688,1192687,72990264,910897,1220342,8424033,205036074,21955,115388502,2059,3154,9901,395877476,24
2526561,292731346,210027161,858132,210230799,858784,938355,7514679,427292261,35406,331307677,1859,10664,24478,925928747,24
3151228,105790415,90027974,527262,87519547,793383,1508971,8239651,231473628,77995,98963554,2533,5136,12995,354384806,24
2816328,140592202,175400710,4098345,152187183,4043913,992870,10025173,376924130,26961,138270216,1957,4461,9062,526363171,24
3094183,107691120,89879635,512721,87693480,656578,1504356,8257857,229952689,72584,106673080,2684,5748,14374,366649176,24
2910513,107467425,83531630,739259,77191755,999269,1941862,8803464,227368596,75501,99899046,2685,9050,11098,381015785,24
2111211,109407282,70580938,916022,75770509,764147,1081188,8044236,199412258,26216,113516408,1857,3526,9494,387238709,24
2080546,106179036,75524490,790818,76575081,698944,993097,7969802,198488095,19440,111762717,1863,7834,7928,384315486,24
3084590,290498807,205521894,835645,205721353,836206,692513,6712921,408915706,27127,323819004,1883,8091,20885,902002395,24
2064623,109191600,66574881,1007117,76135435,801800,1117667,8160889,201659669,19274,114831715,1984,5149,8879,389597918,24
2133871,109788814,65414500,1224043,74125619,929527,1355933,8573638,206701678,24339,114790661,2448,3774,11117,398807388,24
2198250,112065704,72195194,1025333,72066212,910234,1252069,8218639,213870553,23874,114492376,1961,3467,10407,396489218,24
2005965,104930959,62973729,1197394,65425971,977455,981469,6924857,193363089,20872,107467354,1922,2913,9834,375119757,24
2054038,109266059,64734250,984785,74601275,782675,1158603,8050141,202842302,21003,114164324,2007,3189,8976,391097386,24
9945023,359953876,220379915,2979832,215368492,2922864,3610816,24083983,697556438,481089,356934843,3232,10422,33135,1170409301,25
2634856,119028926,69635531,1066374,72648635,915741,979028,9003557,223527822,38178,138397568,1878,3808,11212,451847079,25
4088987,110865895,81458662,832912,96607431,725319,2190455,10874739,285279182,95091,152014658,4215,10372,44855,413700099,25
3333152,142460158,76179824,521466,76473586,573372,1275163,8320495,256394808,72659,106988588,3528,3346,10285,476935105,25
2646862,141161940,72744529,620854,72256509,745415,1492785,11033799,242365060,91575,124258039,2729,2481,9802,490819551,25
2462702,139530615,71765331,615822,71487686,746768,1423377,10655999,240884849,69168,126104822,2441,3825,8912,494053070,25
2712333,125425151,70760356,879164,70975630,811557,780450,6800266,228874758,22172,140120994,1786,3599,9596,469848021,25
3589816,138375815,79276799,916300,78260684,944606,1565531,10365458,257292778,75454,103867537,2861,3697,12673,440670558,25
2484111,139242730,75943045,860728,75650396,899187,1392442,9485412,242678676,56592,129845925,2170,3628,8615,486981188,25
3403237,140600751,75969027,542418,75730053,590649,1301131,8206382,252267343,75346,103927686,2841,3718,8556,473164957,25
3305444,140778097,75441795,506625,75741258,563449,1380620,8159522,257014805,76784,104952257,3328,3437,10199,464076547,25
29667915,253589679,199320597,17889067,200739594,17878053,14161904,68367100,1777332640,2196309,270676264,5469,35150,41413,806528849,25
2502725,136293375,71273667,639983,70885851,791446,1526093,11293809,239369227,69773,127950507,2484,3363,10641,494745340,25
3198650,316535666,204738893,1381097,215165982,1202680,1298066,9520394,466299777,33053,357225842,2657,8028,32100,1020478894,25
14061414,181597324,111678343,5562622,111692849,5562804,8477378,34520075,848269360,1154493,151907554,4853,12332,39197,615333660,25
2987780,134749004,88602246,797858,81441662,919057,2105867,11432999,247520710,180695,117178804,2518,4534,12530,466397149,25
4117311,105146826,93491640,519038,89244370,551255,1145044,8120792,243495834,70181,88639127,2608,4824,9865,428785632,25
3861011,135803858,80351154,570840,77375341,602722,1724676,9034756,262583831,184639,101018615,3035,5311,15590,432678759,25
3201169,349583357,201211035,1283099,200938864,1381698,2496911,13720254,502699960,245707,333190130,3224,8916,24933,1089828150,25
3353182,141725133,71472543,563190,71027613,624751,1400397,10012771,242019730,85219,111772773,2485,3807,7163,473659831,25
2627004,140176205,73210775,636062,72526310,763809,1532835,11250687,243586045,77526,124015141,2687,4040,7588,488907238,25
3942658,143369349,74866138,500886,73762609,557598,1324322,9375506,248451618,87416,105927392,3073,3471,7564,478188085,25
2518671,138925187,72313952,627777,71886713,756250,1553987,10437419,241609862,69438,124146509,2636,3330,9004,487900743,25
3206479,136647498,79753998,885103,76896719,910832,1773897,10886014,253560562,170198,103381876,2524,5080,11440,470773173,25
4100333,138221860,77135550,564231,75737196,604100,1523730,8984189,259184924,163078,101766622,3088,6185,14702,454077858,25
3187374,145928424,71152587,527983,71176938,616837,1406151,9589146,248177487,81344,118148547,3120,3026,9798,494294848,25
4186442,131429033,86254706,602729,81746886,617103,2054371,9036923,271075355,174322,102099207,3236,6871,16532,400943596,25
3614494,300884819,220649172,816431,217888412,861132,1056843,8462491,445648275,36406,339477306,1967,5512,30924,941766557,25
4105159,308400410,217227893,819831,214698848,857271,1106573,8436526,442654005,34508,339714086,1874,6738,24843,958788706,25
4387267,105594474,102844918,560536,92468855,573525,2416246,9905503,284710550,141092,108290134,3635,7660,22165,361494766,25
4647539,118264175,84369516,563329,82173596,586769,2088851,9418974,273984249,151786,106979923,3437,5849,12389,366247543,25
3060465,119467514,98815255,540811,94030297,581011,1133157,8576489,256606838,84180,92781930,2529,4163,9436,500570909,25
3268792,141793721,72776961,568841,72319012,637798,1276503,9087482,244394391,73869,110369337,2441,3317,8661,480816533,25
4492881,108214887,101103229,549849,91899932,561006,2535247,10391507,279112315,174492,107396759,3234,8064,21934,373777944,25
3027833,323056091,202617484,1412499,211385882,1299936,1441154,9846911,474831886,63924,344152340,2536,8585,21327,1008964738,25
3670902,318053088,208801767,1199644,208646180,1366529,1881795,12770158,491793322,82711,353840073,2656,7377,27773,1043748587,25
2564852,128840465,71488217,960099,71082768,986093,1464245,12690515,235024332,70831,136220567,2660,3642,8482,479565768,25
2535398,133049213,69143806,735246,69273821,904394,1500742,11497383,238470413,63814,132345460,2242,3061,8890,494106992,25
4072114,304208237,216431488,813112,215179360,855578,1063978,8434999,441881571,32571,340199813,1972,6988,31499,959730032,25
2747556,129108532,81082287,903807,76675625,984395,2172972,11745301,245476650,172714,123448769,2517,5313,10982,466720415,25
2416017,126551417,72896957,1098663,72613940,1080321,1530977,11526665,233145890,49900,132327251,1926,3246,9327,471509060,25
3720118,307735536,219503928,1290423,224106668,1145160,916892,7805708,468182115,30338,354641497,2730,7708,28781,980843733,25
2965152,306713564,228366248,832562,227862639,838330,751952,8053873,460149672,32589,349297190,2431,8535,30519,966372839,25
3573177,304388675,217282426,1279948,223743287,1143408,1088135,8521252,470464289,30049,357321192,2952,18545,31770,979085086,25
2644057,114454184,69744739,1139875,74801331,943182,1209209,9296529,228544180,37373,137400960,1974,7821,6808,437451247,25
3360954,308881703,225945580,912277,226865418,892913,720182,7525420,463292584,29786,350651016,2457,8139,27942,978677126,25
4284817,116424443,114307685,435321,106261593,451154,3033314,9773726,296210139,72344,123219184,8202,10867,48959,429074942,25
3120410,306484320,228952647,835736,228528601,837556,716219,7668229,461140594,30471,349783376,2282,7729,30186,972705748,25
2495402,115749937,83522605,759349,93519335,639728,734779,8163234,218483240,18703,136966016,1878,3739,8938,409554299,25
2695606,140152378,70789357,580028,70463338,678771,1490189,10143162,242365699,75719,120881995,2438,3568,9776,483661907,25
3905964,141403511,74850699,516675,74327564,567070,1376864,9098735,249518309,86338,102354097,2685,3183,9026,466166584,25
4776239,110892349,93005418,567889,86733503,589533,2320803,9922719,277181764,151796,105875067,3439,6124,22393,364608660,25
2548877,139076891,72177315,614124,71733521,771939,1324992,10183219,236528226,63540,127961725,2436,3466,10131,497369710,25
3336304,305282252,229296889,983261,228818240,988487,653812,7784506,461026859,32283,351411746,2605,8986,35456,965244998,25
3082748,141119244,74386833,632485,74044092,750727,1510120,9363987,256715685,71867,111109229,2438,3352,8873,481462021,25
4696211,98807058,95007658,509348,94448021,529844,1168265,8963920,270398245,63930,109682462,2727,556437,24091,321809577,25
3517079,309320987,217687646,1171384,223140168,1076016,988737,8647634,466438810,30749,356926752,2924,8652,40347,995492433,25
2539202,135763197,70915396,653318,70626965,832871,1534516,9960811,236517126,61338,131447688,2438,3196,8340,496607105,25
3504586,137346193,76843257,528141,76120310,571438,1284981,8082694,255920772,75317,103681603,2840,44931,10485,440289071,25
2942103,132621582,87374294,805564,79917832,921897,2091898,11668747,247063017,180560,115849418,2518,4802,12016,458705819,25
2609539,114873422,69994623,1167344,72895403,988951,1171838,9349438,228482480,39207,137761753,1975,4120,8994,442630692,25
4190752,112913668,109283685,430545,104353702,449103,2953169,9894990,291677232,66267,124402871,7761,9624,30499,418094331,25
3208854,323153666,223683692,806102,223757525,812171,933900,8084826,456009613,33460,342001176,2658,7611,35223,1004199957,25
4406566,115056086,82464379,564732,77946536,587298,1440990,8432484,254552763,143645,98270879,3115,4742,17310,374924021,25
2928348,335490520,202574123,1768652,202525001,1748222,2309270,12918322,494942253,128893,344979091,2787,7171,23350,1078236075,25
6630478,331439015,217637656,1741076,214695738,1766908,5863681,21090615,708421928,642668,337032502,4580,21500,49032,1052538780,25
2519063,135330039,71608664,647041,71117222,810394,1626204,10515331,240316082,65327,128503916,2435,3273,9326,493910749,25
3391478,306157231,228186981,885665,228581893,873977,714290,7517449,464992589,31604,350951395,2481,7674,33355,973620601,25
3331736,135790777,84560379,833052,79455602,925490,1803627,11819806,251576926,187230,111135509,2720,3900,11506,463583856,25
4447570,124466559,86370252,575809,82750038,589495,2045263,9037265,270197405,163179,103944998,3438,6056,21448,374229485,25
2605368,125689099,72599774,1049529,72439282,1051668,1384565,10162291,231596939,49366,136290139,2065,4207,10072,469918163,25
3192842,315255098,209141783,1404612,218551794,1274269,1399408,9324162,474419971,37954,358788587,2833,9215,29287,1006950658,25
3000790,133412703,85177064,812582,78750096,923593,2006330,11530801,247101613,178305,117831674,2518,7949,12061,461640503,25
11910442,156986758,117055588,6474216,113724887,6438514,4173830,25759977,745232943,772591,186639452,5364,10973,36329,565692878,25
3251565,143526457,73242002,580420,72382904,658235,1420113,10394790,244041146,83409,116706645,2686,3100,8750,481795578,25
2569626,140630715,73169914,618821,72671401,744219,1496705,10465595,241247051,72423,124602509,2731,2501,9740,488869527,25
3419905,339756470,210247099,1616163,212807511,1585220,1808361,11616346,500061198,82228,335948288,2720,5738,29505,1053078433,25
3326028,143573050,71886026,501860,71840351,571109,1365297,9047554,245502431,82806,112021060,3117,2749,10440,484452175,25
4589247,146319973,76187811,966816,76852463,1102165,4698459,15651574,328774397,235872,152122640,9100,12041,45590,564804580,25
2609118,346999461,194626473,1461910,195310713,1656232,1829892,11443453,488750674,69813,337144356,3113,7640,23812,1085905275,25
2033175,319730418,179587078,861408,185811404,870971,641527,7035937,398350838,25344,316966853,2067,5892,25476,968354414,26
2450229,296499310,198752660,858504,198286369,863653,514858,6384228,394828370,25756,310709044,1865,6805,23543,900163283,26
2443731,296466110,198654202,862218,198385946,868238,590090,6304210,398799234,24588,313630233,1845,5712,22192,905199542,26
2459751,295205214,198823134,860052,198536125,867356,520640,6351745,399601547,27109,313588524,1899,6136,29599,899868645,26
1946789,99924423,73686299,385726,75211140,409263,906743,6925024,188028924,17106,106212651,1949,2489,9106,355620680,26
2415088,104793453,68264390,462735,71144948,471872,699505,6638002,195528117,35415,107024075,1854,5008,11529,367989328,26
2320924,103588760,75178598,444667,75306448,446779,1609542,7702778,207169634,51153,106193772,2902,6216,13446,374267825,26
1917029,99462718,75341795,410305,75922678,433351,769697,6206482,185896464,14482,105551667,1895,2965,10509,348326526,26
2546460,293676423,199914423,873068,199276566,875869,646494,6336273,399870223,25343,314754942,2044,6061,29752,900872159,26
3109945,306507706,206906248,1205944,214009192,1104212,1500924,10667616,455358129,35878,346833422,2833,17255,35521,962025070,26
2228399,306471128,202533066,1150498,202164475,1161900,975214,6977970,429167176,56501,318490216,2449,8705,21317,939888546,26
2331403,103589124,74761785,454496,74102706,452067,1541477,7381268,202756190,50177,102533013,2471,5105,9435,363568229,26
5217283,122457205,104511559,985859,103512447,1009055,6328436,13287295,522364344,868919,132087461,6219,9971,35739,444350251,26
2418452,321072544,186957501,1500120,188485934,1457077,1888795,11858305,448306630,66430,326736480,3149,6456,32318,1011240668,26
2296697,100832154,71712249,446040,72234012,472178,1431001,7800623,200301782,47038,106294846,2307,4479,7771,362434338,26
1912766,99151355,74390296,440433,75455080,462083,639346,5581094,186714125,14898,105785751,1903,2575,8908,350329678,26
2416811,294975060,199555310,858261,199350949,865172,510517,6133812,399817863,26646,315107542,2039,40529,32098,904196868,26
1930261,89742260,87352878,381017,88681952,410903,782472,6981437,193883373,15033,96206064,2042,3861,11200,414556757,26
2583106,108000590,74711551,438604,76951916,454435,1460158,7163310,218955830,64585,106337065,3620,6603,16871,372180044,26
2307392,104032141,74770619,453350,74457952,454453,1557410,7526596,203089954,48966,104067104,2473,4835,9980,369378013,26
2451138,295951930,199207784,862535,198460171,867800,574374,6232084,398549317,24560,313301129,1854,6417,23902,901304010,26
2568208,298214499,200539416,873745,200545852,876579,636031,6354133,405215273,26585,319194270,2724,6493,28338,916769423,26
2469452,297962606,198596032,910054,199733720,919493,807293,6684928,414205058,31099,317571859,2820,9577,24177,927519497,26
1900092,99545215,76015788,398598,76755466,430666,693071,6257543,187439094,13656,107741740,1945,2312,9031,356327080,26
3064590,110043872,78123327,463265,80796667,467661,1557755,7320537,228541855,78469,107313650,4598,6307,13844,382658928,26
1895998,99594602,76834236,422404,77338662,446788,558134,5829448,186360431,14690,108156298,1958,2852,7930,353694782,26
2495239,298357143,198607008,1004948,198395417,1010072,548274,6391917,402918435,28205,313059165,1875,6374,25329,916352126,26
2739690,304520110,190878507,1373658,196078289,1212845,2211872,11950212,453059372,60964,336855841,3289,7881,40942,969937048,26
2320823,102869364,75195237,468239,73219134,460986,1575584,7507074,204324192,53091,101476955,2628,5032,15084,365057878,26
1830602,95291539,72724941,411836,73791438,434069,530616,5336261,183326750,11877,103295702,2062,3393,8072,340340430,26
2305204,100543627,71576753,447275,72845849,460326,1584226,7698058,205008601,47476,105173039,2459,4295,9394,363326781,26
2374089,106362610,78661616,482328,77844327,474045,1533718,7735647,212232701,59840,104360636,2644,5483,14209,365386685,26
449965,7858967,17323922,147312,15101498,147384,144718,1644701,35089478,5838,10762005,1131,?,?,?,26
2270470,102908682,77115100,495605,76937166,486908,1450271,7708448,207303255,58602,103012806,2645,5650,11996,359411705,26
4055870,119209531,87607916,578952,88475088,583121,2064103,10353653,330334133,210383,122139661,3034,5599,18222,410412230,26
3267743,107785642,73326073,467826,74766676,468868,2026882,9888836,220258414,71478,100155015,2455,5476,15311,360665605,26
2320773,103851773,76480967,444373,75375936,455549,1527373,7517712,204778924,51744,101927095,2550,4652,15274,365416596,26
2294248,102158634,72393346,425548,71747742,460966,1573685,7534580,202265431,47434,103597694,2463,5528,13572,362794498,26
2469258,300589966,202748931,878881,202326256,879761,568372,6415204,406486891,25441,318976489,2595,7402,22061,924118640,26
1909538,99181114,75529023,410161,76232966,435040,713054,6199187,185613213,12890,106388817,1855,2522,10596,350853521,26
1945080,100201839,75000257,406690,76326106,437651,786083,6371640,188203508,16543,107585910,2040,4457,8671,354545607,26
1946867,99923933,76403155,387984,77029564,418818,694642,6382954,185750970,14218,107318697,1852,2848,7857,352851109,26
2502239,292506408,199325718,868638,198929057,873749,555282,6460973,398465123,26197,312601870,2034,6590,26047,895553433,26
2457508,297866318,196399516,862199,197292469,867079,529219,6421104,396198664,24078,315824036,1934,5156,25695,918119672,26
2014058,104152020,71248680,671088,72301821,633358,670831,9686580,194242447,18330,108974564,1951,3873,10412,368288855,26
2434731,298437692,197066057,860882,197825159,866465,658108,6376529,402493110,23928,315896811,1940,6834,24186,914690118,26
919607,73009345,57416179,68944,53023194,67982,222899,1754915,113145246,7929,73580150,1611,3621,11608,257140376,26
1949888,97036592,72893987,439275,74587842,459301,587038,5509494,186485987,15940,105646871,1899,2365,8267,348263262,26
1963963,99856958,73761051,442743,75504484,480783,1219880,6459849,193961994,14373,106588009,2059,2808,8697,353836394,26
3680594,328877540,208070095,910404,204108981,901069,3272998,13610775,540199734,243213,307752985,3117,10056,30633,971693323,26
118253,5935277,9581895,157843,9571108,157815,158038,1762288,26301747,9218,?,1134,?,?,?,26
2308803,103268184,75344583,434081,74033520,458087,1478416,7472054,202168460,46509,102968315,2459,3949,11351,364836064,26
1932155,100657360,74839329,408202,75836942,432629,758562,6331539,185937167,14923,106723899,1897,2898,9645,353434219,26
2517590,106900079,72364877,609563,76373464,555751,1274420,8314824,202482843,27255,108977467,2466,2806,8519,374169246,26
1923890,98672189,75451869,406726,76251536,431277,824835,6502325,188407998,12945,106306120,1950,3299,10065,348892476,26
2936448,112248958,88463142,263800,88559846,257478,2761872,7950518,263254428,251021,116495869,4043,5650,27580,408705548,26
2254509,100809190,74184182,468439,74505967,467783,1529287,7588220,204160832,48658,103490763,2271,6460,11474,360771932,26
2264900,316063648,193815117,1108768,197779261,1130354,1220820,7646792,430619421,57098,323155126,3392,9696,25392,955853406,26
3573188,112830459,94409539,748631,86559043,885271,2058638,10352592,262449538,216396,105830473,3891,8902,38865,358498090,26
3740104,323183577,205566529,1072725,205409132,1074592,701574,6999129,472596247,40495,332895283,3008,7646,31400,1013653786,26
1942763,100766638,74874494,388761,75672654,419805,771348,6322759,185411228,12959,106374806,1855,2643,9002,352488894,26
3103195,326500896,188353237,1309187,188269094,1390805,2196539,11825878,481543497,237250,311410808,3202,8602,25613,972182840,26
2345255,104223407,72611172,433094,72775194,454439,1627172,7452010,205539902,52863,101945030,2659,6514,12538,366478052,26
3442092,115700092,67780112,573158,67358067,652710,1264942,9242643,230119225,95413,97004305,2539,4264,8780,379208832,26
1964499,100540613,74785419,375164,75849868,405264,870581,6713586,187869247,14675,107504414,1945,4293,7254,354309113,26
2323571,102480395,70412431,447520,71850742,450220,1656008,7436560,205639185,50140,103174251,2796,5053,12100,363295361,26
4232193,307831714,214665020,1215363,211143674,1186474,2462433,11887467,553386300,246753,307139994,3028,9895,41475,945175157,26
2638948,108331963,80394051,464222,79328481,515609,1592695,10567349,214778081,67129,98993387,2457,5991,12646,361742383,26
2228510,310612579,195736993,1041196,198864690,1056329,1096640,7246484,431215194,56462,321966222,2654,15584,25975,945273504,26
2538904,294600051,200515637,874420,200207122,880645,628256,6452655,401604477,26145,315365229,1947,6842,21395,904175576,26
1920457,98195006,74348204,420060,75691070,441910,677321,6018633,187850191,13902,107311757,1917,3251,9175,351642619,26
2303662,104106218,77640706,474823,75830173,468134,1661421,7539970,207253117,53888,101312477,2644,6223,14161,364864677,26
2435388,295742081,198894513,909216,198354100,919173,590358,6236720,400706591,25095,313120776,1849,7001,24996,899281242,26
2481657,296625435,199955892,866899,199668928,872168,574418,6420941,401747050,29060,315600161,1892,6067,23847,906242102,26
3591794,107557012,111710068,835113,119473876,947996,1873096,12037697,342059061,185240,117384087,3266,6567,18018,362140149,26
1910886,97523561,73304336,429302,74635553,448838,613680,5559031,185566255,13421,105391693,1805,2890,9214,347942152,26
2344372,103114143,70412932,444976,71591941,459422,1725722,7491146,207861326,55171,101727676,2858,5614,11766,365676184,26
2329571,101484771,70493004,423836,70964214,454090,1624325,7453376,204041129,48655,102337228,2652,4600,13566,362730411,26
2471275,294578576,199382766,865251,198987807,870887,560135,6287113,398056751,27356,314920169,2049,6810,28069,899422545,26
2590989,296590957,200747575,873269,200871367,879206,611814,6488592,407819163,29704,317055908,2436,6528,22541,916415673,26
1941074,198047218,116113004,1476054,122421015,1482707,992184,5217818,328130898,34939,183810537,2242,8726,16464,713867818,27
1992988,526967863,323035676,1404702,329986180,1237888,572298,5047602,637967560,24513,541827092,1822,12870,29097,1617157559,27
1697833,137153213,127963294,298292,125140174,317163,1148646,6142140,279780866,35634,159243685,2243,4932,13508,481637980,27
2653273,159444103,129697095,1409901,135506199,1061114,906217,4750207,323154676,46747,206222124,2296,26378,39849,604036293,27
1857573,39597435,37885801,844399,36881528,666406,438500,3502215,156879175,11467,40740841,1867,6682,14285,202627513,27
1909630,161329743,116294045,340964,117151682,387267,1700999,7165937,290933330,39540,152352654,2437,7018,12466,531826357,27
1762064,133768059,137906435,278977,133099064,294892,1174837,5911481,286126648,39379,167865133,2288,6195,13303,510466591,27
1735294,137848329,140795131,281388,137199975,290839,1111514,5757364,291588915,40293,174484991,2246,10291,16715,519690435,27
1725427,134923609,137464277,278912,132100969,295969,1123840,5900610,283232138,41046,167932706,2436,6221,13225,512546855,27
1768917,140989426,140518163,270121,138998818,280190,1024518,5723905,290202419,40136,176486441,2244,12569,18855,520216128,27
1828551,135091484,131609887,290857,127557033,373153,1557955,6584048,294678464,41723,161210527,2342,5748,14898,488785788,27
1738761,137250577,139814659,273850,134642320,282700,1201330,5921031,291292001,43150,171766389,2241,6006,14000,521041939,27
1801797,138247681,138421565,277554,134187167,286093,1200909,5892963,288280838,42001,170913932,2438,8075,12947,518572378,27
1521664,140225138,124509259,294123,125011787,300500,715232,5250553,267704324,16660,157632356,1826,3817,13011,473628121,27
2202946,183449106,112742512,1692980,117223407,1330121,771622,4254259,304510057,27164,209945675,2265,9432,12639,668610465,27
1465269,544240634,321094452,2506447,320916064,2510909,909821,6200294,663936748,39216,520944191,2239,14351,33780,1635662438,27
7406154,611343343,381690488,2983436,381821464,3007670,4455541,13825720,942380233,295551,585493285,5095,19297,45374,1838098386,27
1841213,138732138,129993641,277873,126691768,298581,1250495,5973624,280629107,42554,163226963,2438,10630,20589,502522802,27
1781593,137140718,139670908,271095,136380328,282940,1170585,5896955,294344451,41572,172619097,2242,6414,14726,516169582,27
1461598,545834819,322430885,2439519,322256810,2452316,962857,6136798,667352034,39041,520153659,2238,10298,33181,1639736329,27
1748825,151578052,140093635,266120,140164500,272201,1035674,5658893,294498927,38385,184483861,2828,5349,16061,546663366,27
2216868,153391263,125067561,1234274,132584886,923593,762122,4167861,311324212,39777,199128133,2339,7246,13378,577883265,27
1742397,133113127,138151811,283119,132747613,290650,1212087,5936695,287976926,43600,167233184,2266,8280,16082,508896667,27
1531127,547042049,321932975,2482631,321722486,2474145,1174407,6399259,665384471,37366,524698695,2823,8224,33129,1650645771,27
1689696,136813086,142065751,286373,138410264,293598,1210496,5978141,293059859,41101,168311464,2244,6765,11600,512559312,27
1981651,163877867,135072551,905624,140769648,696350,653909,3965563,302524171,21969,187304588,2025,11416,8965,563597862,27
3683302,144659790,119901036,1724797,127628653,1254008,757077,4456738,319443948,36830,203646288,2289,6980,14596,580796765,27
1708682,135775549,139633112,277645,133480813,286227,1315771,5915445,289713823,42921,169863201,2245,5956,13129,518889459,27
1745553,132076598,134395908,277916,128809993,301846,1270131,5976808,285099006,42185,166406808,2288,4853,14800,503631904,27
2064914,524084960,343621834,1390029,341411447,1430228,2461848,11351541,701728599,64655,523727049,3428,11097,39380,1578855642,27
1756250,133023844,134145385,283627,129882876,299166,1274465,6030249,284464340,44001,162620477,2243,7888,10861,495405326,27
3508350,558653802,375811960,1768138,380976007,1773659,3080124,8716489,856315316,229550,609572643,4909,17642,37418,1755489063,27
1825946,134714922,140780291,279583,136344306,285323,1183563,5934656,289611211,41429,167579124,2632,9209,20043,503532158,27
1593867,547704199,322541910,2382268,322730358,2389458,932550,6066413,661071209,40078,528165533,2261,11466,29002,1656305005,27
6699252,193984479,186043427,1252919,181959912,1481678,1786779,7555884,453204052,58488,216505884,3995,9373,23551,675583410,27
5390855,194288146,113877830,1703066,120007314,1609753,2430655,6318436,421295554,51407,224334838,17092,73845,61714,791457444,27
1863655,135008889,140174426,282042,135447418,292541,1243515,6013201,289916692,41863,164940217,2631,8864,23071,499206020,27
1708034,134614118,139958562,284357,134977413,291716,1214294,5963181,289134801,43960,167555943,2242,9385,18281,506641258,27
1781373,137666765,139532988,275865,134266775,288231,1236937,5981948,287454928,43832,167478928,2242,8081,14374,517096143,27
2045385,151483471,131142896,955709,137081053,732262,526890,4378891,300277823,24321,189737690,2024,10360,14460,547310583,27
2720114,233955660,144313800,1187049,143988110,1191905,3885009,8804458,454702764,340456,222475763,4211,12520,32464,859266013,27
1687968,138919661,140300197,277328,136639762,287909,1188669,5876002,288857890,40984,164393560,2242,8308,15217,514733278,27
1522156,138673989,127488573,299655,127877083,311233,818435,5866670,274481405,18797,162545480,1829,4140,11610,485527888,27
1705822,135430365,139160849,281174,132900940,292190,1220988,5947509,287596070,50705,163754351,2245,6596,14466,503735676,27
1472543,538055838,319746948,2666982,319399947,2671108,1056204,6299550,669856905,44123,518861255,2238,10271,32838,1632331914,27
1744949,141693571,139803012,269113,137522673,277943,1293859,5863472,292343457,42930,178379611,2831,7300,20012,531676527,27
1717721,138739689,140701219,285704,139703759,289909,1025618,5886492,295205809,40068,177700173,2290,5365,13075,524168816,27
1456099,543721154,319879579,2479895,320007823,2489951,1052413,6197596,666910368,38858,518718122,2240,10015,31397,1631648534,27
1866766,138877229,127951603,272414,124568736,293640,1437804,6096618,282792949,43017,167996295,2243,8113,15667,514440613,27
1563446,545748603,324252307,2358741,324015930,2365383,928434,6021906,660531070,38889,528938689,2237,13471,35362,1664895027,27
1471337,146175672,126799580,300437,127962682,305371,808546,5577478,269206803,16601,154203323,1830,3934,7678,479902730,27
1744152,141634971,139779939,271133,138331447,279300,1214818,5638002,294567942,44093,177729206,2874,10668,17769,528469682,27
1732984,134325521,137054339,281840,131236524,297793,1226345,5934998,283982617,40799,163936993,2247,6195,17306,504107728,27
1799372,133974073,139670952,285210,134188397,294443,1171239,5959095,285379470,40723,166102651,2339,14524,16360,506954616,27
1549614,117735525,159920902,282843,155116551,303163,1002038,5685717,284061104,21853,135356351,1876,4720,14090,554631714,27
2027796,140821071,140398727,289742,134067382,433555,1246115,9908531,293501418,58954,164159005,2498,7625,21322,521445389,27
1521615,141457014,132986732,234996,133170070,249410,722390,5297993,273235835,18963,181363588,1833,5329,11370,530760527,27
1505931,539137967,320655701,2010024,321650017,2097927,1294787,6509697,673891262,41857,514382418,2874,13633,31713,1617100843,27
1655488,544067848,325390515,2010580,330452837,2053193,1352463,7526069,680000845,41997,538298916,2236,8567,34909,1622603526,27
1727778,137032472,138901807,274992,132870508,282668,1275776,5847593,288298208,44137,169712708,2340,6728,15563,520467166,27
1454429,543283840,320167640,2479563,320534636,2490401,1103940,6347773,666502476,41551,520995464,2435,10054,31233,1633646750,27
1712292,133220039,138348537,281176,132533760,294108,1210399,5987953,286561419,41577,164381547,2242,5113,11668,501338313,27
1560138,545008048,324096423,2160858,323853861,2171570,967904,6292369,664336993,39392,525788551,2235,10668,34100,1652956484,27
1786788,140946012,140992734,275171,137962679,282364,1074195,5725805,291807788,42738,174391665,2441,7822,25038,522988917,27
1829541,540141397,319723871,2445749,319713738,2453270,972482,6241960,659458081,42922,528621531,2284,7524,33765,1658951937,27
2228937,164231480,125735394,1438830,125697642,1257190,830078,4393772,317483701,35130,203122403,2437,7817,14692,618748531,27
1578801,136100313,132019991,272834,127734304,287222,858377,5728871,275843626,21123,161492923,1828,3669,10950,490460943,27
1709310,134445366,137660796,285520,131708498,293015,1310171,6019458,287073594,40520,163687195,2243,9797,17866,505438518,27
4710255,591586708,348403794,2317131,354938298,2388427,4340403,16304750,894866711,337723,583301046,7400,25612,64066,1829282064,27
1855737,135869309,139718279,283247,134257641,292914,1185624,5978845,285858502,41617,162009197,2632,8978,20999,495083123,27
1495099,542358049,320656473,2581081,320541772,2595783,1058834,6222546,667511312,40224,517335103,2432,10251,35537,1625122900,27
1697629,132949439,134830127,295938,131073499,311536,1214772,6188506,286191684,42478,163803343,2247,8600,12268,500122294,27
1563123,148106324,120784776,322459,122797507,324974,612959,4241841,268410795,17585,158912940,1828,10171,11512,496583544,27
1486390,540359919,319341838,2490500,319128027,2497774,959008,6118949,666564436,40657,520045050,2236,10911,39116,1632242049,27
1541012,134332315,131720467,281035,127826634,296984,786373,5689121,272532442,20811,161667692,1827,5332,13908,482175267,27
1939248,525708833,317914874,2250661,323393728,1797685,583629,5325088,646719169,26819,540237862,1819,12249,27996,1620851016,27
1608418,531743685,333437108,1832964,329451614,2097052,1832276,7855428,680236727,44862,514191472,3016,9167,32232,1583578373,27
1526922,538119425,320120171,2569459,319900524,2582439,1046553,6507922,670470474,39255,522833012,2237,10500,33918,1644807339,27
2060729,151906271,138149987,353536,139442646,332306,1110137,5469501,300219278,40997,189141132,3806,10421,17767,554688581,27
2256491,169510193,129476980,1431973,129436055,1354005,779717,4492078,315756400,33592,202455591,2828,11122,15249,637374832,27
16163230,456864765,290210853,750039,289289477,757185,142831,34212115,709256572,129374,444084345,622,325871,6638,1278845502,28
16226258,417779679,173210796,395224,172759972,394824,44818,33582290,412524804,11847,428832053,641,6334,4069,1492273482,28
6628002,345105031,356562681,619185,354504402,609244,90659,15252608,450078686,13619,353114092,631,4026,1974,1572622017,28
15280747,533109615,246899557,919947,246371923,909855,242902,38263765,941426932,218870,592027262,616,206537,421698,1710749742,28
15546454,533720755,153074213,382154,156574710,386340,32494,35509956,421942838,11504,552038263,631,2934,3274,1433508635,28
17238617,534247714,219614470,640993,220159722,648512,79976,34857020,712102808,122156,530925391,627,422962,8704,1656814107,28
16442731,426666838,165879739,399182,165764609,397620,52026,32640267,402676716,11542,433358111,1130,3273,3571,1454076372,28
17729801,569935558,155907827,415921,158637994,416647,221234,33798915,433393338,17281,573527571,632,5145,3690,1489473435,28
25960703,286577153,365238779,712905,364328490,709216,37642,24299464,506174440,13310,287537750,627,3776,3097,1523235123,28
16426305,423827022,164181851,391780,164156719,393060,40121,33332527,400729900,10947,429820940,633,3475,3432,1442824244,28
112172322,372457442,360275495,669656,360495656,674159,589813,34836767,572018295,15332,369212903,1118,4278,3785,1386593529,28
16481312,429392005,355528475,1121577,342926345,982540,597548,39555300,635112193,24111,454075086,1124,4936,2772,1080179772,28
62926856,430041939,361154961,546821,359399940,546286,69297,23624650,635739221,16659,433961436,631,5248,3470,2033838811,28
9113976,303070238,290227962,775824,290126337,781178,94582,16658609,305252906,8900,311449231,1038,3077,6495,1121998723,28
7835428,315973096,231474105,793614,235218987,781304,104598,27258893,599265702,111595,349555441,624,324977,207418,947513048,28
17941054,545083183,231186362,646314,228240247,648057,83360,30263123,783567734,137239,507416879,1565,312491,285437,1771423876,28
16753646,423374429,172242066,389682,172322113,390951,37275,34534815,399925428,10694,433483881,638,4621,3163,1370357574,28
17673621,432868238,162611574,443262,163156007,444358,40267,35133398,392497486,10177,433282335,651,3756,3261,1340439333,28
17175015,434907922,165225687,399488,165005736,398275,63706,33189701,397293372,10645,436022975,1123,4370,2946,1474533910,28
16921936,534214693,346275024,762950,346243325,769192,57014,34494808,803125997,122469,531160294,624,309843,407307,1371835680,28
16386273,426813682,164093501,394272,163908586,393347,46934,32058723,397083503,11237,428054587,630,3028,3591,1441865336,28
8381512,326748395,297970013,764135,303035101,760456,297861,26570382,682126315,115665,341381300,623,331422,443014,1308790490,28
6132513,517055094,408793320,991873,408438960,991987,72444,16316423,672128441,117708,536722667,1123,332809,341571,1596798909,28
6774697,635293371,487928512,827526,489372455,837556,260878,16599910,1122450439,134205,634492183,618,303205,197583,2547598042,28
6271667,285378501,359739782,670733,356277310,670267,65161,13734522,494480166,13824,285398519,621,3972,3207,1350257116,28
16533375,527243130,233643843,657728,229473071,653600,878507,41685695,747378765,123479,532712832,2120,324548,355387,1744245676,28
202806359,555296787,165522979,526548,165955357,529063,90259,73800650,1227690932,31098,562025763,631,8964,4988,1719798607,28
15630186,537511940,151176666,378310,155009119,384356,31590,35575241,421384475,11623,555232136,631,3362,3032,1442594024,28
17438319,540116402,222491497,647587,222549662,647738,71927,34799725,713439959,121080,537346412,1120,299578,124374,1672104679,28
6361750,348931968,329866775,519721,328828045,521928,81872,13017215,489383195,56336,351173909,2115,3184,2732,1929126904,28
17751882,425021966,286139315,533584,286080463,529840,78205,36385909,554525701,15498,433930370,808,5419,3401,1191145058,28
16107537,421239888,172939245,391726,172957032,400205,78638,34171048,415337123,11967,430176145,622,4040,3916,1493753955,28
17293524,460695041,174775742,617377,174737075,617629,43903,34970280,629393522,118467,455502873,630,293423,243710,1461411509,28
15888479,567718123,184590785,744459,182502196,749076,98676,36532838,687082710,122472,581451365,631,517483,382413,1518244002,28
16921786,530516053,346756285,768367,346440424,784605,89663,34389193,801200808,125331,529763632,622,305081,364321,1642131842,28
17308361,651257801,214264328,655409,214110852,653779,92361,34940810,776806369,120930,655755174,624,98744,122881,1777058986,28
16416332,525127523,222324192,663194,221530592,656235,274828,36731691,730332540,124434,526072207,832,321745,193537,1719623730,28
16053307,566179616,175944300,627431,182695540,631522,697396,38923741,682419567,112980,633482780,3374,324167,311726,1532954170,28
6416039,410077364,389562303,837183,376872668,847928,160497,16426327,831497911,126550,398534992,643,436018,113721,1506722694,28
17206297,535779330,219952512,655996,219925579,654135,42297,35113116,790141686,124771,526701221,623,411894,11200,1782042905,28
15248515,503858057,364281214,880612,363774651,860634,190877,38918584,689352785,113464,558429488,1107,310012,418352,1360039534,28
16171196,920430853,164626184,499080,153379792,483211,146074,38053173,1010187767,29748,935440848,645,7069,4184,2200848114,28
5991201,555091872,392090125,786479,394146545,799099,195690,17998506,933855277,119952,586665614,624,349214,291943,2185056540,28
8669945,333845550,235726811,897799,230788650,896785,53992,25696894,670253858,118846,339363882,624,326699,259205,971793273,28
16813972,424029777,287090130,552115,286996495,557914,49133,34601618,558963084,14878,432229003,624,4898,4028,1190291171,28
6879587,377424206,365443805,748469,365743270,749212,62591,15697629,787902983,122418,376580974,635,100092,289801,1533080341,28
16832653,453265164,175758776,629551,175777641,626997,76338,35298319,636581371,118471,457234775,630,102340,290631,1445277817,28
6989393,392068904,406086476,1002797,406191143,1000729,81534,14226844,723044074,124009,381292171,822,109612,9362,1727105947,28
6103319,362826216,638930692,759105,643161918,751993,107198,17579808,834735291,117132,371993806,631,335595,194670,1910639716,28
196909011,586635233,173301616,671454,173263277,670012,47033,48490484,952431450,128752,574963705,630,102256,100303,1677565711,28
6902099,453251084,410116645,774702,410043335,774773,78297,16420698,943820390,122968,456487548,1119,284468,178359,1749764312,28
215565821,526333755,365089161,1209370,364056324,1249842,118399,27741427,935216735,116876,556233284,629,297602,221865,1823105170,28
15089628,407215934,290893169,528075,300502143,516599,76399,37237469,353057448,10801,449692478,632,2609,2557,1182280665,28
16125466,414148782,173199486,397175,172592083,397809,51288,33616070,412026659,11200,427637303,632,4239,4058,1488652211,28
15920888,537729804,152926222,374057,154758730,379499,34457,37690381,424563216,10848,558347964,650,3385,4134,1438468394,28
57088824,522822605,404888121,973065,406207156,965893,394531,24439542,956294591,139124,529082018,2000,309819,411028,2056806337,28
17302788,555249019,163795018,402840,163772077,402007,72015,33317661,469519278,11924,553791760,631,4421,2902,1450178523,28
16571630,422557720,163429539,392086,163399397,392725,42650,32726131,401971978,10555,429328815,645,3386,3234,1445432593,28
5815646,295928491,408009997,930498,407654445,922380,164455,15904526,665951266,117288,301197493,624,115382,5441,1522809153,28
17073501,535593280,345178076,781145,345110073,782014,97156,34357202,798392266,123623,528970253,624,304677,226022,1372874735,28
16326928,423367780,163732905,392803,163642068,399209,61911,32589319,401860714,11250,429045458,630,2672,2655,1441219756,28
17040953,424846208,163827288,392042,163478012,391754,104513,33599151,364783777,11530,445950868,625,3263,1883,1356402388,28
6199344,383101997,444293243,854898,429123682,858867,54578,14599946,740468403,123938,376483544,1106,325241,254078,1673475303,28
16579338,821185846,423612742,885180,424002842,890240,112600,38416267,1102293328,124853,847646052,629,97455,166747,2438550301,28
16353473,423122323,163956434,394049,163831984,396494,59981,33203557,400959220,10937,429066080,637,2666,3267,1446190497,28
16366598,423531977,163197434,394924,163051755,394488,50867,32608594,401974919,10830,428918149,631,3241,3351,1441511962,28
10416305,244198770,162017368,672330,162658990,676802,75489,19356261,233444753,6727,245702279,660,2407,2162,705742577,28
6944861,455882000,440772085,1036133,441480880,1033044,219827,13977748,735710187,126180,439927672,1638,322102,230561,1624203564,28
17225999,426351076,163085345,392801,163199963,389871,77013,32972527,390794502,10721,431477059,631,4750,3139,1338962191,28
15910938,420871280,180925031,472469,180656422,476837,52601,31812422,326409209,8996,428808720,632,2296,2041,892222973,28
34891238,435324637,164604415,424246,164816933,416418,1778941,63387789,463624926,14653,436401046,1124,4356,3163,1472644682,28
16264363,424373660,164398897,403855,164082237,414008,131711,32523011,401510690,11718,427426037,642,3225,3444,1430792801,28
7309464,358185395,382423926,785465,382698012,804120,83210,13312051,400557972,13034,346297069,630,2771,2992,1341925538,28
16072052,424633746,163675192,397387,163513400,399825,95920,32197684,401392082,10949,427545164,625,3217,3456,1432644484,28
6804934,349152229,347644526,662436,348782133,659041,60089,12959027,408397786,10729,346456146,630,2804,2921,1419649603,28
15306919,546203261,186757501,612270,185432898,616567,43847,36874249,667675477,116859,573453903,627,333404,266820,1461008481,28
16150371,522980171,220339906,662138,220194528,659709,100094,34822060,732733031,123478,524909246,625,316509,360039,1728156865,28
9964157,337750636,225487937,889188,225303978,899852,49006,24211509,557797839,115411,346405317,622,307503,348012,1011808745,28
16291107,419600025,173751831,395183,173663616,395370,34293,33712546,413919012,11095,430799596,1065,4367,4142,1496344716,28
17332405,558055739,164273570,406449,164270260,408066,57575,33421898,471490024,12781,555088707,630,4915,3718,1455223115,28
491218,71601953,48486492,52390,44101035,60922,561875,1742695,92495154,16473,50365487,1959,6100,7123,219407295,29
362004,75340390,41652121,29567,43013878,28785,156260,830728,93098584,16922,68317495,2604,2947,2704,257575018,29
971557,140148679,109746298,64949,101399214,75477,1178394,2861848,196192786,27626,144564187,3485,4623,20602,490047908,29
519178,113749705,76327181,33661,78651998,31887,481823,1633117,160310818,10372,128692055,2605,4719,6891,389971916,29
473447,117907044,78147485,39994,79235942,38472,500742,1750336,163306149,12104,128115488,2606,3379,8492,404838035,29
1121761,138370340,109725795,54042,101272440,60403,1045926,2684456,198303077,27875,140740993,3482,5625,25980,484845430,29
1348153,89083425,44505069,35688,53163476,39827,1004125,2234526,136622358,9448,113102796,3555,5891,16843,386150439,29
534297,72710011,42949117,31924,43753084,31190,162804,825261,93791705,11701,67433582,2546,3919,14675,257202776,29
391055,83541330,45377778,28549,46797062,27824,111532,676758,93800793,10831,77057170,1959,1836,3849,287628045,29
504979,77005300,43863273,38012,44339831,32708,276171,1071729,93167247,5670,68729606,2154,3218,6820,270067657,29
457244,113487470,79831520,31604,80128862,32208,54938,678501,153834119,5611,125479567,2048,2396,6820,382132047,29
990263,69609626,68067122,35656,68065605,33365,588941,2042727,134920523,15808,89491805,4136,7749,27561,294632660,29
3071566,116579370,96188250,75824,95005991,70161,998179,2027951,242759801,19704,142339688,12498,38831,66144,437044984,29
423414,117020232,70017495,47477,74247532,41384,363660,1414028,156612503,8582,126604771,2245,2290,8099,388253280,29
1155493,73003516,71229413,34590,72182141,40162,380954,1800354,140453479,17794,96610427,4818,6008,25006,316640804,29
213733,117646982,78153573,33969,79046156,32104,276323,1365225,154170217,5191,125845198,1951,2949,8273,388812500,29
499539,75390192,42147978,35032,44595935,33025,184852,895451,94571298,12654,72241235,2605,3705,2557,274449027,29
1290255,73639925,68742050,32275,70194252,31513,823877,2053041,126715534,14941,84823852,3488,7405,26497,281806642,29
442195,77197163,43262395,28030,44346031,27520,105175,656388,90598695,12312,69094225,2152,3995,12181,268620313,29
513327,113356611,69977054,37639,74210576,39809,411670,1502953,158566678,8094,126415190,2596,3965,10554,383867550,29
879052,67001130,69913410,30982,70383335,32788,347655,1633911,133284543,14177,94264655,3877,6379,23127,301587598,29
351081,77528197,43537229,26401,44590699,26787,107603,666504,90052591,9552,71257717,1959,3342,1428,277067567,29
431706,77983075,42828276,26663,43080567,26203,103753,651643,90527782,9820,70844917,1957,1923,3394,273824234,29
542691,169446580,102555694,544774,102903873,538099,165266,2562599,634366030,227848,165611816,1951,210597,160908,545840429,29
858855,72200113,69098728,33277,69828299,33086,594151,2063809,134440001,15847,91934770,4138,7166,27898,292622416,29
495626,116545722,70266879,58063,74851073,56598,598223,1896524,163671757,15052,128698938,2599,3614,11213,403226060,29
788911,73040431,47970608,24630,46634485,24663,95519,700554,99033818,12174,59688246,2928,8525,28629,250560633,29
1486642,82897927,51833830,47521,62716800,42379,744180,1914841,159831330,10322,118280767,4291,6369,30341,344412503,29
439972,80672444,44410164,24952,45684936,25983,107710,666559,91376399,10641,74483897,2153,1576,1796,281273158,29
443249,78167602,43512543,40969,44666302,36871,181145,770642,91249875,10055,69254812,1959,3381,3596,274447126,29
385836,40981111,24498944,22099,30926059,18096,251839,908470,63419668,3824,61793507,1957,2454,1401,188366644,29
419235,114374727,78682846,34771,78966541,34840,68753,703392,152977455,5679,124522003,1950,3199,10366,380469090,29
453555,66050949,58688267,43507,57791915,39503,256169,1209384,110890860,9525,76069731,1955,4785,4083,291520589,29
544613,65033441,59334774,43338,58149849,39349,295996,1252486,112325215,10000,76676331,1952,2925,7452,300805945,29
1137830,72708661,68064505,33640,67035703,34167,883480,2219658,131002323,17891,86438686,4136,8740,31336,280904944,29
1093360,68509015,70467884,35011,70464406,33019,400429,1748399,138317054,16881,95321111,4528,8104,24579,316520238,29
487493,78549307,41522436,30174,44062134,26556,190109,893622,94177553,11143,71848631,2605,2637,2406,275504787,29
1448297,57735583,76497232,27452,76801316,29395,625602,1756089,129364294,15232,89590566,3686,7893,33850,252552700,29
1962492,162687881,92640931,68802,92794403,73124,1246624,2380862,250440328,23120,141138262,9541,22746,36060,564807050,29
453402,113764864,73111384,43812,76056232,42629,331673,1356213,154472314,6673,125732840,2146,2833,8957,385812620,29
540884,75414382,43237802,31988,45271125,30968,172994,880873,94440546,13492,67973940,2606,2811,8952,266786637,29
618688,77211321,42713465,26711,44036797,27539,173610,871392,94595602,17218,67183178,2605,2848,7978,264326409,29
368003,80626220,43933103,29924,45040220,27379,144452,715310,91522756,9661,75033927,1959,1553,1448,286984904,29
430832,116027254,74840201,35502,77777380,33327,274679,1246673,157415302,6097,127989477,2146,2380,8910,389131111,29
567007,77202817,42555480,29104,44573548,27560,175798,882757,95606114,12004,68084383,2606,5955,5126,262673561,29
649272,147172086,74427636,72013,71153415,75187,2098768,3588752,200231953,38986,116116359,7420,17009,35286,465970471,29
1043796,71131189,70539940,35736,71514604,33042,586609,2000931,137765186,17756,95895429,4528,6618,27355,307291731,29
894595,139053364,104581290,69717,100145477,64515,1127693,2949840,191667419,28035,141058522,3679,5203,22569,476462857,29
905400,75420594,68434007,48174,67402569,44220,934661,2277573,131689284,18706,85136655,4138,11562,29615,282169076,29
831909,137776259,109365150,67787,102375475,62550,1155607,3071538,194605053,24578,140708628,3482,4882,24479,478504835,29
428879,75577067,46883953,32040,46633638,30023,138173,723664,96599217,10715,69416132,1957,2085,5939,286988229,29
441002,115997124,78346527,38238,79774872,36305,178150,1030031,156450367,6570,128482716,2146,3147,8423,393251785,29
347077,122148798,76016902,36861,79035929,34154,241316,1287690,158500683,4956,131668910,2146,1722,5261,403242984,29
356936,77127717,45853897,24612,44450201,23334,102794,724468,91653460,10172,73791069,1958,1802,5268,289320381,29
7854703,229862397,179030557,246795,172960685,237042,12299609,20175639,677319814,198621,210296389,60905,190849,274824,888602411,29
443800,115996164,74787140,42194,76398616,37919,359313,1470761,159568810,13025,126435318,2598,3032,8062,394729343,29
1382463,138231049,98623437,90215,108837566,83216,1531885,3296786,214691345,21752,148623289,4717,17869,33860,488881600,29
19023262,202630305,149528524,559701,151442252,545917,4194947,17417964,781972031,106057,205707060,37389,114615,106575,691781922,29
9235346,144692347,129497513,1174625,126799153,1184369,3102850,6683984,393701197,49320,138250254,7261,11702,43986,458298253,29
358997,74857687,42373001,30860,42132128,30099,133404,677790,89563724,9169,76218434,1958,2024,1097,286056061,29
1190732,94829523,52263366,57928,63955328,51957,1327518,2879826,154490581,11342,120756576,5852,12172,14025,385971005,29
415103,84326183,45628798,31134,45650994,29729,139690,861967,95721991,10081,74090371,2352,3291,1805,285117270,29
411786,116227810,74517555,42530,76789932,38924,181691,1113193,154087543,7790,125495822,1950,2816,8412,383072514,29
1138429,70266531,68475056,30606,67839491,32019,747566,2183741,131068930,16003,87019075,4137,9785,25754,281616744,29
5133876,161019275,116260070,266204,115121198,285994,643484,2836958,304552387,26512,149501142,4852,8024,36267,483213051,29
417898,116852073,77799298,39562,78582351,37375,305822,1236856,154663800,5356,125754973,1966,2921,8731,384891805,29
397979,78070355,43497749,27837,42931180,27980,121575,659390,90866279,12496,68464581,2057,2093,5174,267359608,29
989983,165435324,136665579,504778,136244449,506263,430043,3079889,666734503,226174,200549770,3482,217549,23019,585177776,29
911412,71504064,69923145,33048,68770253,33182,631830,2055778,134789268,17172,89427575,4137,10313,28792,296815009,29
1250526,74580300,71105925,46651,71354664,42080,915268,2212963,131007274,18127,85366023,3488,5775,28237,281379996,29
1030011,72378626,48153694,26896,46732941,27239,103701,694346,99930139,11712,61809220,2597,7878,18890,258675083,29
374966,79243847,44309647,23169,42928489,21966,86662,647015,89271696,10061,72634980,1958,2535,3016,278462859,29
389634,124121682,65555247,40333,72963073,36385,532258,1764291,161658425,13244,133853925,2990,1792,3573,422120986,29
1130767,69086086,68718997,38021,69634273,37160,314977,1659924,135274857,17051,96175021,4136,9074,23671,306648660,29
353421,75356356,43927586,25685,43328641,25180,103039,650826,90163829,9423,76801226,1957,1090,1068,284376938,29
407234,114203475,78172578,40751,79222028,36841,322011,1297561,157688258,7162,126496737,1963,2607,9098,387629713,29
338198,169886827,111877476,514018,107366638,518341,470015,3340348,629750912,229184,164166737,2370,214298,8478,542568893,29
541716,72952705,41952972,29259,44069111,29192,180582,893118,94005125,12865,66425461,2604,3992,10840,261086769,29
831192,72303976,54942322,25175,50897754,31735,385032,1735128,101149197,38077,40257196,2995,7365,26670,240247063,29
1395674,71331597,69925657,33004,71240988,32448,900815,2153934,129950341,16167,84264873,3487,5994,26125,283600703,29
7006026,309971624,168580564,3490077,172950005,3683698,5318948,16315671,590488134,262873,305731504,6776,12681,30207,1101785833,30
11490861,1061270656,627866796,9544987,623459016,9619027,1604782,24217306,1717136548,350622,1068569211,1902,125530,44912,3570557056,30
4858773,334931661,186644199,5047154,184153718,5292087,4068566,13430255,619634149,208884,306732915,6777,10987,15669,1127264200,30
8871234,863451691,382952740,7023754,382856092,7011271,4614402,21814711,1297883626,484739,850216658,6778,16884,17816,2884968382,30
14489541,881499217,487815130,6109436,488046387,6118217,2851916,29252611,1433779928,496614,897737174,4037,114071,44872,2630771892,30
14606962,883294977,487884546,6049018,488034628,6066035,3109445,29503762,1437108077,505813,897739719,4036,115479,48562,2635144139,30
5091131,383143870,194116961,3528605,183190218,3486504,4604297,14038554,668940772,221535,372940668,5212,9213,6305,1204691901,30
6149453,232827289,161254442,3494639,161675866,3498483,1133570,11659776,464778570,141233,245985130,2577,7268,6320,857618468,30
3883938,211496485,203111677,3869708,203311175,3876853,1377696,9155238,478690534,95113,215165296,2376,5404,11220,995984502,30
4698444,720643141,455378222,4570853,455295293,4575146,949917,11230272,1189836822,193080,739395859,2572,109919,36307,2279115396,30
4094185,262730124,155775323,3697355,155483673,3644977,1815319,9949956,506637922,88261,250295574,3263,10133,32067,998462163,30
6627789,263584199,181216443,6190657,184748008,6483590,2657179,14141664,615078873,166224,268920747,4043,8174,5645,1047468854,30
4097652,247751111,155539040,3239256,156693873,3447249,1512368,9366105,487738327,81077,251876656,4775,13256,17949,925515396,30
6886586,275417408,159161327,3199371,161506678,3369787,4439463,15975436,590180967,210591,294992779,5527,6519,5648,999410708,30
3880525,229145696,171094723,3942261,171061383,3942471,1000569,8574074,460035803,72696,243636423,2574,6149,10375,881594562,30
5144880,207838694,129586757,1900145,134514314,2067797,2832661,12594165,378231005,155379,212797274,3602,5287,4466,747355967,30
4123881,236899436,215065842,4162989,218319203,4193117,1768413,9650700,518785413,86855,250898653,2375,6507,9554,1143702470,30
12719414,399075803,205346771,3819732,205342619,3818320,12668402,34662500,883113900,989618,411550351,6776,15400,40585,1148946403,30
4522835,309399511,181305397,4316359,188888168,4392030,1981560,10878469,550818573,107791,313266092,3654,7251,11599,1149808043,30
17924302,434243240,209540867,4807276,211002463,4913957,3587364,26735554,755324987,386734,446008754,4048,14368,7493,1359770941,30
4100880,235310684,169616359,3927899,169726550,3927237,1351768,8894076,472965925,109078,252782295,2573,6082,8701,887802879,30
4764396,271019963,181178043,4126552,182930230,4168875,1582084,9829603,511552974,112707,280205626,4612,33532,56567,1020971872,30
6080177,218039190,151427565,3729843,151583039,3705839,1413198,12011939,444535715,130946,219001273,2185,7311,16087,804974644,30
24894330,409067439,216914792,6933162,220507405,7154606,7980759,45259292,884940567,795993,427940692,5215,13284,6478,1528071164,30
4297919,313684022,217427959,4280768,216768135,4330826,1280319,9760537,584899530,78638,316068857,2574,7091,27220,1269068379,30
4555249,281318675,191818301,4038360,191836314,4042833,1074766,10286355,741647291,183846,290906124,2570,106987,7590,1042133149,30
11183365,329860841,231527302,6242127,232068606,6185278,2648153,23008211,694215087,353830,342154143,3504,8467,8627,1285541878,30
3606296,225115420,159115068,3645983,158981531,3562763,1103040,8286436,448567892,87312,235112195,2380,12330,8135,844943022,30
13804496,810294269,502565422,5907186,504655687,5930421,11671856,34317427,1581274576,827325,830571332,7159,322483,95116,2515068903,30
11587902,445011944,244855973,6447242,244820007,6452684,2137420,22829655,805868087,287830,459938169,2381,16188,15483,1593460949,30
14353612,216560254,207802648,2576173,202727802,2631698,4668857,25571058,577083939,1383647,218597510,3403,15248,22535,970267403,30
6700933,325074908,208807940,4897893,209046939,4896430,1577872,15326293,645484730,212110,339632101,2966,7443,11231,1303521025,30
3942810,216395856,171004447,3723056,167794694,3590031,1280346,8894060,446343291,69872,230034128,2578,5964,8319,853388844,30
7666753,413999683,231924183,5531485,231925859,5581424,2089192,15359184,722123074,171784,414836436,4624,9744,7492,1511287477,30
3978475,216231290,158350379,4101108,158206338,4007459,1120832,8675444,450484998,73564,231331684,2575,6269,8727,808335686,30
6057946,284750751,195861888,3821326,196228076,3688692,2403395,11619122,776239519,229567,276476151,11862,122552,54075,1020759009,30
13620759,380336125,232834883,5504937,232360032,5508146,5966481,28566588,769010657,795005,387112187,5073,9762,11979,1410180672,30
5306489,301440399,203470050,5435729,203611699,5432884,1592906,11806057,819290132,350547,314310328,2963,108702,10171,1167645014,30
8133377,812572306,470453236,5221111,471436016,5199953,4671791,18975727,1342570574,395877,815416034,6617,143996,29362,2526035170,30
4209683,359050109,206329801,4276509,209535704,4392743,1694719,10149520,616042846,100332,365295355,4042,6636,7550,1285349101,30
14736326,881106330,486654987,6028494,487438658,6038210,3234051,29504384,1439874554,502679,895940390,4036,112167,49135,2633097849,30
14202336,839286280,482191595,6048307,485942446,6142667,3969063,29674128,1407242250,531218,863581916,4035,112499,35473,2598517469,30
13316317,370491697,225549251,5203789,225795653,5229238,2614390,24434349,913331371,411218,387019027,3846,109143,257297,1338806782,30
29043876,379225754,181569864,4216735,183993347,4347896,10632833,48143352,836157174,2079684,394374930,5608,9770,5830,1181819103,30
5441855,401564894,214715963,3938632,216477359,4018589,2834606,13350892,904462949,332366,416111318,4620,110762,10535,1302911198,30
4056001,212242485,128702291,1858932,132045422,1819372,1785211,8917767,364296382,40678,219283091,2968,3805,4489,773695450,30
3544587,238812353,173434704,4274088,173931434,4283917,756531,7373377,503589014,37852,253087824,2186,8750,5589,947034851,30
5805821,678495974,416866052,3425313,417953105,3426319,968036,12447236,1058456143,166472,685103137,1693,108523,33724,2031542633,30
6501370,245029460,173315352,4157338,173373830,4206444,1955723,13005833,733185011,255124,260720697,4043,143852,8659,904945856,30
4164116,234111741,168440918,3589424,168824949,3595952,1086904,9106809,478077156,74224,254275406,3652,9638,5544,882783074,30
5340634,267527680,182796925,4102832,182761625,3995340,2426392,11537699,529892355,183839,282051984,3600,6435,10101,970694835,30
3371896,228967009,160840112,3550345,160696880,3515446,1190065,7916008,453066976,39316,237702946,2382,6417,5493,860060663,30
4171810,222824856,159042777,3669941,158952266,3671213,1109852,9099622,450700354,79143,230329906,2965,7718,9015,823756604,30
19507939,420655634,271651866,5861691,272030841,5856487,17654096,49319574,983455632,1406084,431180833,7166,18894,54175,1348687846,30
4780149,312136839,217813253,3971911,219707487,4038343,1713620,10235019,584607906,75587,324814498,3653,4784,6442,1159837335,30
4303590,252497747,140792499,3934208,153397525,4010735,2152161,10183401,485011444,106760,257238574,3651,5546,5818,931751846,30
20440869,728453576,443520595,7633148,442955488,7643165,16808634,47555746,1626192167,817166,728802129,6780,130432,61597,2345188030,30
3892544,212442591,200484680,3844462,201885838,3853939,1555961,9536927,480483036,95325,215183969,2377,5322,10906,996052258,30
6569468,319844862,209820328,3453864,214368523,3596471,2981607,13485328,647555268,121558,335163503,5047,5453,4883,1383296819,30
13879225,454857519,231206399,4974216,239717749,5085893,4022383,27676894,1007517547,504170,454368384,4043,110518,32223,1556055902,30
13949641,642348608,315094323,5315766,314472343,5323697,7820841,38712371,975107716,474471,625548014,5608,17258,5827,2027062844,30
7258121,333918075,175359098,4506529,178882072,4622908,2964581,16846437,603708001,226547,332751368,4043,6546,6807,1198544295,30
3733691,204890576,153292710,3635368,153186840,3535749,1489382,8641578,446908996,76630,222212039,3849,5581,5373,778762101,30
4311219,274161299,191284459,4127323,191084657,4121337,1067918,9680015,722571763,183646,287405236,2573,107250,11921,1048830570,30
4376688,305800425,202848163,4477798,203037590,4481299,1629659,10358162,573244718,110695,311915653,2576,12788,19697,1219668302,30
3774731,234239943,164398778,3643347,164854066,3673313,1436038,9014386,466181185,75527,246877784,3457,5920,5476,888863313,30
12924180,391032456,243478259,4827279,243278288,4822563,3281653,25219605,747095498,483662,403076374,2967,14057,22795,1479421931,30
3736915,211812136,147779583,3327495,149931003,3367781,1222460,8488542,429303998,78719,222477849,2964,78609,6213,793117615,30
12270518,246237211,196036095,5117932,193250306,5220703,7306053,26691933,688827728,981005,267009191,5772,7797,5789,1090566679,30
4021963,737707161,465692992,5589026,465458335,5583689,1372513,11118512,1240303744,274579,750490759,2568,114340,30473,2333741273,30
4313903,212770284,150675335,2454489,150708817,2453429,1038307,9112723,587898667,179160,229209800,2091,107272,74032,767886593,30
12464588,384984829,206517041,4690349,206004194,4763045,2938114,24780742,883630852,414778,397311459,3848,430264,10904,1304871522,30
4415574,256763926,191424271,3894516,191658121,3899977,1124687,9131494,500652593,72931,281767500,3655,4945,10474,991638559,30
14277222,882015412,488822551,6042428,488319057,6053726,3240690,29461179,1438118851,505762,898073040,4036,116482,45799,2633086805,30
6819895,702054383,447309575,4606604,445282902,4606999,1713980,14052441,1172963502,296381,720628347,2571,110635,36611,2192856110,30
14585211,889030790,482704615,5981349,484990077,6030566,3437037,29605080,1441365722,500727,899544417,4036,115712,47546,2635704844,30
12402546,359743241,205884141,6491761,206536152,6562814,3356434,26427644,723547068,333071,375502235,3848,6601,6652,1215344720,30
14400286,408576730,213092977,5514815,213722544,5609481,3747300,29097238,1005073187,507161,426175965,4044,109206,235300,1296800283,30
9760635,378342494,236884693,6736820,237144373,6676534,3579641,21572169,775050429,474873,390428517,3992,10003,7862,1480777079,30
10532692,493485875,226960460,4929928,229783733,4930255,3474614,29392505,2248457710,347526,504744184,5540,23895,10554,1646433199,30
193375,12593150,56093777,6914304,56315591,6981771,21045,1842013,492481868,14382,11599004,128,4601,1737,214655020,31
254863,68629762,247975284,7526718,247712682,7438684,57753,3397006,837570656,26307,67730029,132,7752,3978,1111289384,31
148701,12526069,47280738,7245501,47149566,7173966,70026,1936999,526696001,16315,12142796,134,3392,1223,156013438,31
135484,25791198,70596189,7288661,70390453,7226592,12147,1011227,298882946,9174,23729722,134,2840,1891,356431355,31
195515,14366249,58080381,7458114,58098213,7469240,20494,1977093,591132966,14954,11631106,134,3496,1516,275285810,31
198597,231325571,197495650,980347,197516342,964218,64050,2225497,602277827,18057,232902898,134,4039,2794,950828066,31
54863972,46575388,105674812,6523898,105238633,6508647,79168,1597072,412794932,13040,47006848,89,2533,1353,484410326,31
542706,6387247,14892692,640762,13373484,619313,812603,2695220,365959240,14389,7313913,3204,2347,1062,74661030,31
79936,13192475,59010800,7103842,59075234,7085157,19735,825361,244966427,6209,11331813,129,1489,579,248461820,31
184305,14364587,46676231,6725893,46803829,6727673,45627,1831357,513244548,13392,11740602,134,4240,1892,152975251,31
8683986,532804342,427693647,2320804,417025614,2203398,8795135,16923458,999009290,148123,515962172,35932,47653,245331,2197973335,31
200362,14685344,57044840,7077910,57134236,7094184,18914,1582695,484025572,12298,11502012,132,2881,1255,210743216,31
211506,14376371,46293903,6606677,45706022,6619007,41397,1988960,519853365,14970,11670870,129,3209,1409,195402892,31
175972,17400423,60315230,6747715,60511845,6726104,64964,1766114,502245782,13542,14967118,134,3620,1766,230089076,31
189197,14566369,69217105,7253072,69124229,7232722,30212,1891019,544623638,15947,12209255,134,4182,2374,229546944,31
275265,16046478,57930154,7039650,58038484,7022514,63413,2015060,531046062,15363,13520632,133,4352,1751,217682092,31
379947,71135328,32328421,177047,30143472,170268,798226,1990297,248356902,11115,61782890,4043,1605,584,351092843,31
179284,49558115,71350676,7171912,71568336,7240742,41866,2159410,595591426,15677,47847962,138,4392,1367,359331582,31
149469,13602636,58415331,7640948,58280028,7606316,29012,1693511,503853719,13174,11559569,133,3501,1720,212918956,31
143423,16365661,45944212,6273567,46071257,6259150,19052,1676153,506052899,12856,14709356,135,3093,1347,164130063,31
259939,7095877,17153270,88351,17668231,90692,142725,809761,81072419,2510,3358180,2176,595,282,89430517,31
65310,11598979,6389276,47879,6394376,47178,3952,276979,74772969,1881,12605362,138,912,776,45176820,31
155996,14060069,56767768,6397964,56930374,6378806,40453,1919599,526512550,15781,12152646,133,3630,1905,206471431,31
134528,14248704,56523015,6790930,56521717,6857614,36664,1674107,452026464,13383,11952328,138,3524,1502,214675588,31
6939361,525938041,491309176,7024941,490690264,6977628,11955475,21202245,1530746013,150504,543380038,42079,48560,246058,2186543170,31
8195853,554480485,427031605,6403884,428785891,6603709,7121087,16769335,1503360640,132019,526017041,35930,53871,204778,2333223693,31
158428,13202578,59274854,6839546,59012698,6832331,17720,1638928,483466914,12808,11612614,127,3439,1106,254714698,31
175212,14585791,53154065,8217485,53394663,8251624,37412,1679982,475357549,13267,11737671,134,2978,1304,205209005,31
184040,14540185,45312556,6235955,44977670,6269742,39466,1966712,520051644,15500,11894402,132,3202,1515,174759084,31
176540,14362123,46282066,6373678,46299950,6276730,55199,1938118,529377922,15710,12265413,134,3277,1446,151815056,31
362946,8259827,5564359,41247,5481959,41244,237639,916758,88798306,5776,4998531,2180,7410,4924,52486838,31
117999,128770917,77159357,7158164,76844087,7143299,13029,1126859,333283056,8224,125591153,132,2737,1303,542466875,31
262563,14959336,57322473,7005128,57536311,7052513,39755,2733479,822691875,20621,11938741,133,5502,2459,233206314,31
149040,13995790,57849546,7162491,57723625,7107584,18223,1686414,502908316,13126,11632501,129,3737,1592,211123748,31
291267,283873065,239184062,5021274,239873282,5026433,39490,2649380,794488868,19411,286805869,133,38314,4149,1039261475,31
136973,15828636,45628634,6707795,45619692,6799830,65697,1884212,511623172,13657,14934939,134,3423,1225,155127424,31
187650,14604688,57578327,6989447,57321331,6985081,21211,1761402,493939351,13737,11722164,135,3737,1778,210130091,31
113283,12966417,57238848,7477726,57580716,7473656,50271,1087158,301651814,9190,12128444,132,2617,1509,226431554,31
163251,14161299,57905807,7474959,57757419,7448214,42206,1696688,500169809,13195,11504206,133,3029,1098,213026615,31
117881,44907862,58126204,7357429,58159875,7353093,10987,979212,297168946,9050,46136641,132,2785,1902,279350774,31
125290,11124572,8124981,21492,8116780,21468,3177,202994,54773400,2801,23494175,133,1679,2100,79839546,31
120436,10635849,8272303,24035,8228473,23857,4615,205409,54786866,2674,20402312,133,1505,1797,77331053,31
200381,14435368,58218307,7068636,58161962,7069696,18233,1722503,507745619,13085,11510709,133,3153,1401,209384220,31
215156,14745887,52026071,6473054,52467129,6506020,17573,1632854,483261615,13307,11573030,135,3918,2435,205604620,31
428389,15970190,63926229,7738267,70191352,7335133,389078,1720948,339597071,13386,15343214,2177,4000,10686,401723713,31
285972,17215086,48456271,6157533,48874009,6560299,505499,2270548,544304307,20240,17916580,4039,4828,2343,174743640,31
153430,13644312,47518793,7079176,47256701,7094018,80439,2112614,538058210,16949,12349437,127,4107,2348,219473715,31
194902,14386818,55683520,6237638,55797716,6226201,49558,1943207,522332297,15413,12194713,133,3663,1640,207483161,31
218755,14438762,46627675,7304507,46349724,7140059,37031,1957627,525998372,15280,12033285,129,3570,1519,156292410,31
227391,14406778,58334997,7552687,58312497,7509607,20609,1639657,509234945,12385,12564250,132,3694,1439,209606535,31
139161,13949505,57750126,7112844,57411500,7102403,27911,1675506,490136519,12475,11486213,133,2999,1365,211661206,31
167945,14277022,47314777,7113973,46827724,7129575,73518,1976330,517690739,14954,11591109,134,3791,1957,155564996,31
143764,12214913,14926924,1438015,14803938,1441461,35976,1372312,351878964,11094,9509039,133,2399,1190,88672209,31
196754,14703789,57773248,7161938,57797921,7186859,71431,2057149,561428331,15690,11853748,133,4891,2567,220546336,31
152507,13846041,55842205,6257720,55756278,6262853,67919,1958225,521978374,14984,12088803,133,3637,1188,207752790,31
215864,14550051,46752909,6527947,46719138,6501212,40469,1837777,540357417,15478,12081496,130,4450,2528,239113790,31
325737,276836130,268971796,18789084,269317032,18895962,35605,3284254,1027323523,26936,277022373,136,7693,3036,1607423617,31
146539,13056908,55714284,6340506,55620863,6295661,48118,1949071,519089411,15559,12015723,134,3574,1488,294219134,31
274089,369993835,344937969,6157466,344864035,6154120,47628,3356140,939918567,25524,369197487,134,7945,4105,1653676774,31
191944,14116528,53964083,6956594,53952548,6933684,19289,1793150,540335862,15266,11979170,133,4155,2308,267753761,31
151637,24236548,77407918,6916533,77295321,6914325,18452,1636521,508023429,12806,22123300,128,3157,990,258679425,31
175855,14063582,46763288,6939109,46857553,6946439,54340,1893700,520204945,14825,12922106,133,3407,1209,160597258,31
168553,164753796,132449543,6374812,132507746,6373576,25576,1590250,468079135,11713,167764157,133,4120,2256,833317397,31
162870,165366417,132120323,6395898,132104756,6377037,17789,1572577,465616746,11955,167486537,136,3825,2791,835571668,31
185152,14597730,70619370,7340874,70266165,7352568,28095,1865894,546088870,13894,12033382,132,4251,2564,191638511,31
160998,166094287,132038835,6418186,132386170,6372857,17172,1663478,495137600,12981,166009638,132,3262,1529,907907897,31
180563,165044673,132448603,6408588,132603108,6417849,47970,1646088,470661299,12594,167848510,131,4004,1961,832152375,31
178404,162841495,132763190,6406522,132593815,6404067,67100,1698206,467072023,11874,164827211,136,3853,2302,816313362,31
161410,165211487,133282642,6387812,132898104,6389513,110750,1778268,467925758,12647,167567947,136,4239,2686,834587998,31
141571,13658463,47333009,6461583,47104679,6510896,52856,1885448,513508660,13053,11556756,135,3413,1553,151467362,31
82859,72154157,65678700,5810874,65725728,5811368,12528,914431,261820123,6886,73559917,132,2487,1284,392411825,31
143208,13876178,47698357,6834433,47419066,6851285,72626,1989261,506823746,14411,11691000,133,3346,1539,209986410,31
96484,13624220,48537142,6862697,47980468,6847606,55846,1168564,278207186,8779,11879803,130,2635,1300,334022242,31
531999,17755204,331008747,26024052,330087702,26117336,255378,6735693,1967985711,51365,15086246,134,12672,4604,1398916433,31
108449,13945422,88464282,4391492,89215591,4376098,20018,779959,230707555,5895,11485512,133,2418,1419,324964475,31
199395,14852839,65353595,7019176,65616389,7036827,53844,1919478,560215166,14970,11694508,129,4446,2453,378474704,31
142894,14496404,45896465,6686536,45932096,6755038,33739,1832249,510462972,13258,12593723,136,3028,1535,151918222,31
212819,15114994,58578474,8485902,58271020,8476816,26441,1898180,535690187,15469,12100682,133,4054,2101,210665318,31
167059,164624410,132626013,6385515,132633030,6372783,41420,1623069,466380489,12068,166965162,136,4591,2300,829747301,31
138581,5508659,2318501,16947,2349670,26028,10386,257633,37376679,2983,2660261,65,?,?,?,31
