@relation problema
@attribute 'L1-dcache-load-misses' real
@attribute 'L1-dcache-loads' real
@attribute 'branch-instructions' real
@attribute 'branch-load-misses' real
@attribute 'branch-loads' real
@attribute 'branch-misses' real
@attribute 'cache-misses' real
@attribute 'cache-references' real
@attribute 'cpu-cycles' real
@attribute 'dTLB-load-misses' real
@attribute 'dTLB-loads' real
@attribute 'page-faults' real
@attribute 'iTLB-load-misses' real
@attribute 'iTLB-loads' real
@attribute 'instructions' real
@attribute 'class' {0,1,2,3,4,5,6,7,8,9,10,11,12,13,14,15,16,17,18,19,20,21,22,23,24,25,26,27,28,29,30,31}
@data
208793,248418291,155831748,601258,155931622,601495,56365,1768488,498406348,114854,251934405,129,105029,52051,769116901,0
178596,92430495,62116442,388156,62130318,388177,51120,1220616,337582453,110857,93247018,134,104665,24391,324492123,0
204766,248695425,156131079,649534,156188103,647741,62280,1783974,498698782,114749,252240984,128,104999,8836,768212847,0
248950,246284244,156102103,664270,156040377,660635,53533,1720931,501659878,114195,249491536,130,105009,123963,769754744,0
217110,246616321,154595688,682813,154904114,681998,50068,1750813,501187717,114173,249391836,132,527502,12319,768315442,0
207749,245470428,155670187,622681,155755982,634298,134357,1957932,502369785,115971,249226193,130,105099,12529,767227227,0
260353,247336119,156204369,656369,156425139,651205,74192,1839347,498800901,115294,252050388,129,511469,7926,767762895,0
244590,247883515,156012360,629334,155966268,621401,99950,1891212,505861993,115759,251844373,130,104978,307303,768042750,0
174889,94114751,62775302,387698,62813943,387858,50021,1185220,336010060,111076,95164832,135,104591,6257,327510012,0
205987,248742467,156192039,644854,156132350,642065,53586,1761080,497996761,114447,251861456,131,105117,8507,768410646,0
176856,89787706,61184725,392232,61377544,392633,48566,1247654,345451990,111964,91803146,133,105240,291814,318399537,0
205720,248914502,157220666,670920,156466318,654643,120562,2171534,507568245,117711,251103827,128,104839,263232,768023539,0
219061,248339110,155734625,653847,155884266,650513,94811,1855443,498512775,115079,252151145,129,105242,7880,769213727,0
175421,92411940,61542310,389689,61748641,390548,47718,1220969,335703252,111372,93515552,135,207748,5947,324848447,0
139276,62774542,49448893,163044,49198673,161534,43688,458859,97619442,3784,71330732,136,1171,2721,248269185,0
217828,248156552,154548971,717100,155272899,714887,98412,1953606,509868388,115039,251981474,128,105732,8827,768254515,0
221424,246013940,155536241,596919,155654011,595884,52609,1690695,497043461,113845,249370238,130,105292,112284,768012992,0
133701,65043139,48678887,157251,48579470,155520,54624,488104,100001231,3426,70267890,134,1204,3184,246775177,0
222426,248233186,155897414,643276,155971833,641945,50155,1750406,497600027,114412,251745575,130,104748,8117,766498588,0
234172,248624412,155846682,714794,155796151,713874,52261,1779986,504940271,114347,251525030,130,269247,31582,768091233,0
378084,3771895,210638499,238670,210625871,239758,64998,4916317,1431667554,37504,3005369,135,10343,5246,1969153509,1
54337,2114997,2025654,32011,2035515,30152,8643,591081,176341663,4419,334833,128,1129,371,136959638,1
119938,2651948,3267243,98988,2887969,88889,37934,1661412,429251105,10699,749127,133,2844,1265,58790444,1
110327,5389881,4786341,114951,5198333,109595,30250,1052536,273094603,8559,2770212,127,1766,698,49810901,1
397806,34665087,122770374,312697,122650922,320530,105797,5183773,1570631823,39112,32853073,133,9939,3970,1216267657,1
105446,3363381,2045934,34591,2175332,34998,21569,662734,180335765,5089,463356,134,1225,549,110476601,1
74615,4101707,4000524,562250,3958468,561197,10216,271694,73438743,1834,169185,133,482,938,81652324,1
90484,3456294,2323250,41570,2285003,39834,39125,701229,180507784,5372,407129,132,1201,576,117745983,1
53271,2228239,2379852,45214,2229444,39716,44474,675296,173241433,4378,336696,129,1145,356,103377149,1
271897,8932708,618916,11731,596778,10175,2861,282220,49698926,2798,9229428,133,2567,5848,46144129,1
700960,8681978,6440197,45168,8117544,42362,517788,1917447,114748033,16187,15047036,3860,17581,11320,119049323,1
57365,2079395,2253074,36499,2181368,35055,21102,652457,174223136,4523,340801,131,1144,538,133551057,1
257028,4730624,2774468,122492,2706247,122580,41612,2465362,735751186,18449,1282590,132,4737,2237,98598827,1
95337,3659903,2882102,55373,2574456,47453,35362,818520,186992127,4616,361010,130,1176,423,127998260,1
90159,3271175,2387555,39566,2233906,37266,31226,668670,180163256,5071,342288,128,1113,703,113502488,1
436940,4898058,211665161,273646,211281585,267570,284947,5485630,1539595743,40468,3131887,328,10918,5264,2219285286,1
185739,3176921,2537740,114451,2557219,112469,24184,2258946,669556695,17050,1172034,134,4466,2155,96951576,1
70705,3241791,2052246,34744,2041449,32484,10124,622275,176412404,4715,336448,132,1082,580,133896502,1
91289,3466811,5914693,43142,4870805,37383,35417,598559,107841405,2848,251353,133,688,352,80776272,1
42315,1350356,3746428,32728,3424034,91218,21877,464253,86833407,2987,266604,126,626,333,138576526,1
999467,164786401,141869742,413432,141893036,419801,61998,1142464,257435738,6872,206005927,911,1940,4207,528266724,2
365752,72791703,52267322,1874479,51434454,1856498,44794,1019233,133238998,5023,72508153,525,2245,2287,309326311,2
285196,83499948,48095582,1959677,47693686,1921577,77603,1694914,128592076,5545,75325163,915,2342,2623,322664626,2
1133782,164747477,142964263,139629,142730724,136632,97443,1391784,261272517,11054,210323554,1907,5051,21291,541395415,2
239293,75144010,47234263,2013062,46561518,1960781,29658,1153951,126969264,5533,73581115,526,2304,2278,308688735,2
509582,165225550,140403361,561854,141507632,501230,86648,1241488,260252599,7449,197345563,523,2206,12632,515771693,2
534574,168948293,139781757,98025,138745939,713095,41844,1163994,243811447,6539,183790711,518,2140,10247,522827394,2
7488703,106195668,109211217,647347,109025192,649098,1189582,6923878,330573323,111887,133133464,2869,5295,23372,368196745,2
1092208,79454846,48346268,2155693,50486978,2158172,163004,1796913,147925430,8191,68238982,3088,6453,10331,282514760,2
8241570,120968341,99715590,2831183,98568644,2851501,688457,6536985,353780780,55085,130774287,2869,4792,18576,410387116,2
557186,170917001,141166323,326084,131987171,1218074,68807,1324452,247498003,7707,174821114,519,2178,8359,532972501,2
886513,168405728,143331924,109245,143408106,318874,98682,1506060,251638943,6791,192522845,912,1763,7329,538221419,2
6541782,97847538,97455977,615377,99692298,613861,1195094,6804190,319465796,135048,116754681,2673,3219,18406,340393687,2
889669,75697411,49630732,2035710,47010347,2027064,128536,1655468,145398994,7779,63115597,1911,5216,11315,261971597,2
228052,73721989,46920533,1989282,46853303,1991754,73738,1255058,129423384,5727,75124693,529,2468,1680,305622274,2
447653,166878272,143044201,123705,135082299,979299,73594,1163950,249865549,7147,177523199,521,2646,10304,519002890,2
1043227,166362991,138823792,108019,137995336,667454,154872,1422114,245581383,7856,181742603,910,2435,6801,515569022,2
318267,71845087,51244850,1862749,51158109,1830300,30811,1055058,132669760,5211,73611380,524,2103,2354,308552700,2
1415060,76499799,50351233,3764760,49928610,3767817,87803,3635001,210727020,9695,67933443,1010,4228,6491,321899203,2
235635,117331414,56814462,2976870,54623193,3035268,43192,1456502,167385164,4638,94648212,529,1287,970,388397077,2
4818497,157127938,105330865,841537,104723007,830210,1616569,10316273,384528847,199849,148636899,2480,125666,23279,511962724,3
4879680,199372279,136809047,1355146,136232236,1347794,1804566,12426067,879231341,436069,199802289,2477,214191,29923,663519405,3
5906760,405062525,258433382,1460571,258201586,1485909,1490200,12685908,1124160783,425131,406643251,2475,206767,600037,1247078744,3
4794955,406267953,259986306,1569356,259254825,1562482,1914255,13768575,1110520279,414030,405958873,2474,221720,41131,1268236848,3
4763668,155399950,104179266,841659,103794718,834599,1665783,10336633,375801890,185500,153542001,2480,10999,24106,526392631,3
5079179,409433139,259975560,1559300,259312309,1555130,1881566,13601164,1119673859,442755,406904482,2472,211647,475383,1254363316,3
4829014,166942001,101515006,848931,101012193,840196,1819183,10621238,382886851,206456,149695358,2871,11782,21645,544015931,3
4721852,137398907,116487730,862737,115845465,854346,1700645,10538228,391789744,207588,133281883,2475,10633,22754,536583127,3
4846761,199322456,137216843,1357233,136934609,1349720,1857876,12431204,882966139,429951,200503468,2478,206777,26378,662425769,3
4986257,186541320,130068412,1270876,129396671,1254728,1127580,10784741,842101545,323406,192079826,2477,217055,22212,630616363,3
5280376,340809712,229402896,1004588,235331467,994163,1582655,11035201,606766964,118675,386473991,2928,15659,35921,1064121842,3
5007546,410857259,261893555,1555097,261537474,1552355,1865682,13611619,1119136423,445065,410876286,2678,214113,634333,1267811049,3
5045938,391511666,277703867,3346074,277687795,3355177,1353767,12786876,1171492819,351668,408639941,2474,1058149,34530,1234323304,3
4750892,159194573,105503431,853039,105068208,845324,1655569,10385197,379155866,200902,151318091,2478,13099,28591,521937590,3
5023616,198876182,137049292,1299815,136711756,1317934,1601687,12016643,890026630,427602,200627938,2479,483909,106469,663244797,3
5050952,111477077,99968266,774427,102459670,764467,1157047,9351450,354316601,101884,156023228,2481,8662,23243,412540745,3
4240639,141253700,104492491,741774,103812809,733371,689711,8581118,339779328,90884,148574085,2480,4638,22029,475470777,3
5023526,401955803,259778607,1629278,258812740,1616397,1971489,13621246,1125284356,439739,400013088,2473,212754,38884,1244165157,3
4703814,158176520,105039333,850555,104500369,841689,1660468,10259261,381863337,202268,148591134,2480,9129,21935,508267631,3
4989731,199364109,137502234,1304062,137139570,1311573,1603705,12162986,885891480,434010,200144205,2479,205366,26101,664616538,3
4517107,151418523,111039256,557150,115453235,590568,5167759,12558407,446756566,491282,144928024,9038,12005,53864,512062112,4
5414064,339288496,228396491,1481687,228675227,1614154,7405591,16205059,720053858,625520,371895255,7551,26718,43784,1078239001,4
3584136,125570226,88714896,1093057,91003512,899735,5376485,12588080,389250022,386911,134620778,5953,9634,35434,471997189,4
6230484,136585073,88062033,923538,90429751,1015078,6753959,14875693,488555591,731553,126359717,5602,134947,32223,466763624,4
6428021,133391764,88884646,1271494,88798071,1121215,7910881,16644766,488591460,801828,125076645,5126,45930,20783,459699540,4
4389903,140769631,112144657,668715,106558475,685246,4356537,10375299,417303337,426657,149055941,6571,8176,28973,532229162,4
3478840,122322465,90023408,992090,94179748,833313,5277246,12436323,384644105,393911,134402350,5954,15537,31699,462391883,4
5801957,342339468,234488329,870040,242751095,887018,4762729,13183676,660482800,478837,382873510,8190,16290,75908,1095170746,4
5349547,151537665,112735807,680503,113295396,676165,6357554,14044529,476771621,662759,152362214,8000,13003,39063,548506939,4
4191060,125048174,87566881,939777,87914389,908530,5441280,14422894,392945349,471742,134677748,6195,8641,28168,474697548,4
8652209,174488533,141529666,823069,142350733,820124,8979198,20473522,741014136,950604,192831893,13186,38392,82255,657550490,4
4449316,118867578,92317254,736313,91924748,732228,4564127,11977815,432698927,637288,123003837,3258,6709,15209,426319927,4
5782459,328101051,238908473,866848,240102063,850001,6238391,16366880,696924934,609775,361584421,6184,13122,58528,1033503365,4
3964250,319738120,230204885,792557,230331018,817485,3555323,10331059,600915074,387714,363842735,5330,11017,57553,1017572170,4
5144522,336261606,219009043,853906,219899170,849467,3764320,11147582,629663097,541681,359160364,2869,8414,25873,1077866364,4
5515818,133726146,87122318,1215585,87020277,1123202,7261019,15807291,481190367,710574,128267100,4994,40800,24404,469375374,4
6693502,129212023,99994484,644301,98751588,724177,6852517,15510926,511188946,727725,131457598,7557,75408,54261,445817810,4
5032684,124011019,91014348,687881,90997756,679601,4311339,12980993,429906595,627130,123570646,3073,5684,14934,434525940,4
4094527,374938436,236302462,1001435,249438902,1049368,5327371,13095877,689942580,420813,414823367,7377,13557,54161,1227418494,4
6776331,128711382,108132034,1223247,98115243,1004127,6280968,14758512,492342716,733554,121590262,6580,119840,36195,456927121,4
6605077,182814361,108070968,1350955,106855525,1439989,10002503,21804391,611314828,951516,145044871,5778,43066,27707,606734754,5
5950249,381877390,245520662,1250770,244071938,1277573,7870811,19174889,768984246,666786,413848646,6424,24006,49881,1252026117,5
8881716,409173587,244616868,1571654,244033934,1470421,9786028,30690392,929211338,1084469,413969345,6490,20196,50006,1332918308,5
8748896,152112571,143694238,902473,142020427,872314,7655324,19137919,648229004,878430,193685922,8148,111281,42542,587135230,5
10813245,368103602,274164583,1338430,275347100,1228613,8348824,21490430,910565073,962658,427212152,7162,145520,51756,1196798504,5
6694416,382097700,248572388,1105611,247579641,1033722,8712288,23660748,781132688,795188,386534879,6617,54850,67518,1227829261,5
6526129,176295697,108173529,972268,109587078,933423,8162990,20791945,537319109,767957,145770793,7062,118677,43686,602808434,5
8622802,150361745,140521358,727898,138732597,734942,6645620,16686370,554341375,804634,162857787,7653,101422,28648,512528887,5
7313984,175919021,111040632,1186689,111281411,1066413,9385344,22659616,616805535,909489,148427183,6581,133019,36553,599276199,5
8939271,148894261,153038635,823484,150584625,956088,7025824,17186488,571615686,747353,153810010,7646,88983,58225,615673179,5
6471001,198828410,118993424,1304358,119680157,1159608,9144911,20782601,600570435,837875,200812454,8964,31334,57636,805901765,5
5929909,168173743,106921162,1242569,104561363,1283374,8473148,21783805,608551577,923995,160683260,4160,25024,21904,681020001,5
6022890,375480417,243755181,1486329,256620061,1302292,6898397,16184054,761443721,631476,421381791,6424,22647,57181,1240355055,5
6484727,388699655,257333075,1250149,252522642,1251196,8242107,19746347,793129198,822700,379754900,7451,82443,56372,1220564688,5
11140499,147994617,122757196,806144,127944734,1129245,12861554,25108488,724844381,1393102,170100914,8147,44520,31810,522777777,5
13173278,475184303,336491638,3759626,337709414,3942115,10865016,29559819,1215756486,1040389,509225988,13035,51077,113693,1615405114,5
8770962,261769977,227082261,796430,215301395,796065,13432606,25775990,779310417,927762,263521873,18232,126705,98012,1053967698,5
8549462,154493508,136658216,869445,132557504,1175978,8824445,20040275,633742524,881216,160679610,7363,96057,44356,517672433,5
7746257,239811471,135670954,781287,143995902,854092,10838961,24644908,700805134,799541,207619302,15648,148911,125679,863410373,5
6152203,175444141,110557520,740089,109319387,806235,8897754,21393371,546039222,843767,144567436,6584,64707,37712,590675593,5
7449923,697505315,439040791,2367030,436600513,2148321,4852744,21053739,905758188,242096,680875955,5598,18757,42660,2109919719,6
2005682,650643407,424218652,3051817,413082956,3620764,1192168,6564319,788917532,37612,607050749,4794,20482,27729,1891155631,6
20673623,325906189,240277347,2251197,237317766,2242873,20745680,46268681,1553678691,2757314,325427694,18074,31118,96935,1148560394,6
5757182,217705234,150607578,2923152,150916306,2898035,2824345,11012317,407838280,114967,207948413,3260,4503,7154,748096167,6
907342,159680161,132708254,1635822,133570892,1881519,497561,2753975,291227773,14050,157229283,1500,5818,7236,515273072,6
801984,647466731,392775913,2771700,397879904,2785915,361794,4031428,748489158,23855,663717746,1876,10650,26757,1902521507,6
15336792,278510030,221112497,9177018,222066009,9212214,16160428,41478887,1377033479,1887638,288382304,11661,35511,73686,950531162,6
1493284,162166391,147310756,1677303,144484886,2116917,230990,2719867,305978053,16415,150238531,1892,10136,27540,535513790,6
7325680,180847732,186091703,9849196,189303252,10066527,1368800,15642024,621112066,24966,201995440,4808,13217,12486,766197523,6
1361395,647174672,410171395,2701880,412660781,2700663,471068,3863671,760662406,20698,662677690,2720,6535,32211,1943688367,6
1433743,165354080,148079404,563164,150661143,564486,720364,5194878,286969724,12547,175020550,1697,2893,2597,564335551,6
17323198,352429469,271013592,12081324,274168350,12329369,16893306,38123944,1416671573,2176937,370840526,9548,20428,70618,1159978039,6
1582381,160320667,146023619,1781088,143629146,2197773,608621,3593754,301258872,13330,149833544,1698,3763,4865,539095132,6
3533300,189523801,144203635,1576913,148465188,1594238,1351064,4832628,358706570,19774,233900483,6359,17220,53620,632764871,6
9404730,695753688,466031876,3160654,466647830,3163905,474659,6438019,971548954,32394,690972361,3841,11840,50482,2167082344,6
21383406,321879828,270250548,5527348,265439233,5525789,1746862,8413289,972382065,53382,337674582,7376,31970,51203,1058808131,6
846820,160405246,140510162,1576138,140114920,1895592,241947,2476727,303830680,9398,150905843,1502,3714,3702,549028469,6
1135083,639075951,386647158,4317459,394069402,4174080,724000,5735883,760416287,22944,647703582,1691,12042,19358,1893425226,6
2501545,157559858,138584014,1055751,141897047,743317,611215,3778726,298159114,22916,172630662,4111,18699,30717,546762374,6
10936230,214540301,214808934,807403,209958664,1380083,895228,5082063,506967274,18973,216504791,4430,11030,20661,837094477,6
27525655,642398839,306952346,370953,307512958,382162,18986112,51734331,1183284629,306216,614464883,98333,130187,646618,2031929747,7
6396426,389856174,102518773,63208,102553473,60944,25697,11829430,319931166,8000,409286541,324,1974,1581,1317811963,7
12657752,194963979,13206971,40714,13225413,40564,9827,25246074,233017836,5596,206740481,336,2619,1406,677410894,7
27449925,635315535,306432274,393326,306107468,396793,19467588,54107275,1197214402,306640,626270124,98333,168337,630896,2009765335,7
25660848,298918300,207324349,69280,206889437,67907,14126,48020917,371076731,11060,304957455,331,3292,2087,1323021694,7
15199133,436881726,301973270,350964,302308644,355784,8795126,28399059,1097977399,135250,439694424,97886,304577,433902,2278966859,7
12900809,499572621,205498747,76464,205962472,75429,28901,28490939,400442673,10445,514123278,425,2561,1589,1735960452,7
50747926,297736371,205665819,75879,205630740,74383,17568,90550698,388652437,9725,307654467,529,3551,2147,1225585726,7
16086954,437417529,300782658,334508,299675761,332368,8713641,28257167,1040860617,128755,440796774,97886,305635,430786,2082195524,7
27206716,630452995,302752641,382153,302542240,389438,19067937,53903302,1209769685,298558,650091887,98338,126774,596841,2241260836,7
28446390,511261522,330224013,505617,344961157,497437,22561149,44643792,1314856965,694425,527526016,97885,104604,482460,2616122924,7
12531169,384474235,102859511,64532,102671635,59314,45119,25229769,302252017,9893,404195746,333,2962,1908,1218128854,7
6280463,382710144,212491627,66352,210418677,67186,12753,11430273,334262170,8584,384162357,230,2040,1610,1476454699,7
50527401,297827164,205992610,71225,206280408,74019,24048,90618939,380447896,11898,305147792,530,3453,2173,1224783222,7
15814207,440206021,301804248,378174,300457333,402128,8971936,29831792,1426763865,142498,437718913,97894,303636,367167,2579040572,7
15499765,437433885,300648213,353736,298778340,345139,8254783,27609433,1009044041,131748,437658491,97900,299839,222034,1977363862,7
6474242,293970726,312590130,231829,312417921,218345,20823,11602665,244067807,6052,311596656,233,1417,747,1076334875,7
16285328,335509292,300537501,360231,300131107,359152,8893251,27880728,1116277396,131357,340876758,97905,307920,425066,2381681627,7
28243567,648912265,296103880,400427,296206770,392253,18987067,54098722,1243511609,305239,635467303,98331,140731,892126,2361682009,7
20700015,662843381,304768879,412876,299729792,425054,18648164,40312655,1175223845,304290,591565626,98241,142596,607229,2079199594,7
34616742,452051528,243269367,2728585,247120866,2797770,19307763,62090549,907048017,2396470,484931100,8735,45328,65274,1425607272,8
15310473,339301437,229604806,892215,221855430,943246,13879400,37474470,1258656814,1015777,341207775,9352,269884,283378,1151050749,8
8565472,344406398,167058010,2764879,166854412,2859575,4876654,17302109,593831408,90440,330759163,6582,14948,11186,1169971923,8
6294662,704583510,431785326,3947838,432898616,3937846,3072284,16511024,1425255703,266246,722854880,4615,214105,33997,2235657509,8
7932806,238884184,143405135,2430764,144450576,2432754,5277473,17488603,484611247,50732,260456984,6777,7084,6705,892774010,8
5868807,395095815,179982786,3490356,180152996,3495083,3509236,16479869,707643038,69603,397576386,4235,21393,29320,1261519136,8
7968594,291051989,149371597,2966101,150344832,3108718,4104880,16415088,565401259,55682,289234218,4231,5757,5830,1126614410,8
11875153,423595515,185742229,2882705,185754162,2881433,8268736,25884429,827479445,127857,433491661,11072,20021,34329,1364992493,8
6080592,241368835,137401371,2550211,142464219,2651625,4049654,14588614,466361981,61116,251745563,5139,10824,13753,846782478,8
7841864,735249017,451724567,4029000,452683858,4046191,6458191,23284954,1480089898,427239,762034972,4038,216632,35081,2344017743,8
6390352,774050044,449092293,3766518,445947839,3754559,5836704,19905025,1484189796,299128,746563640,6768,231148,46189,2382747959,8
15047804,473323620,250584013,8257670,250775517,8258703,13121579,41984703,1115706670,877049,472585292,4045,22339,42287,1668291097,8
7366552,778995453,448565891,4464721,448727302,4479647,3974859,19775421,1625995528,284643,791447838,4616,247774,54504,2470303110,8
18956348,782554423,467773186,5950511,462887074,5953059,6995144,32813182,1612344827,386211,784921799,4618,632859,556267,2417854711,8
7930858,743799385,436909040,3933541,430694348,3884358,5481201,21454114,1471501358,281499,717316685,6771,643286,729095,2280954573,8
12867173,840748327,490864018,4298458,490979296,4303604,12977183,35790496,1773954576,780626,839479895,7941,505794,278365,2501295172,8
7227333,389462571,183607228,630918,183539855,630258,3154348,16227420,664566750,192987,415968116,3652,10131,7062,1359042801,8
6274411,715102027,431752825,3867861,435343122,3915186,3421380,17174666,1418035380,269950,733944058,4614,215723,36519,2224389033,8
5628262,259276023,137223343,428940,136958136,432791,4252135,15516082,457020961,44155,256819347,4428,5836,6859,1057187593,8
7861191,244821213,143360920,2354254,143399259,2352000,4998007,17188558,492847695,57421,258608077,6585,7495,8257,894061363,8
185572,9612856,32857641,16542,31901199,17509,211181,773980,48667152,6378,31645948,1367,10126,3727,98602637,9
179860,8662793,28688459,13396,29006655,13177,30960,455710,46591051,3219,48384951,391,3557,7131,31558989,9
222407,6077249,27053678,14806,27082712,14657,56402,429288,44866869,6149,39825792,621,12982,7112,29618318,9
188548,130093987,78406154,32092,78935842,30754,46595,639219,153719580,4595,144415507,373,2498,3172,364097593,9
234000,130329378,80592989,31718,80782769,34017,52733,670909,163761332,4783,148843109,445,1847,1952,372757138,9
238019,41202152,38749448,34869,39111622,35014,49744,400073,62498212,2375,69849073,391,2199,3675,176344351,9
491862,11184291,33387681,14904,30571448,17430,247793,950649,49696230,8336,38593916,1376,4045,4083,64048725,9
133814,110272407,74064325,39414,78226156,53717,81745,1051627,199224412,7573,115872982,376,2747,2225,414066741,9
303433,132274499,79958908,36186,79621246,35724,134056,790693,158104732,5659,144070856,1360,5252,6911,365431449,9
242385,5548695,261183,29770,285845,30392,24178,465775,?,?,?,446,?,?,?,9
162205,179153897,85325098,61714,77786626,75102,1999651,3670092,202406752,36288,132759230,6292,10865,12082,480519098,9
60762,1975793,?,?,?,?,?,?,?,?,?,150,?,?,?,9
198826,130229665,78035628,30100,77983016,31853,45154,657077,159595225,4940,141846758,371,2177,2525,359607603,9
504852,18479756,26230951,19232,26216890,19234,187695,693658,47293903,5219,42469651,1116,2973,3188,31075925,9
525244,11084074,31945780,15564,31821707,15932,79906,498682,50006330,4634,51971050,1373,2471,4171,77213667,9
263207,7374636,17995957,30030,15370017,30191,682365,1639365,31821805,14557,9072140,2362,?,?,?,9
193497,4482123,?,?,?,?,?,?,?,?,?,655,?,?,?,9
201983,4770569,30364844,13636,30331137,12275,31137,366209,46058879,3040,40611447,179,5170,5813,53822545,9
177223,132306782,75639046,41524,76993597,44520,82946,788904,154567732,6133,144523749,374,1617,2841,371524718,9
98155,3230711,?,?,?,?,?,?,?,?,?,451,?,?,?,9
924607,81971119,80065275,141302,79889970,139188,426914,2468743,172446488,20364,91872545,2022,3695,6154,291269311,10
3291375,105834682,73357419,346851,73653897,366908,2238813,5752648,255196667,158570,109074691,4302,4139,15638,377317977,10
2939768,102861262,72051495,385662,72495431,379562,2052219,5379461,253188329,170862,99350720,3520,4964,15153,368267756,10
6830879,131640403,121482526,2278740,120507383,2255952,6140451,15750066,578896480,870409,144331783,5606,9793,25202,462177399,10
12000731,197648570,172911855,771632,174856279,772934,1728140,5961570,484909776,61351,217686091,7928,8746,40864,703033342,10
5167529,300085104,196668064,607368,202652321,624562,3678382,8201242,518751092,206882,334319699,7034,15688,42288,1016810027,10
1047495,236264114,174751025,867979,177128507,875919,379786,2947415,350216144,17804,279414818,2017,6508,25669,764943378,10
1153496,82307137,78862646,142713,78723916,134248,498254,2305519,169177782,12639,87175065,2218,2773,6187,291561781,10
2452809,110805349,84111717,148052,86823559,145982,3539759,8003172,295112104,207996,114216960,6482,8628,20560,427680187,10
2261415,110400037,80165746,678924,79449189,778000,2782358,6609224,274994478,177229,110658801,4137,6438,20308,407302064,10
876570,282918520,156926839,1272991,171316346,1065885,1474101,5646229,370240746,28027,293827577,2995,6252,25620,883310636,10
995039,246018469,176180710,900413,176193788,897955,307842,2692526,347828587,17004,283914195,2020,7222,9682,778858730,10
15587396,374564024,269291242,1168435,271717327,1180518,2531198,8293924,675630429,136440,378579815,4820,15025,42421,1174005129,10
1148063,90249887,85816991,159973,86172334,150071,812263,4131423,190947072,19908,104428303,2999,8199,20593,344405398,10
1477111,90237535,72110907,133362,72120103,134233,314710,2222654,157759042,12372,97848590,2023,4740,4751,327938973,10
1238151,248854625,179284116,649802,181660895,669226,658062,4609315,353778169,16659,285608119,2864,11749,39840,813984918,10
1038938,80257510,80421287,148594,80332310,148269,409511,2433796,177097137,15793,97286915,2802,6679,19271,299215994,10
1000745,122087819,57640839,880918,61971393,629276,2310163,5837994,213796795,39269,101864078,7173,6730,17048,438615860,10
1935136,290586161,188560425,775275,183111354,815026,2605115,7303477,444173886,171043,288573753,3520,6839,26533,906817383,10
2231628,126221777,86754498,157933,83941897,157477,3627459,8165260,292376544,186419,119504670,5894,7385,22841,447188072,10
13288444,63767308,26908521,4957240,26902353,4949957,26110,2645877,224954502,5972,66453315,174,2364,1636,137011926,11
14348513,64597104,26961119,5163490,26891280,5166308,35688,3607657,206715136,7082,66148638,213,2021,672,150696784,11
24121906,738586143,607912443,5834007,608040420,5825645,62731,23350668,1125293707,30056,747155618,222,7676,5186,2564045595,11
24722577,77956195,26758786,5633328,26710596,5629286,21021,20733659,254705569,6613,79383171,232,1628,844,189749218,11
7877130,66930676,27847178,5186141,27813885,5184431,29758,2031708,229469302,5858,69269461,191,2370,1960,149096030,11
24441789,79884620,28825096,5083694,28311209,5120410,34135,20128165,271167028,8437,81456302,208,1709,864,168030818,11
14392672,66671991,27940624,5611445,27962737,5609591,28232,935637,212407834,7151,69308643,170,2308,1709,157143718,11
6535228,84340596,47855812,4953922,47895602,4958920,20794,2130507,249342128,6608,85617626,184,1612,742,399393571,11
14075476,69837145,32320920,6132470,32141041,6148867,9317,5603203,238477975,5900,71554110,221,2181,2165,173146614,11
23663969,778608036,613483603,5789362,613405831,5789861,80831,21448263,1117524313,29781,784381931,246,7394,4905,2632830833,11
22816509,91329903,28202546,5043831,28005180,5041493,31281,16637583,241796702,6186,94042645,215,1535,746,175777917,11
19945561,54986629,28473321,4924937,28616959,4933386,18627,14861520,263498488,9921,56051478,330,1632,1757,166225436,11
24811924,78281686,26806387,5605514,26743717,5586474,47575,18921015,253471129,7391,79571523,262,1754,941,158900285,11
20443808,208022086,76167403,9469190,70237148,9752539,52060,2108919,517498420,14723,177185742,173,3268,2010,565157217,11
13052471,64295577,26733245,4586347,26735729,4581601,9048,4634622,216681262,7109,66517351,222,2349,2443,138454776,11
11132614,65190844,39963456,5758118,39918648,5759385,10074,901251,231043939,5932,66552550,213,2168,2082,192069302,11
28172200,753850507,607305071,5773257,607392218,5776978,50580,30316677,1111526392,29894,758520297,235,7988,4860,2573978568,11
14960158,85990580,40716990,5361453,36076939,5550416,74472,4341308,236347131,5827,90616485,2525,2227,1521,181511542,11
7659846,70487560,26903839,5850919,26789479,5898867,46425,1168582,266570181,6781,71395530,202,1810,829,238314062,11
22467997,741262795,604232171,5723658,605332685,5725315,64015,18384287,1085147271,28739,746568184,222,7064,3457,2588617735,11
1337892,83092880,75617467,39411,76527265,55205,222245,1767182,150756704,7795,93112952,1944,5557,3700,331999726,12
3263447,317607884,202096389,728773,199842374,728233,1048743,3982089,424705451,29844,320174975,6299,29920,35853,983325190,12
1368897,74507982,102800512,43741,104723677,41229,136008,1258006,168033911,9330,92652142,1941,5428,7921,368785305,12
1301402,82384633,66173326,34336,67442495,33282,139749,1420183,126586119,4389,91202618,914,3195,2457,310781277,12
9044441,394612163,311663446,1684823,313436185,1666188,905225,4141521,672875252,32454,389913238,4816,11732,42344,1352637488,12
8993758,391888296,265225856,893895,269007764,892717,1090593,4690491,667178701,34484,394577262,4815,12225,47028,1175221129,12
11436994,185711810,119718105,432829,120815825,437085,1640269,4772792,489832462,33076,176125716,6385,11780,40272,608243644,12
1000129,322597328,224438456,708472,222513840,727685,209686,3124897,383833026,15202,309886373,2330,7285,20427,960778295,12
507720,65492863,85975454,45381,91170662,135134,197619,2551615,168758681,9882,103445481,1907,4253,4222,293114773,12
3339560,86034715,79115349,47084,81179419,45479,225640,1687080,165499404,13345,104947909,3749,12534,9912,345069252,12
7677169,452874918,330305452,737168,322511772,778221,4194704,13177764,604527396,46477,453858103,8630,32954,43406,1526149929,12
3386448,87848306,77885294,50837,80586904,48354,201866,1453099,165817080,13656,106225431,3749,5366,12946,346888910,12
3237736,86504096,80103992,50549,81804429,47869,220256,1524094,167663559,13316,106413143,3750,5325,12882,333229876,12
3027111,87376332,76335645,42098,78293673,39989,268563,2267611,158955372,12292,102220716,3749,10421,8745,354940478,12
1035333,324121221,218012883,554372,213463977,555147,230107,3195502,385620996,13114,303422347,1941,7795,27360,953931365,12
10817535,395855999,254816812,993893,268008014,1010065,1624217,5764619,720086853,43304,424188683,6378,14522,69482,1230404237,12
1314497,85627320,75121727,37698,75914980,39317,236506,1703527,148211961,7795,93608646,1944,4088,5297,347844791,12
215712,85155482,75179528,172317,76620492,178787,94526,1296816,123425212,5478,92239556,525,2191,2939,307604634,12
1377013,80998170,80063120,37405,81789521,48867,226845,1796011,159778881,8216,89246634,1945,4416,2753,321002652,12
1155591,312029798,210976707,569395,215779097,600658,655907,3481466,391175536,15109,311165693,1938,12413,19100,960210561,12
51880,72175231,49513501,18965,49507896,17546,11675,337063,87388803,2423,81052054,131,663,1846,232912538,13
59898,71870227,49869984,21361,50044555,20592,21485,362128,88493733,2227,81580860,127,635,2391,235187137,13
396997,19835299,30668378,12787,30583077,12158,15710,268098,53075884,2355,36582940,261,1693,1978,147622735,13
465213,13099464,21091746,8532,19679603,16379,23667,286808,37464489,3236,25424065,135,?,?,?,13
47229,74447013,50551626,17028,50552914,18080,12626,343854,88663707,2421,81907285,128,894,3186,235784367,13
80440,72404296,50220985,39324,49493141,30887,61880,491156,88626944,2617,80586604,128,871,5152,233151274,13
181153,7822473,21522628,9135,21464846,16226,23439,285577,39407979,2909,28659651,133,?,?,?,13
70974,69662387,49341728,19581,49280440,17920,10897,381783,86626131,2739,79766550,127,785,3166,229870204,13
103264,79296654,52979009,27530,52903607,25190,75660,489067,97004345,3316,86709374,517,1435,6757,249270649,13
369731,10334359,21187182,8496,20274924,16738,24815,298153,38994751,3256,27312312,132,1692,2588,4151614,13
44669,74521664,50044361,32100,49929568,27058,48384,431951,89752517,2363,81237043,128,705,4191,234737024,13
142767,77077213,54918112,21941,54880227,22044,19506,440698,96213164,2880,89680910,325,971,4966,257464769,13
87607,81997433,55032971,30690,54987605,27786,56962,633219,100355976,3702,90503187,520,1600,4543,259507570,13
168588,8320497,21065383,10311,21232106,18071,31418,309077,37864239,2965,27683213,135,?,?,?,13
204761,6472327,21364926,8541,21404141,16768,25278,295235,38073090,3193,26982836,139,?,?,?,13
146420,79004168,54697007,29759,53645334,25036,51103,535759,99372934,3736,89529924,781,1712,7411,256038323,13
93106,71410317,49951398,19878,49753042,20271,17847,366160,87215039,2355,80641351,129,782,1903,232143289,13
76625,72598015,50419913,20307,50303453,18135,12791,410412,88975949,2665,81599520,324,916,3535,234662848,13
46839,72892123,49648725,18033,49452174,17297,11561,335485,87088786,2331,80602467,127,861,2208,231694978,13
105516,77314540,55259983,24514,54945468,21563,30758,475445,96102941,2766,89236497,327,1027,4174,257154130,13
5966747,155416110,223209800,19596396,225682300,19779742,1590056,9727816,801974296,51880,160527575,8304,46229,57185,928407808,14
1654396,73889983,92354308,3000798,92303377,3036600,325784,2552225,232431055,15136,91136947,3620,5410,17040,477842033,14
20275901,135882783,226304873,17233142,232322765,17135330,1668114,16537429,854196636,43135,131820681,8301,13909,33255,930072615,14
21733186,162167480,250956410,19029946,244522805,18966915,2413266,10196588,827047370,48667,143038093,8301,28434,48362,1254142227,14
19331783,112706145,146423136,3645721,129089438,3997650,2232413,13179051,371755823,32645,122105919,8301,10520,51819,782362102,14
13769967,146943053,283582908,15408784,275340511,15937809,3431391,11097085,789513346,46058,154259765,8297,20743,22524,1059339196,14
622059,77408594,117228238,1171784,113754913,1614216,425914,1900715,189799760,9417,75261605,1743,1255,676,487378637,14
24800391,114546706,218669329,17856536,209714410,17522016,874262,23384823,761107014,33750,100046253,4236,20320,18665,867092728,14
3414849,126493620,99145683,3467383,90040914,3303333,2936379,8383540,352628113,53239,117534046,12135,13338,61472,673301996,14
159711,54033865,101785139,13265896,102088440,13221980,22559,1609824,465036343,11922,52086818,132,3768,2204,326545358,14
682952,52431315,56780343,6636435,56925601,6690231,168450,1013649,225478083,8280,36844888,2304,3389,6692,285047759,14
3125681,86784868,54108675,4070259,56451956,3893233,900433,4920691,247086635,19873,79392169,7145,9168,42444,386681046,14
18103823,110675705,235381984,14702356,231939393,14805152,2541195,14504180,700170693,45839,119804373,8301,23043,28797,843800032,14
19870924,118383900,226399099,16357900,232321478,15693511,1469517,12033187,735366734,47073,119890801,8297,33471,46346,1061550414,14
105265,36541816,80240481,11570707,80181768,11434898,40760,1366382,362200079,10611,36327997,136,2177,743,294210423,14
696817,253574886,223657601,7588379,223630808,7583846,120699,3260623,610558177,20499,249939156,1192,5282,8830,1376445184,14
15148874,149422149,254942505,16895482,263190940,16592191,3398231,11422771,797115555,61725,157782028,8302,22560,24790,1115995483,14
2167594,80403929,184770587,14016860,187104979,14012998,786393,4568313,698288966,30155,79901873,3345,10609,25599,778636974,14
2358484,88258715,98785121,2145269,93434009,2552744,1557438,5456868,268197234,22473,81683298,7148,30179,48424,483593246,14
4669018,110823425,162252161,17508050,175649444,16866236,3433527,12109288,700947249,64282,120013712,8298,20340,28278,722240380,14
1337734,413247046,279704339,2358718,280503953,2154273,202915,3112863,524949314,18314,460934925,1939,13393,22128,1276986169,15
625493,105392332,86277546,1609768,90830217,1263596,155252,1567459,202571944,10598,141709838,1041,5369,7250,398035909,15
561353,400085529,280541781,1628140,271074383,2006456,121624,2263161,494344344,12987,403611195,518,4943,15418,1178674833,15
5001373,150356248,96113766,1906664,98987609,1729422,3929758,13814629,299095001,135997,145615017,2869,5678,18263,528400814,15
1035753,101950408,91106183,1005034,95214676,769807,220114,1830404,197048135,7958,142143999,916,1776,2212,376574533,15
552369,415539732,294485791,776066,288492355,1388741,167182,2291082,503097889,14536,425518539,519,5077,17292,1266347968,15
567269,397474604,289628034,1231003,276604793,1743122,110436,2291902,497767757,13047,403907186,518,5922,21282,1179685912,15
629484,95237792,83069818,1590253,88130368,1188467,195337,1597863,198514511,10353,141397188,1041,3949,7457,361636080,15
639456,96395022,82307653,1605089,87395117,1174943,174213,1583802,197489350,10469,139011687,1040,6494,8078,361315558,15
812409,397961776,292210084,573098,292578051,867730,135451,2345931,500510158,15921,420481693,1034,10268,20561,1171084799,15
745772,410606082,296962722,1052972,286360575,1578905,148857,2632203,504827250,13200,418995376,910,5975,22546,1271047475,15
18413517,295492778,245570548,12135883,244848057,12395791,8873020,43843985,1006980559,551023,324759983,11164,18602,66933,1098051813,15
550078,400083808,284174460,1512740,273415196,1928244,106468,2407454,497047047,13473,404480225,518,5910,18021,1181287182,15
726285,106876900,91653354,1749212,92576428,1642077,395368,3144280,210421476,11356,143438284,916,3922,2549,431745243,15
5756605,426628961,312289059,3124105,312075496,3098553,2650145,13594462,810430269,413792,458239966,3255,10881,39180,1331420965,15
1232626,84832211,88492580,481571,90527623,378735,556999,2143528,193802389,11422,132430501,1696,3721,8027,331060621,15
520834,89107127,84595176,1251048,90376897,948031,185289,1556011,197938289,7949,139205461,525,2885,3908,349736308,15
539870,93983903,88434531,1537939,92828968,1162666,146230,1447458,199994644,8010,139215198,524,1839,3185,397792574,15
644404,107823317,92132358,1652296,94207341,1522071,144234,1601881,207883811,9506,142493062,1041,6453,7870,406001458,15
555996,416354018,294652398,562882,291272310,1098985,123145,2374309,498563430,13768,430390400,519,6375,16648,1238560340,15
609159,1218846119,700619051,1428656,708587946,1439937,886077,5927626,1348949343,40509,1226419812,2807,9647,5359,3903966504,16
321255,308542033,206118189,1125284,208028418,1130846,332023,2614487,593654396,17128,313194605,2087,3837,1488,1467646865,16
347229,307078350,207671401,1137184,208837761,1137774,243018,2543044,596949103,16643,312527464,2083,3833,1958,1361243722,16
391987,1007574009,613664257,1176194,613442513,1177102,72410,3505752,994108711,26955,1019505604,1266,6764,3957,3570459677,16
3174350,2243747310,1323705017,2437620,1323784151,2433616,3371180,12428793,2433724084,98879,2231867481,16733,31930,83767,8970955438,16
294847,302018842,206963943,1114991,206922430,1114851,55341,1998960,551704874,14168,308274224,1106,4457,2379,1332118889,16
520392,1215560761,912915182,1453023,914533976,1443344,312967,5042264,1402346637,37176,1223205912,1829,8236,4046,4490088531,16
284709,303344664,311681934,1129345,312151560,1128146,110979,2132203,566934420,15160,310994391,1112,3658,1904,1556585763,16
329522,308744737,210493206,1132123,210411723,1134460,159195,2378135,587684344,17019,312287906,2088,3861,1863,1256998952,16
290324,211360692,301929353,1091171,310390513,1104875,380843,2180340,402448680,10913,214533166,2086,2533,1375,1626630828,16
408619,305636901,316999061,1142336,316708614,1139292,165590,2323383,572280190,16763,313783080,2084,3476,1763,1473055975,16
384847,404266428,207235079,1127043,207192156,1125410,102188,2469491,637954256,17848,412664093,1106,4690,2768,1543210366,16
514878,1208291360,716157312,1394457,716189755,1400998,179082,4168213,1200051421,31881,1219503215,1829,8268,4506,4688458411,16
648672,1112483140,706834676,1397687,714147637,1403993,831421,4765962,1067171095,31570,1135399975,2811,6542,3278,3722658861,16
500672,1114673317,615382530,1390160,615798686,1389328,248189,4385633,1102751727,31465,1116996912,2169,7724,8662,3572971479,16
347690,310332387,204168472,1120447,206583054,1124855,343350,2629569,586889316,15468,312529826,2087,3810,1815,1264311136,16
325377,305870476,415794778,1411589,415761345,1411495,49211,2072572,579647384,14599,312483987,1110,3774,1742,1672924965,16
529852,217754436,420013279,2004842,421448987,2004834,291778,2902389,721334392,23404,220240808,4613,6812,38675,1485335647,16
334095,308717166,212141958,1130927,212307502,1126725,275862,2348545,530733141,15739,312783725,2087,4189,2118,1483685931,16
319479,316784509,202560284,1046082,203909274,1080650,886381,3108799,601814595,22338,315661889,4041,3535,1501,1291786550,16
663054,308259289,206335824,1275162,207021970,1295559,433762,5834951,1546922255,52768,308544814,4035,22618,35633,2047602144,17
164783,205718926,205042481,1081075,207986423,1088051,127014,1303256,272767407,8425,212053419,1112,2462,1199,1186182955,17
297490,303857495,207209785,1124604,207506605,1131064,90940,2363347,653070384,16973,308888954,1111,4167,1892,1345695022,17
463008,407884425,206198634,1259539,206090362,1257087,280959,5206130,1417597423,38553,408057055,1110,9824,4436,1838614495,17
734453,308410399,207168552,1262774,207180147,1263540,221962,5359167,1536062556,49853,307735252,4039,22819,36269,1842223348,17
699623,308305756,207157957,1277961,207284484,1273754,248048,5473343,1537151462,51086,307454250,4041,23535,36393,1840751016,17
640461,307786628,206692957,1259771,206812450,1261917,265042,5483122,1536265015,41281,307019585,2086,11525,6059,1943689646,17
768468,308027919,207496373,1267954,207429791,1275992,252680,5534646,1545858302,53444,307838144,4034,13651,36686,2042383234,17
527363,1113054896,605057330,1445507,607416832,1439756,207285,5420825,1486186351,38877,1118222817,1687,9710,5804,4373855096,17
714527,307342808,130893391,244361,130790000,246060,300525,5385145,1515651656,42883,307284768,2088,10453,5151,1649597819,17
418156,303487669,209273543,1137428,209364722,1137226,201345,2453445,629150658,28226,308759412,4038,17849,34242,2042366104,17
672827,316803655,504485740,1392341,510075802,1404029,787753,5447589,1265129820,35569,318280073,2663,8803,6375,2690524424,17
469134,407356363,205838407,1232930,205816476,1240814,147432,5046919,1420831379,38426,408132636,1106,9180,4616,2040394817,17
495612,305610740,205889055,1249697,205851593,1246130,172819,5157139,1411707626,36727,305792369,1112,9648,4254,2039922930,17
459559,305691939,205741064,1245335,205400905,1239061,176684,5090291,1409057621,37358,305140156,1107,8872,4605,1837566633,17
641885,1221557440,900061109,1488217,902529822,1523389,1081058,7410898,1598251932,49766,1223724932,2806,9429,4878,5932261471,17
738803,307761654,308316722,38270273,308437025,38409911,342862,6822252,1895631314,50559,307029546,2087,11950,6617,1540427644,17
731211,308391448,208220173,1286060,207590495,1272487,272497,5493081,1530482737,41757,308130735,2083,10594,5723,1840526631,17
667294,307081043,206785666,1264542,206836165,1266625,453368,5696600,1538489266,41365,307470844,2088,11342,6810,1945896537,17
889430,1223645588,601783009,1408633,608530142,1420006,839076,5625698,1318303044,37908,1235025072,2812,9756,12367,4632603436,17
27916281,578001705,292026721,532418,292740810,545599,26586280,57766734,1840400137,341014,562123083,98806,114453,730628,4338958231,18
6640897,206096959,101354238,69047,98231542,66219,562095,15422711,392494980,10135,207161622,1110,3302,2306,1487049680,18
6691864,310809806,211992571,89527,206063942,103893,534735,15899017,531994669,16490,295609028,1106,3551,1951,1886030555,18
12742243,204013225,201037464,106236,204838657,101088,8452923,29401479,558398452,210974,208322586,4035,4597,2563,1816212003,18
6899004,213221810,92207415,72422,97380147,63952,950762,15042050,269792369,6974,221082405,2084,1570,805,1118992570,18
28181514,579290565,299943552,470476,301005769,467648,28213150,54656581,1426132171,319041,569356858,99790,271166,429955,2704196801,18
12858105,205357469,108101808,139551,108216377,129627,8606326,31437088,610225273,213729,204410687,2082,3596,1610,1625023273,18
12760719,204440430,200788716,102370,204784282,100773,8425858,30216371,559949102,210069,208099097,4036,3985,2517,1813734081,18
27238905,573450778,298270850,544307,299197394,536395,27357832,58115807,1875778994,346070,567452355,98808,110906,461228,4446198415,18
13020415,209701816,215364843,92287,216093974,91017,8411099,30122964,534705310,187925,199180637,2083,4348,1422,1736890632,18
13522324,214709144,101910948,98307,101886051,113594,7928595,28154898,527336213,219738,203768603,4043,3477,1712,1610539971,18
12889214,205395124,214497272,122031,212067843,122201,8693490,30944105,606614106,212659,203490928,2091,3686,1948,1730574180,18
12816985,203466866,102799023,120563,104869205,121553,8609022,29866572,529719426,221001,205643295,4032,3552,1743,1525209584,18
13541868,214037428,97529292,111574,97658136,105328,8142202,28113043,517655377,208807,205469351,2088,3083,1509,1609666414,18
12903003,206983699,210602379,94368,213534192,103620,8909447,30551600,539990164,192676,200051656,2085,4353,2546,1707166060,18
13078239,210606678,216260322,84420,216253275,99634,8261968,29944926,531463728,188184,198571808,2086,3563,1580,1738976793,18
13114605,210881156,215601684,88504,216039672,91650,8380048,29398151,532583072,187942,198661499,2092,4367,1671,1738754870,18
28707108,581848463,303856391,473607,301770681,472112,26989748,57054019,1443500084,332391,570380915,99788,415531,397730,2688159144,18
28001779,575343102,305504817,458464,303390853,459886,27834415,57028059,1412728418,338090,558880401,99784,112092,250747,2753204414,18
13023413,208057163,209996174,87072,212872131,90048,9011965,30116600,534098754,189154,199962350,2089,4171,2286,1723710941,18
69727367,437377030,194451471,1069778,196113341,1076360,4201029,84266779,734334384,531530,449029483,23575,58218,136055,1728702677,19
6645228,136807827,61806329,938672,61886038,940846,4067172,6610938,339358856,51591,132119059,20589,72708,161214,495021960,19
8521798,83005549,43720008,883956,43814045,883120,6560,700453,172773493,4288,85805695,158,1094,426,362792717,19
6722382,274967014,110027461,114934,104921747,118130,3983354,7060434,374354673,77352,226437164,20591,33515,164464,889042802,19
39871575,1142835419,437067672,2338156,432817957,2326564,9394265,46753531,1457963034,790795,1104551716,41146,54524,211243,3298653836,19
3738460,161186505,89908786,4343338,92155188,4222501,2884824,7018659,458028206,57705,162432923,23388,63077,83504,613573841,19
2951120,81113924,43806493,893477,43923674,894942,7299,592998,165226244,3972,86511116,142,1427,741,368771422,19
4673598,143095527,96168839,3628075,95516022,3845538,3944354,6720243,445092817,163643,143562718,20541,92702,114045,556747918,19
12617008,236937233,147914013,174177,142616424,175875,7767149,12499452,551506637,114287,206675047,40996,51331,218418,892858204,19
12364248,168761102,79843057,995713,79783855,998724,8053824,12339153,504284763,106045,157505384,40996,49883,286101,603030286,19
21571553,833341918,330036122,2152802,330372514,2146869,4967250,25916135,1017979961,679472,799629174,20663,34430,162077,2654850597,19
6669427,232410129,101608306,876409,101977224,894162,3884625,6636898,351391674,52972,211051906,20588,27308,164811,649017095,19
3601096,158542586,108493672,121343,108546711,116350,2173271,6373965,386364819,53501,160583447,23390,67080,52803,863455053,19
9034713,217869183,136063642,196505,149730775,199865,11404442,14890574,559574925,298441,226263509,40943,53944,212562,907908056,19
27824355,956949206,420674889,2301921,420074352,2268575,5422351,32586859,1277627410,811528,940220664,20700,109881,120172,3098430595,19
12910663,150316017,63259934,192579,61269249,186230,7734383,12290087,511369123,108914,135256311,40998,48277,291717,587532964,19
10527854,712942749,340093668,2193459,340489089,2225618,5171195,15791595,1096712070,100388,710479020,24736,30396,111141,2466562484,19
112915713,861275970,357440416,386642,361544525,378749,9294519,182871123,1591062360,9969848,859088074,49272,63608,190073,2940211240,19
10911201,239685841,171180247,860496,170204567,888724,13922220,20844497,603986431,299185,199927220,40940,133677,131960,1080577939,19
4627408,141748228,95039389,3330240,95278167,3354690,3974508,6450778,409379343,134558,153060053,20537,64152,106342,570528081,19
419967,11899825,27399181,10360,27407145,15308,43947,829370,49984132,2977,34465322,916,2063,3610,94721201,20
35261,1597802,?,?,?,?,?,?,?,?,?,136,?,?,?,20
81715,1673743,?,?,?,?,?,?,?,?,?,128,?,?,?,20
227049,90818594,69813177,130315,68219013,105208,117810,1350190,110486939,5445,105791135,912,1085,3490,302747895,20
906451,53604777,36429483,16495,36337910,16772,68156,340327,66664834,2529,56131972,523,2323,2348,200560912,20
42401,1439067,?,?,?,?,?,?,?,?,?,130,?,?,?,20
108095,85208824,52623770,36306,54529707,31911,34253,612747,102476849,2651,94718661,520,1223,6813,272082278,20
87006,78375415,52431545,23100,52829609,22675,33967,464240,93859139,3418,86053199,519,1649,2834,247748395,20
176968,105460168,86233016,127817,86376054,142150,113135,1610359,125131934,5726,99377752,911,2848,4047,335261151,20
253119,92747145,80457329,137915,72558412,120509,108420,1232129,114592488,7584,94168009,1035,2975,12015,293711240,20
295903,20279646,32612094,15196,33125997,16269,60229,480971,60789879,3148,39225637,977,2796,2843,144184824,20
470484,12034914,19898003,16829,21265750,15571,93096,614947,45457738,7101,33360325,1043,7377,815,1033427,20
254993,92018864,80728030,131713,72797005,117000,99765,1199401,114492403,7300,93752532,1036,4602,15229,290922205,20
403302,78414374,53216662,74185,51102529,67684,167619,1524424,109312649,9756,91792993,1900,6038,21150,255610868,20
2514674,79921241,45064596,113495,43674086,122220,2744723,4151309,280891506,80159,48052580,31045,110598,171292,248182575,20
567215,30961502,29379514,18378,28662841,17220,71111,684267,62246819,4160,45581515,1043,1773,1177,186713920,20
563697,31576497,31828375,20972,32022710,20257,92406,755408,67659260,4003,46703712,1042,1496,1139,132502912,20
42629,1601009,?,?,?,?,?,?,?,?,?,131,?,?,?,20
96299,91325553,73096724,128415,70746659,104463,73481,980424,113582448,5900,104076059,522,1084,7382,298794757,20
100290,94237931,77729522,128457,72419429,105106,60465,950730,111381955,5728,100883808,519,1085,6216,298106246,20
663552,22281657,11390263,31484,11585973,27790,181680,1031283,73722478,8048,24956152,4200,4436,13869,75604897,21
172035,6258219,7836346,22392,7479682,22557,192474,680959,32584590,6555,9630839,2135,?,?,?,21
239369,332597232,506553579,763880,505866020,772788,137891,1861435,542365978,17451,334835719,136,6029,2831,2184912626,21
223413,333254287,505785188,513136,508796349,514136,24255,1554115,430276791,11715,342083432,130,3417,1335,1875336517,21
996631,14702275,12013292,24142,12223993,22396,473212,1230549,62819877,14432,17212388,6098,20626,14229,57335775,21
173971,6216148,33759355,82359,34876734,94664,642034,3714928,49672977,9412,36112105,2083,2826,5785,79823649,21
307830,348201820,483910667,621355,485685144,622252,1289372,4551714,918248147,44949,347176652,4035,5965,3039,3845572897,21
10647595,184974470,172708264,132113,171693244,157840,4699311,11252712,287183369,52968,176313228,9996,22153,51993,772105870,21
574539,24416146,17126590,59912,15759209,55201,1673709,2210085,111851479,35660,16967636,8646,38618,46910,76034658,21
162315,3752570,?,?,?,?,?,?,?,?,?,134,?,?,?,21
82456,2913587,?,?,?,?,?,?,?,?,?,131,?,?,?,21
312174,333436592,504087650,617868,503615985,619637,38787,2979852,876173951,21468,336704884,143,6551,3898,2349130021,21
207329,4809231,?,?,?,?,?,?,?,?,?,138,?,?,?,21
188548,4858448,?,?,?,?,?,?,?,?,?,132,?,?,?,21
180338,169357531,494619414,600776,499227747,572142,37703,1640941,432000074,11230,171993347,137,2795,1306,2035992275,21
174104,329519826,339983554,507514,339712876,518972,51817,1537988,419624270,11426,338653875,140,2648,1243,1858066555,21
246183,332646832,336971873,597563,336770159,603186,36211,2336966,703617567,19300,334161569,130,5602,3275,1840847698,21
2041078,83564814,13013264,36014,13088302,47035,545173,2543582,92063985,8929,74670006,3135,545,298,297555970,21
956700,14574464,11606049,26654,12323336,25259,529552,1308023,63200305,14465,16380219,6093,20638,31782,56841364,21
93654,3349153,?,?,?,?,?,?,?,?,?,135,?,?,?,21
50496,70455748,48513399,14878,48405844,16214,12153,327623,86612454,2360,79822233,126,647,2775,229062566,22
96768,78623424,52876474,18683,52815896,17996,25111,455926,94108811,2476,87077826,908,698,3835,250012147,22
215557,7584457,22593129,9752,22500232,17536,36536,468666,42216409,3419,26972424,329,?,?,?,22
130635,81923715,55952786,19170,56052717,20611,48748,494942,98877848,2968,92483548,1298,740,1366,264558687,22
155910,5841688,23377158,9543,23329485,12568,23151,296083,43296060,3105,36019099,134,3341,?,?,22
118910,68972558,49036979,18914,48690890,19514,14808,351793,85632002,2329,79857588,130,639,1792,230914756,22
359431,8880645,21990803,9593,21331606,18729,48144,519022,39264838,3769,25664872,525,?,?,?,22
415950,15914772,25405539,16878,26979968,16862,69584,716026,58053000,5292,37891165,1041,1824,1490,160721010,22
172481,6086265,22078996,10095,22237268,17585,48633,499439,41583040,3431,29356027,525,?,?,?,22
134192,71202622,50967086,20154,50945769,18055,16015,437086,89269261,2397,83722342,518,888,2708,240594269,22
91697,74559995,50751584,18461,50808045,18479,20109,427297,89189104,2287,84224269,519,656,3002,241015176,22
538957,15195452,19718967,15003,20956927,18853,93306,599713,42837781,6449,29516491,1040,5678,9392,9706487,22
121078,73782518,50691103,19130,50679044,17509,17873,424785,89272000,2357,83358339,519,642,2786,238813211,22
272966,8329648,22417072,12473,22159715,19124,59903,527426,41693327,3597,27371352,525,?,?,?,22
277741,9068149,21671012,8950,21662946,16641,42686,487605,38525928,3481,27405342,526,?,?,?,22
111227,72506703,51276992,21002,51099492,19435,25724,447956,89520607,2507,84131619,518,901,1430,241946025,22
48692,71607485,49517920,18986,49420916,18776,13694,355322,87807868,2326,80730360,127,655,4092,231634658,22
227943,4859287,22483093,11124,22611917,16174,48964,520064,41940397,3134,30241227,525,4813,?,?,22
241930,7412981,21895806,10007,21727294,18540,48997,421422,40829435,3754,30079538,524,?,?,?,22
215547,7411951,22441341,8147,22453453,16567,44795,500616,41300018,3474,28565541,527,?,?,?,22
3467819,343115578,180327026,1447996,179346433,1451609,2074369,9720541,485081705,59653,303129305,7059,25907,24783,1021135985,23
2677509,114934378,64316373,775282,64351061,811563,1442986,9673856,221497087,60019,102572792,1987,5852,8279,402078531,23
2620071,313926719,197856145,869400,201353749,872947,1176208,8369911,450949363,40655,336849086,2556,7191,27017,992136486,23
3213222,104750657,80206377,672540,75382534,731744,1589392,8072177,242135760,155931,90628500,2378,6690,11733,357326822,23
2149410,106171793,71333716,856028,76819012,718657,1192427,8506488,204698742,21356,111038170,1807,6043,10540,380419233,23
3079141,303959863,194007082,1059423,201263145,1066126,1476266,8976093,450713206,38368,336742545,2062,8308,29332,962549368,23
2755651,116561665,66769075,851977,66708856,799138,1461808,7872688,222979733,42052,104506376,2095,6741,8702,412861351,23
946843,294389138,167224091,664162,173834860,668948,91063,3047513,336194641,9106,300973115,338,2784,18358,868279257,23
2603063,115996854,67099256,939525,66615079,977110,1309003,9381072,227744385,61493,102105461,2040,18669,8443,388020521,23
3178765,289795216,205911088,884220,209117078,901850,1058892,8060612,433522120,29304,340256174,2049,8414,27004,922918769,23
2474530,113001253,68742374,814670,68592519,838490,1447329,10120321,233213541,69667,98193192,2094,70683,6546,381153614,23
2547899,112634248,63857444,898471,63813021,870565,1303364,9006230,219069969,50773,104617479,1938,4095,10281,403100669,23
2446092,112386173,71775380,837317,71809065,828263,1295088,8179843,237057119,46477,101943305,1958,46150,49055,385173360,23
3755996,106180288,90045280,725981,81245397,910518,1819054,10236082,238114472,166886,91525185,2510,4714,10692,352016584,23
1594938,294446824,165801847,1090674,170420861,1023693,104212,3733199,359201568,11203,298652852,479,2671,19430,871108330,23
3692012,286717155,208271264,895605,212064751,912290,1173400,8640590,438040772,30819,340583689,1848,6460,22009,903354143,23
3212476,302854850,198808266,839953,204589533,872153,1267460,8629237,448127021,38574,342060574,2606,9081,32197,964341964,23
2877577,284956164,210093887,936053,209673881,934824,629168,6774148,423946865,27921,330829287,1777,13267,18858,897337318,23
4165726,103994100,88413267,541248,79605465,685597,1835101,9412521,247601296,209909,91923785,3318,8202,10886,345298099,23
1019305,88423167,64911429,301033,57654223,388676,72918,2869207,132876259,5837,78614935,585,3296,2826,289439385,23
2101296,109026546,69996633,892546,75516732,749322,1083634,7963890,200420552,19252,113409938,1878,2752,10872,389566966,24
3822285,119373260,79085115,435962,78781344,435089,1598212,6964683,246409586,36306,107371555,7236,6295,14164,424529642,24
2103945,109941142,66108850,908883,75296548,738191,1118766,7942300,205998410,24631,116364155,1867,3535,8814,397442165,24
2401276,300750819,207797154,851474,207938012,856680,692623,6735870,414943549,28416,330100961,2054,4791,26300,943099370,24
3164537,108969579,96725670,543833,95791744,552046,2082714,9139450,271713002,85589,116557773,4229,15711,35130,407018765,24
2972720,108469373,87283717,584946,79408864,876333,1860325,8472712,228637897,75159,98640239,2683,13907,14197,371369632,24
2472460,320535241,216275553,1086268,216794097,1039307,1530325,10118125,450674235,34592,341109472,2522,6632,25305,1009417832,24
2694742,114452456,78928880,2028558,78886635,2054870,832944,6464152,236186926,16689,102040987,1958,3528,8514,397734653,24
2576220,296411449,208293805,852424,208082284,858434,672658,6776683,417618216,26841,328690956,1952,4594,22711,925876892,24
3095553,110103727,86966098,493046,86180078,696630,1574150,8373553,228972293,77013,104978933,2684,5305,11551,372611855,24
3091394,109411643,90783176,638642,82840506,788132,1464761,7888397,234269242,66789,102155491,2490,5328,11996,374780937,24
2439133,291726070,209204608,849067,209246079,849346,679985,6843381,415094647,26525,329394205,1862,5701,21306,916248648,24
3302045,318849770,212341279,1090720,209944865,1037209,1324543,8567854,473574758,44635,340050180,3161,7761,28130,1015055966,24
2594506,121292716,99842691,500669,96185652,835428,2184905,9371038,275325009,69051,124517938,2684,4440,10205,422870272,24
2415286,288899604,209805425,848735,209774072,848882,715213,6902828,420428015,28144,329423421,1859,5406,22276,918766426,24
2862172,291350051,206058485,852380,206499830,851051,765514,6815355,410821210,30175,325974552,2051,6232,25302,901972256,24
12114038,232865823,185481968,8433628,182292962,8338562,9325472,27507475,1021987814,1013878,238684312,8738,21406,76571,801188901,24
2117673,310951030,197500695,798982,201080400,819102,1000042,7734434,414914304,26659,328554194,1855,4929,23891,977527715,24
3226579,129850989,87149962,542973,88118915,544968,3055890,7998416,275734591,263939,129769277,3992,6502,32755,466802577,24
2241084,110253266,67083078,1146047,75024092,884444,1238408,8388039,212282154,20014,117518533,1980,3571,18599,404585152,24
2909868,327461854,198788944,1712126,202538282,1599902,1680755,11349963,472260501,53490,355359373,2831,4935,24826,1058165880,25
2448541,136730575,70099056,676108,69895057,833823,1477296,10835709,239882416,69185,125400080,2217,2318,7820,492581522,25
2955607,307065302,228031782,831189,227573808,835987,745921,7976883,459248425,33526,349216796,2234,8034,32383,963015052,25
5536910,330212364,213218086,1919189,226054731,1703502,2353343,11011477,574755148,57010,372888437,13662,20492,84211,1108672268,25
4233810,305908138,214464966,858032,212353059,889166,989778,8601301,440417591,34939,340511527,1874,4792,25459,935834488,25
2471690,138005713,70926576,614141,70755282,755756,1488039,10427729,238786130,67172,125191382,2530,6622,7658,487993877,25
3607666,314138399,207565642,1558706,208763966,1434407,1564822,11194991,482785168,51468,363906479,3133,8769,34425,1024831361,25
2911666,352336223,200977988,1363264,200808306,1463433,2194911,11914535,500043664,203161,332339766,3031,9639,22160,1082590809,25
3728775,137890473,79522671,573259,77613926,605527,1391232,8626551,262016947,67201,102969675,3200,3090,10864,449667266,25
14109289,178838487,113455092,5564303,113187714,5559026,8686310,35292170,861280706,1173465,149708638,4854,12511,36581,610568205,25
4462463,90967892,113780785,536427,107933179,560679,2147700,9612912,284729611,109803,123456376,4667,9573,35183,346821853,25
3017735,308486190,228074312,835970,227968958,838855,661037,8137544,456665607,31609,349323961,2431,6942,29798,962524795,25
5288466,104947681,100547252,521655,97497457,518290,2591267,10035755,282029728,155789,112970180,4599,7219,20354,362106420,25
3163278,136608081,93847769,690520,84690723,869812,2025438,10885778,248977731,185563,113457215,2518,3799,12419,465646590,25
5384488,342720632,236098403,1238959,246353387,1268405,2529246,17790505,577907785,128110,379376354,4545,11502,36180,1128144998,25
2597030,114251282,69556795,1168856,75369331,948577,1103616,9374506,224265682,39621,137395899,1880,3156,8041,435296284,25
4240971,107361582,125909684,560347,121485562,588642,2263293,9845196,286860355,122252,112682288,2998,8858,22438,439166011,25
5132217,105301563,100378906,521602,92683521,546049,2591698,10316952,282501682,167736,108293974,4413,6618,26548,365495817,25
11099327,194990491,188792339,12285640,178722285,12649581,2947213,26533086,921608439,324903,197886569,4843,14675,28517,717649425,25
13094360,160251456,95154339,2845433,95054310,2872526,2392220,44654853,404862139,255236,156341346,2431,4122,10436,568702342,25
2000133,103421601,75828762,343614,76058606,381720,1097092,6971067,194158058,19295,109890920,2453,3090,11073,370444370,26
2324704,100410601,71861663,436708,71855825,468170,1242465,7322573,194467263,45794,105819740,2269,3796,11316,357912346,26
2352202,107068999,78814803,457339,76781114,459412,1669753,7617245,210252403,57891,102801026,2914,6132,14250,369749548,26
2496479,290775791,199173580,871630,198838015,876396,644891,6427652,399650956,26123,311173311,1851,8783,19690,896172732,26
2261732,302481777,201624603,1151199,201229089,1149595,835470,7022552,424837282,60394,318458729,2486,8896,26304,938117902,26
10982139,359283868,245882072,6623464,245054014,6662647,8213042,26337960,1051849931,1198331,357281005,6971,17858,41582,1108923886,26
1948260,90189971,90380763,384134,89121612,408106,872635,6912817,195381145,16071,95613469,1935,4798,11294,411789350,26
1908785,98297881,76478707,398327,77323956,429479,881689,6809932,189768727,17590,107511250,2063,2019,8452,353601779,26
714608,42947593,27649913,86506,31111391,95491,324404,1057100,77756613,2981,59517825,2948,1201,5254,168222390,26
4080488,102413144,92987284,872490,86547812,777401,2293209,12833349,282404707,164530,107226755,4041,8598,31800,359623881,26
3306664,127512660,72616239,616984,71926122,733345,1394485,9719149,243246231,81531,105158407,2800,3791,11307,429330261,26
2537732,294084268,199964812,874755,199606590,878987,609854,6380115,401534993,27805,315773736,1856,5613,21915,907949716,26
2443672,293753723,200163708,870713,199495269,873942,614606,6392784,401935934,25633,314129234,2073,5166,27552,898653638,26
2267919,101473710,73556406,432735,73148106,458462,1599917,7567313,206254749,49799,102698937,2469,5008,12910,363607409,26
3820051,324174837,208354150,947419,206025920,928332,2920201,13133645,541549550,249833,305193303,2936,12747,37456,965314101,26
2299684,104152053,78404496,476197,75420217,466807,1683142,7528208,210563064,57784,101399374,2655,5455,12957,368065992,26
2205274,309602258,184467933,1083374,188619948,1114608,1547820,8669300,423521966,57951,315754019,2262,10060,25834,941046308,26
2818512,275140777,188751951,979230,189629228,987835,897983,6889010,395731443,62654,297714038,2646,7568,18046,859985599,26
2168377,111548732,63110255,735411,62924476,949861,1427310,9812193,217528430,44616,104941240,2054,5021,9547,397773773,26
3544383,117382474,80221412,487288,79995936,486557,1815370,7210146,257319336,78442,114590269,8089,11478,43561,423942837,26
1763665,140422441,138577736,299298,135950363,313842,1151568,5757173,287710398,41091,174981509,2240,9113,15904,518366236,27
1717955,136818605,136692390,299853,131079107,316289,1240249,5915781,284956145,40877,165333644,2245,4524,14038,509552771,27
1409487,543383252,339986888,2235516,340196531,2237838,635843,5624466,670137775,26795,538370383,1822,13141,29637,1653169261,27
1447764,541458931,320787200,2484728,320733114,2491056,995691,6167977,664432002,38316,518626589,2236,8508,32082,1628387901,27
1752667,513556167,347679787,1955811,336818309,2221175,1479568,7745364,697852638,48395,507047450,2237,14925,34638,1559581894,27
1793555,137905509,139254653,275726,133158466,284164,1246522,5877844,289066470,42443,169852264,2246,7395,13859,526781625,27
2926937,155680609,122388855,2051731,131195160,1474829,1381812,5265786,318204565,44572,205327733,4142,10425,32991,617160516,27
1882737,539876275,318208257,2368547,318434146,2243360,690862,5641574,645391061,25381,533414259,1824,8131,35787,1632493796,27
1529915,133493876,133713035,273758,128653105,288246,798981,5679109,274165944,19879,162084267,1830,6698,11309,489559443,27
1536300,131911928,134957124,273602,130119466,288702,786558,5718331,275855598,18550,164050061,1836,4913,8698,499317434,27
1748065,140588571,139818491,277552,137006543,285727,1187902,5830295,290936524,40739,175421602,2240,11144,12443,519726037,27
1812389,536487260,313234648,2428031,315071788,2436696,666832,5724129,643480253,24282,528088480,1824,13548,31472,1650796783,27
1845891,139388649,122952275,300261,120927083,317073,1283398,6188762,277594838,38377,162751241,2246,7199,12800,490587845,27
1820330,143828122,138871509,313863,139294008,308869,860872,5570720,295443993,37092,184700584,2240,7619,16061,530177360,27
1711460,134161523,139180626,280985,133919789,292235,1211736,5991434,286968322,40753,166683451,2288,6305,17028,506498913,27
1708788,136311322,141964929,287263,136953171,294648,1210883,5958811,290352419,43218,165056854,2240,7978,17496,496119085,27
1820147,141414488,146198914,291655,145771634,297995,879976,5494927,299164006,42189,174228785,2437,16600,15964,506040472,27
1480476,539880782,319489239,2599985,319417337,2612812,1014914,6387044,668478907,38918,515329948,2235,13314,29230,1615962345,27
1766536,140878959,138148467,276530,133796297,288735,1240264,5871530,287834856,41186,171983558,2444,9444,12343,521263671,27
1697241,527665005,332383293,1349160,327932464,1630766,1428338,7596479,656943018,42261,510370794,2258,13330,31838,1571905713,27
6088304,486069320,543330819,779342,547918538,782258,99807,17829154,851777034,116520,523371323,635,197301,37067,2053045716,28
14792938,418201154,317210198,796356,328005261,795248,97367,38040389,597993608,109663,477834058,634,324410,309554,1092864215,28
15745234,427828306,178165305,628167,178054780,625349,260506,35776178,612368837,110779,483405539,635,103080,301768,1408735877,28
7266884,237128787,262386364,729373,262829409,727959,140862,14248633,473440000,114755,227712636,630,306030,374474,1004325645,28
7248958,463378274,402961717,1007411,403831774,1006139,53489,14151808,722504814,122912,441350652,623,108610,9499,1725198450,28
719247,294888664,411981809,1030409,412039249,1029572,80066,2518387,559642129,15828,310391984,647,5382,3954,1189955667,28
16271226,424775242,167869810,406281,167345972,403717,97708,35939510,409178865,11210,435784611,1547,3394,3060,1461727111,28
14931322,425779007,184185200,643286,185130048,638852,113706,37570076,674283779,115309,458980404,625,336601,314376,1455247997,28
6295456,288352276,398026601,557856,393599148,561706,66685,14518375,580740768,15990,285982908,627,4531,3110,1335666478,28
14607457,497183342,373377083,852854,377219851,848547,97691,38500791,675243411,113825,544620236,625,112047,5683,1306667883,28
17637047,537630570,345474721,777732,345497072,775436,197488,39632298,798004923,125234,527936411,1120,106637,11185,1505425747,28
7158332,356167089,347415931,690030,347223145,695820,98492,13148419,402136987,11081,346016115,631,3292,3898,1430437874,28
258576739,522409912,206310055,710118,216591577,709254,291444,81368053,1153151213,126666,556906530,1081,106106,14801,1880378960,28
139981751,439342302,136085812,457173,137257078,471648,675517,77392664,1161693176,30761,433902761,2091,8697,5952,1732920435,28
16523228,426395544,163300972,393283,163397217,392482,43246,32312274,397436624,10645,428657928,633,3047,2842,1438440897,28
17417538,560423762,286401196,517727,286448321,522220,50039,32956247,469809646,13465,553469229,631,4175,3289,1318120794,28
16218741,524928067,218554836,641641,218460106,639703,236625,34180864,726361239,124541,521327789,621,110726,19571,1732248309,28
15999356,420270122,164255261,534058,165358087,492399,237532,33572590,412448239,19053,429690125,633,2872,2576,1429078552,28
6915555,279476378,239821240,373540,238679154,372316,45537,13771646,391602294,10449,289490236,1126,3752,2854,1088535278,28
16741328,588432257,300858810,765404,300557066,761360,88004,35699611,726313502,122454,577703644,630,108018,307377,1284846520,28
1450879,84767134,54840548,41299,54838504,40267,821242,1864239,138804732,31700,65838950,7464,18664,26457,247054523,29
398132,77032643,45164966,25175,44786279,37296,223848,837935,99092917,10700,71439174,1958,4212,5108,288631010,29
507566,112111400,73762913,34016,76411392,37473,225105,1170403,156648179,10001,124843919,2598,2664,10492,379888252,29
421092,77692025,43170510,34010,44287293,29017,137946,741131,90546568,7355,70094049,2055,4238,4061,268413321,29
1008842,139857299,111341935,55656,103823708,64436,1100361,2753695,199283742,28092,144110472,3483,4659,23251,487977026,29
258873,116221142,73432858,43233,76643142,41847,502901,1834173,164657000,14293,130211639,2598,3710,6121,408660168,29
406899,117391976,77887287,35145,78749666,32114,264565,1300249,156157337,5763,127607511,1953,2552,8319,392738176,29
381722,74440011,42845676,32796,45110736,29000,199264,943880,95425088,15752,69735387,2603,3423,5518,266973792,29
413325,115837061,77094257,36867,78595192,32917,132142,1002795,154643969,6591,126077998,1951,2415,7633,387288967,29
426833,114081602,78712174,38157,79634947,35939,179432,1119862,157255574,5534,126842475,1952,2031,9357,388793332,29
357240,78440189,43453447,40010,45098476,36333,165217,770253,91760985,10411,76215696,1959,1036,1353,286943476,29
1016411,139651341,112166075,53343,102431171,60398,1168766,2984323,196519148,30903,137061352,3872,5827,41619,471027860,29
559098,72538576,43834064,28855,46150331,28945,173101,889532,96206136,15015,63923935,2995,4169,27255,256013016,29
851755,64251003,71239667,48002,71876566,42323,355794,1754234,133384594,14540,94734908,3489,4972,21215,293349157,29
410538,115592413,77994891,34204,79045805,33913,81921,842853,153722712,5971,125647698,1951,2501,7385,385496532,29
822415,74550774,73886965,43821,73682637,39070,505772,1930693,140098772,16333,96383623,3684,6605,24158,312112153,29
457859,79769852,42805828,44492,45347264,40436,171535,816583,94246532,10460,72662758,1957,3561,5765,277618123,29
117379,67225322,43627257,23553,42237761,25612,93401,1131114,87283891,8969,73628458,1956,2157,1200,280568273,29
441715,115053652,78459934,41013,79519999,37844,132779,915946,155107322,5725,126387741,2088,2650,7904,383724354,29
1234905,72979090,70829212,30502,71601962,32092,936836,2149766,130142568,18173,83809683,3489,6089,27472,281521057,29
3979172,240079569,178464675,3939818,178377146,3941942,948831,8767901,478107088,71930,255598660,2573,8887,8169,922542704,30
11995211,406222949,232763717,7371562,241566600,7439627,3106101,24196620,781239207,396794,420231638,3650,11157,6333,1393461652,30
5481329,733298073,467233781,4879915,467245207,4884456,1555718,13103688,1208936147,224555,758268434,2567,112363,40751,2337503723,30
4964727,28703665,55359325,2859944,46395940,3141238,1071991,8643112,179689583,22401,29463891,1821,1322,716,191241040,30
13934932,793725537,489437229,5591182,490860495,5609249,4421574,27948253,1396329601,740795,814323687,3982,113833,26509,2614650646,30
4819728,764234333,440613297,4906516,453339217,4934402,1521368,12452819,1223713400,196025,772751770,3645,111625,47289,2370893027,30
6083325,228836489,154831501,3994572,154930330,3945410,1035205,11949227,608811200,154043,229869806,1698,412749,9451,772579800,30
7098904,297435010,171711935,3718721,168731255,3510038,3070762,14564695,527124596,144016,272580459,5998,15918,11118,988685814,30
4365271,260515338,173996281,3725924,174498730,3767850,2018399,10931004,696268682,191648,269459929,4043,109143,9125,934857839,30
8846527,246148367,184656235,5051266,184411094,5054341,722347,15032604,502441503,28467,248754071,2279,13053,26794,968003821,30
10809674,258928676,157217894,2212729,157520943,2207995,3048726,17376273,504953186,353181,258844805,7822,14796,10284,948841989,30
14372247,216777615,211384759,2540419,206351324,2616566,4624980,25204208,580773283,1302850,220506111,3404,10683,24637,976245646,30
4574190,743703330,433677237,4790039,444365796,4757854,1674693,11787017,1181156687,194283,741685241,3451,112235,40354,2314223403,30
4235542,225931434,165199402,3934744,165578289,3936526,1190209,9339466,489118264,73529,250647641,3652,6367,7515,876428855,30
10334744,333585962,193614288,3316032,193580718,3387972,5157961,21212919,593361907,495295,345907926,6387,6066,8515,1181604548,30
12933926,265074282,178443769,3791322,180403742,3853347,3971445,24703940,569521412,492842,277712253,3404,7637,5240,1009229831,30
12506265,268332809,196976515,3421905,197050824,3451854,7892005,26751605,679958788,3492043,261152086,6667,20050,27894,1162583145,30
7284520,752322722,510222798,2127811,510802317,2129368,154649,15920276,1212334834,130469,774615728,357,133025,39152,2739745459,30
3796224,704614566,450226124,4827139,449307194,4827073,1065083,10418308,1204743103,159388,723841705,2570,113735,29506,2235012969,30
4529375,274455145,190509686,4008244,190851578,4013975,1392747,10444482,729265306,210205,285712547,2571,108093,215528,1036558479,30
210958,14634951,52176845,6336989,52482400,6362275,28107,1680920,477287367,13136,11719404,130,4446,2474,205030395,31
99266,16235299,5712056,76985,5660309,72580,23424,556131,110232457,4985,14757555,130,753,368,54998674,31
308937,447782570,313996250,7319391,313749034,7309923,44072,3266828,974008959,25984,452843806,136,7182,4643,2073547017,31
143611,13441832,59104023,7227872,58695283,7200462,40010,1676331,492915087,13051,11612836,132,4080,1827,214028927,31
177655,13992291,56190197,6496643,56083251,6463983,52908,1624091,476332180,12331,11785426,1110,4133,2264,281362050,31
221330,14294146,57054503,6965840,57101311,6982949,54483,1880999,510090315,13110,11469085,133,3476,1392,264446812,31
143298,13319150,57764001,7109322,57608700,7106313,50419,1671520,502302965,14145,11568448,135,2997,997,201477244,31
142540,13462482,58875878,7317480,58926750,7316573,30200,1696697,486422865,12982,11541955,128,3263,1496,215252960,31
212162,14514761,57087472,7067823,57014562,7065573,73959,1931781,540345179,15527,12435685,134,4411,2336,270020137,31
197294,14400346,46315576,6492822,46106734,6383731,48330,1990852,530369221,15935,12298713,135,3801,1668,160046841,31
98713,35712288,16937143,99572,16954396,98027,6393,442063,134247274,4923,38016424,127,1907,1483,151979228,31
180901,14220753,58588574,7056157,58335240,7053005,41474,1805563,539921457,14955,12100039,134,4090,2093,212700521,31
191155,14407781,57513841,7104639,57440557,7117315,34458,1768110,508090904,13108,11590396,135,3380,1461,214465994,31
1466817,12898789,31087161,81195,33729134,71371,934282,3847379,106101552,35127,54604880,6149,35588,46094,74385875,31
441504,9525866,4941490,31153,4930642,31530,13157,273569,45615000,2718,9218518,132,4702,546,778339,31
197941,15788374,45889371,6480289,45668930,6484013,20004,1876330,543770433,15820,13098369,130,4469,2425,215018214,31
205607,14468514,46564325,6667880,46674834,6639144,36390,1966960,524921980,15548,12057907,131,4365,1703,226135418,31
145740,13488177,46643474,7036019,46437719,7072064,39783,1932022,517668346,15443,11927876,135,3430,1620,155212433,31
198614,14965312,58287617,7101206,57960118,7067117,17829,1961807,528036102,15501,12070956,128,4479,2421,270900183,31
408146,10323659,4967821,54530,4979599,54308,3192,286595,48136496,2840,12009618,133,2725,7996,32468786,31
