@relation problema
@attribute 'L1-dcache-load-misses' real
@attribute 'L1-dcache-loads' real
@attribute 'branch-instructions' real
@attribute 'branch-load-misses' real
@attribute 'branch-loads' real
@attribute 'branch-misses' real
@attribute 'cache-misses' real
@attribute 'cache-references' real
@attribute 'cpu-cycles' real
@attribute 'dTLB-load-misses' real
@attribute 'dTLB-loads' real
@attribute 'page-faults' real
@attribute 'iTLB-load-misses' real
@attribute 'iTLB-loads' real
@attribute 'instructions' real
@attribute 'class' {0,1,2,3,4,5,6,7,8,9,10,11,12,13,14,15,16,17,18,19,20,21,22,23,24,25,26,27,28,29,30,31}
@data
213455,247696068,156349408,600261,156267331,599887,51607,1757020,496491667,114312,251973221,127,106528,8238,767780006,0
189679,91927650,62272684,388730,62332874,389165,48654,1232083,339228488,111387,93606176,133,104737,6020,324440982,0
303802,248690092,154361956,704657,153544696,710925,74922,2040655,510637579,115839,250706362,129,205863,307690,768584205,0
207514,245912129,157041177,671602,156479269,661369,133289,1927879,506893539,114391,249711283,129,105433,118299,768683285,0
252063,244169824,155404777,667076,155557020,664797,53348,1786431,502136666,115066,249377797,129,105132,12986,766565147,0
208149,245017532,154857505,612342,154947580,609283,52726,1791534,502334315,114859,249210237,131,105436,12590,769045190,0
223330,247033876,155035492,630393,155417537,626049,65717,1892641,507352756,114399,251903830,130,105199,307238,768180887,0
280273,249123052,155229719,633550,155408795,636103,57548,1805389,497611912,113798,251570003,130,104881,7171,768446667,0
208742,94371000,63291588,398848,63208093,402934,214754,1470858,342730439,111638,95570804,136,105303,77758,328925683,0
206967,248155302,156160413,624923,156174817,620602,50846,1782387,503921260,114349,251700270,128,104990,206783,766418451,0
179008,90648070,61586151,393910,61387679,392353,71866,1275918,334888278,111155,91167230,135,104909,14773,318252319,0
244274,248634411,152371266,669016,153825566,667027,79717,2009676,497845028,114978,252586228,127,105652,7876,772514897,0
198405,249667901,156824549,646553,156812583,645218,61958,1727162,500168892,114430,253027908,128,105560,7659,771214054,0
176926,92566400,61801177,389246,61796395,387860,47139,1175079,335037970,110583,93231590,135,104680,14260,323322526,0
129309,64264075,48726801,160529,48721062,159957,43483,453425,96583145,3794,71848963,136,1219,2326,249502164,0
223019,249088186,155521302,634008,156049411,647002,208514,2056158,503847185,114426,252516875,129,179926,61843,768776702,0
214888,245644237,155849937,599380,156079298,605231,77633,1822631,498316685,114814,249714967,130,105419,10949,768544255,0
194795,64170262,48866525,113022,48791943,109298,56663,476508,97347340,3007,70596034,134,1229,2826,245514931,0
224714,248314729,156231957,673029,156236809,671246,64833,1791297,499430215,114653,252048689,129,111527,6852,767183243,0
219880,248768897,155621735,608750,155677322,606705,52209,1803396,504434012,114127,251684845,129,104821,263658,768407362,0
407155,5617993,210781077,253300,210937893,246006,93556,5099105,1433631809,38412,3164294,133,10292,4795,1972851092,1
93278,3277717,2318636,40186,2292547,38395,37629,690127,176539280,4972,419639,127,1134,526,137382702,1
262240,6064355,3881572,110208,3254802,95971,92825,1795613,432413859,12362,1039548,132,3662,1716,64318495,1
87990,5087326,5427099,123869,5205267,116542,82608,1277110,274447718,9982,2993822,128,2584,569,49664489,1
412987,35413121,122734921,321494,122659278,321360,116116,5555626,1571862314,41091,32956515,132,11214,4827,1216800894,1
106634,3316088,2140285,33621,2109328,33820,12971,644950,179245159,4398,356391,133,1180,537,110244940,1
79301,4077847,4024739,560055,3977927,562600,12472,287245,73182542,1846,158647,135,681,1042,81708363,1
66203,3128323,2031191,31674,2020103,31948,8964,634164,178532497,4430,351743,134,1170,499,117118128,1
55452,2928666,2206590,34158,2155803,33404,18694,634593,171598537,4517,347622,128,1151,489,102582724,1
187546,10216251,566350,9078,563497,8501,2206,239136,48628331,2637,9006095,133,2255,3801,46134860,1
681191,9721109,8166602,47212,8454389,46299,596033,1931010,112350637,16215,13870307,3860,14544,19195,124164563,1
104697,3165539,2238051,36254,2165240,32966,18450,638976,174799060,4381,336553,132,1222,495,133691950,1
201922,4234082,2589266,118084,2572734,116833,25147,2428633,733821706,17869,1241936,132,4759,2143,98454854,1
82667,3425565,2952301,55687,2628176,48266,30025,841538,188511512,4565,316791,131,1242,563,128478407,1
75057,3313430,2060739,33656,2033634,32187,7902,625011,178108471,4524,305435,130,1150,629,110097759,1
428116,4787979,210606311,241941,210601770,252049,77227,5108376,1536798666,39085,2856297,328,11046,4196,2220164947,1
238406,4073471,2718828,115593,2683216,118787,113215,2493813,672842235,17972,2583934,132,5121,2349,99564382,1
79599,3192773,2021361,31350,2020874,30354,14782,628581,175942496,4544,353223,132,1223,565,133789825,1
90846,3563063,5603398,36662,4655656,37012,49424,594107,106178821,3620,469096,132,712,283,80203238,1
39582,2775733,2933564,74854,3720548,123637,12410,326299,88268766,2494,265158,128,565,277,143060767,1
1076304,171136488,141149872,104218,135235452,1022653,74691,1490341,246587856,6502,180614675,912,1869,3364,530875312,2
371059,75682385,51156905,1851829,50834080,1869168,31472,913472,134468969,5220,71529882,524,2639,2824,311689350,2
439352,74163430,47464309,1996226,47467385,1938698,90835,1774972,128036689,5846,78933084,916,2873,2914,313657014,2
1142324,164832835,141967255,114569,140208213,112347,116099,1639999,259274393,11238,199522692,1907,3623,18289,525500522,2
225542,76623900,46994561,1996460,47024348,1936048,30369,1151248,126968353,5375,73833994,526,2684,3033,311372602,2
451009,166778858,142517398,99575,137520326,838324,73406,1204838,250906348,7046,180443027,522,2663,11682,522471450,2
569352,170091710,139435926,100072,135387935,935357,52958,1202452,244371403,6976,179879301,518,2392,10168,522846672,2
7527429,106638704,108043219,655325,108247147,667761,1241985,7172920,332469314,110768,131576279,2869,6121,22552,365838850,2
1118522,78946593,48310807,2120617,49883244,2123920,169903,1749044,147491475,8316,68071558,3087,7334,8940,280701133,2
8365605,121143238,104257326,2691366,99995269,2784365,752862,6503069,356959901,59701,129327474,2870,5609,24069,410713984,2
517119,169121600,140740536,97407,137714344,826540,41703,1183678,244835269,6500,182226449,517,2150,10142,527925066,2
880659,167639938,143119051,107185,143316095,384671,103930,1545424,251336961,6839,191357329,909,2235,7439,538131154,2
6507990,99084814,94944362,590828,98019795,595885,1105556,6871190,319593246,134129,116739452,2673,7185,17430,343194615,2
891068,77327102,48200315,1951449,46490480,1967600,187894,1796493,145881774,8912,64638308,1914,4805,12833,266758928,2
176223,80115785,47104873,2008996,47080523,1995498,67124,1217190,128019841,5883,74188905,529,3310,1747,317231889,2
568774,169085827,142608026,780554,128520330,1317048,72222,1188950,249901305,6948,169853506,519,2901,10409,519200322,2
991742,166988832,137906041,108135,138248420,566461,151575,1463580,246533678,7703,183995051,910,2885,9698,519171598,2
336362,83603343,54490064,1850114,51639238,1889847,30792,928920,135624417,4428,65685839,523,2172,2192,281698875,2
1406551,75565149,50190282,3793019,49584572,3785506,88293,3749583,212768439,9857,68179436,1009,3678,8017,323328115,2
188493,119800157,62517795,2570934,57707952,2815688,32901,1446633,167924466,4312,90810083,529,1329,1196,377553539,2
4800193,155308880,105166620,872794,104346315,861172,1673347,10352319,383469409,207564,148164466,2480,6802,22449,509043357,3
4966622,198763868,136705441,1335753,136161118,1335164,1742754,12332724,880639243,432982,200128299,2478,956031,130361,662908295,3
4933397,411274669,261007509,1571006,260417663,1566570,1828512,13551886,1120324570,437127,408832390,2475,608624,731072,1266939210,3
4811332,406154763,258997171,1563325,258523317,1555993,1880323,13626959,1110331139,423238,403540559,2473,215933,38973,1258528677,3
4716230,159273436,104720786,831990,104240410,828191,1625199,10371811,378991598,189538,152784193,2480,7755,19324,524638400,3
4820217,411077731,260924784,1562622,259906211,1558958,2183431,13838495,1110524409,392188,413362369,2472,218990,39627,1269939580,3
4873141,165171155,101563833,847354,101405795,843366,1762981,10467333,382760591,206221,145692414,2871,5401,23769,515623379,3
4732374,137444918,115227320,847051,115141301,839700,1711397,10575117,390890391,207374,133485575,2475,6365,21767,532421632,3
5005162,199861417,136788274,1321581,136551544,1332108,1724541,12284207,885700259,429135,201611382,2478,201308,29088,667332474,3
4715176,186546036,130004279,1333768,129780254,1293192,1501391,11354234,849539843,345748,191721219,2478,226471,103635,632095458,3
4949246,357650383,228609419,1053917,228235737,1036273,1677027,11342892,607117112,158510,373630342,2930,8264,37987,1129382863,3
4843555,411074996,261439084,1548393,260814662,1541135,1864741,13809381,1114365704,421339,411311702,2679,213464,646279,1273071256,3
5306034,396116287,273624410,3333996,273588006,3324645,1840685,13822366,1180448981,376117,408660028,2472,256693,634668,1248226698,3
4728054,159718777,105104339,846334,104376144,837913,1647346,10209465,374947284,186258,151724368,2480,6776,21469,523903198,3
5219238,199387844,136425579,1283803,136255031,1304043,1452686,11599963,891498413,417430,201853270,2479,201546,128023,669421621,3
5063654,108645493,100297562,765371,103083732,760613,1133067,9231388,354297898,98703,156666771,2479,3493,22465,405417605,3
4213483,139752908,103100178,730290,102326360,720585,744801,8635609,334564300,94094,146869828,2479,5559,20560,472213723,3
5166989,402350776,260382328,1534701,259501103,1537180,1777892,13291644,1125215906,442497,401454022,2474,204275,436325,1243741997,3
4723883,159188653,106447345,846633,105899218,840782,1657162,10369187,381418062,202322,151108683,2481,5076,18808,516268288,3
5151688,198221747,137836246,1243046,137703317,1271511,1249786,11627321,894285362,408574,201482991,2476,588161,347624,665934200,3
4519667,152117510,114054255,579218,117166628,599260,5104771,12171520,446763279,494867,141890318,9037,12534,41579,520507284,4
5478511,343460841,227810789,1468569,227654325,1655674,7673404,16317391,720129832,637066,371565786,7550,37658,54948,1089149125,4
3542692,123754399,88096663,1013700,92120168,845449,5378767,12740153,386445283,378238,134479404,5953,9171,34416,468892508,4
5907720,137532116,89915044,1252604,90524091,1060187,6751778,15548476,488583971,719474,127055462,5601,120444,32162,478511773,4
6245075,131642814,89306979,1267176,87894639,1119109,7925816,16785126,486357683,780824,126337494,5126,37194,27346,473211929,4
4396466,139664650,110772136,664714,107974398,686389,4441382,10389350,417613140,424063,150154030,6570,9012,40759,528271355,4
3460738,123285506,88828963,996782,93285040,834935,5334567,12465133,380162449,390572,135035368,5953,8962,36877,470199560,4
5777060,339866954,235621142,867512,243695721,887624,4823070,13277717,665523406,485679,383836470,8190,17060,74500,1095691301,4
5284670,149982464,114578426,671724,113934505,656672,6425457,14314257,475938410,622901,153381116,8000,9419,40662,544051604,4
4258352,124246743,87917982,906424,88571121,884859,5428211,14224038,393893422,471251,135554736,6196,10048,34471,471880103,4
8634636,174093444,141756048,825109,142520836,819518,8921164,20684935,739169324,951710,193200453,13186,15132,103824,659433273,4
4291515,120246702,92613832,711221,91743266,710684,4433626,12067996,423849507,645040,120489906,3257,6265,13139,408899591,4
6090472,324328394,242579140,813974,242217044,822171,6033131,16066260,699378932,628940,358577530,6185,13506,67064,1023723484,4
3971835,318217244,230819652,755738,231476065,772257,3531911,10115264,603368703,385361,364280260,5331,10598,61764,1015776222,4
4550933,328464643,222183883,823951,228657230,818932,4182056,12832352,626169288,530869,353510301,2867,8192,24414,1032835895,4
5300840,127375336,89504058,1257323,87499786,1356993,7506283,16186692,476234920,681760,133997341,4995,8622,23129,470979303,4
6499112,130359286,94600312,833716,93564562,998714,7618599,15949384,509354243,723294,131048268,7556,139481,43909,462152095,4
4853300,120035245,93084150,650075,92173803,661201,4585071,13716837,424773572,643559,122547743,3072,9062,13308,427097940,4
4169604,373093250,263894786,924577,269737746,927240,4274621,11079542,679907687,416240,404792474,7378,13357,75198,1196217091,4
6351863,127218578,106966917,1105822,95033215,922755,6495445,15429891,490536038,728219,124064017,6580,102070,41220,462921551,4
6487485,184066018,106952834,1238828,106169200,1306205,9694637,21309578,613051551,952535,148816314,5778,39737,32237,619082677,5
5948181,380038015,244346635,1330392,247431126,1235098,7646302,18442618,768316069,665352,416719868,6424,14125,57014,1247003550,5
8904942,410302561,244616854,1532466,245492215,1472159,9859396,30863479,931354016,1091441,416243360,6492,11346,37667,1338872937,5
8759634,153070567,141654834,910215,140106863,874980,7751441,18794444,643731265,881090,189250211,8148,103287,41994,578813995,5
10970321,364891776,274644974,1332424,275332048,1227681,8467695,21655047,910286412,968041,426241100,7161,142257,60518,1189298263,5
6658913,382860356,248250744,1112629,247042301,1040001,8874283,24030803,781593010,793739,387298849,6618,50528,59480,1233909397,5
6550387,175036911,109599313,934120,110412295,960015,8213966,20899279,536895410,757758,146608414,7062,83253,64294,601179523,5
8564796,145504460,136118965,678628,136303341,717313,5949888,14446806,552292047,759459,172559824,7652,106289,31864,515309113,5
7027821,180201070,112318889,1271782,111725982,1118793,9575269,22821762,615083461,917871,147974513,6582,160828,36397,612278880,5
8984553,148628318,152517640,825789,150322965,975054,6989878,17276401,571733764,750166,153570949,7645,88954,48060,611829591,5
6355693,208754639,121426772,1340427,119712108,1202507,9555896,22292609,598398896,861810,191357966,8965,13553,70525,805915312,5
5944051,166688887,105922127,1210838,102051249,1375949,8231552,21082223,600443341,922762,161335400,4158,10799,25810,675884866,5
6059942,374847793,243315103,1460792,255883025,1283129,6919744,16198869,761120344,631105,420052486,6424,12983,56126,1236917105,5
6493813,385696332,258802806,1224986,253578226,1223485,8214070,19490187,795278085,825949,380825299,7449,84784,54289,1210446353,5
11111806,148249591,127432977,859893,132261808,1198715,13005378,25568486,729370023,1396555,171404427,8145,63551,29449,523552550,5
12948526,478612598,336752223,3809675,336543058,3867452,11128704,29859603,1216461230,1048263,510617044,13037,25552,141680,1623961361,5
8911861,266995583,230303227,799888,217607508,795358,13286844,25922431,775088181,913469,262706177,18231,116588,117529,1047381419,5
8486217,155345698,136277345,876662,131417631,1109379,8853042,20184570,630247048,882901,160039919,7364,81734,42890,515780092,5
7198185,243384219,142920972,858983,148031413,874807,11337729,25855343,701342327,799008,207456458,15648,104383,106358,866972707,5
6028915,179262381,110575705,716074,109287674,888761,8875089,21094845,540343255,858857,144274111,6585,43323,51278,599140157,5
7516559,696297302,438817296,2464777,436229003,2236585,4645867,21033779,904796515,243855,682729209,5600,18231,45881,2109281563,6
1971102,652458006,418854147,3273834,407194890,3744162,1274377,6660399,785205675,37718,609109267,4793,19908,28941,1898439238,6
20740563,325328878,240973742,2258649,238632228,2252758,20677489,45736488,1556461798,2762980,322274841,18075,29988,89193,1129274791,6
5754970,215454747,150584204,2995277,150715690,2977487,2869195,10936815,410404792,107247,209909136,3258,5082,4316,746597777,6
933407,161375578,133332402,1606404,129975626,2166843,343457,2476371,288273425,14600,153855857,1502,5871,6925,518758342,6
810753,643422065,400396993,2850062,403457296,2826070,341187,3870553,751503383,22421,663346933,1877,10276,29547,1900719060,6
15282373,278575831,224060839,9248267,223503171,9257812,15805745,40872496,1370403614,1908214,286106328,11663,38102,64807,938340692,6
1524522,162942331,147346266,1728514,141502868,2335393,328879,2794878,307762321,21978,147703500,1894,10853,11594,536928218,6
7130670,181183391,181991396,9606433,185375293,9972818,1450544,15995233,624858627,29599,204020535,4809,13906,17627,772081434,6
1432042,644691882,412722989,2697269,412888694,2687048,161043,3446201,752570799,20200,661871942,2721,6821,29050,1947070877,6
1578720,165954753,145013175,812768,149274680,595823,832458,5275285,296112118,12865,176919865,1696,3673,3943,570794621,6
16861373,352363105,274994012,12405099,276703831,12375887,16848400,39500609,1415932473,2247475,367781465,9547,35170,65726,1149267986,6
1571671,168143587,144993660,1886801,137812673,2440402,498984,3342153,297145152,12449,148048249,1697,3979,4876,546299553,6
3692623,192901229,143204240,1541901,147092805,1566147,1352637,4532262,356702732,21926,237022561,6358,17557,39815,645383110,6
9026096,702296698,463114249,3133100,462969558,3118280,499580,5274583,956379723,37097,688408247,3840,19288,49026,2181399797,6
21514961,319427007,261127890,5476385,259643429,5534526,2211603,8551688,971629601,56937,336571489,7375,29475,47463,1050083411,6
860847,159719138,140326070,1573883,140354838,1838413,253649,2459876,303754444,8910,151325770,1502,4298,4174,547180806,6
1210956,638348430,391126644,4181889,393919478,4087706,801464,5681388,763784019,23411,643261767,1690,6397,24742,1888796175,6
2348931,158274193,141222390,770038,143353970,567126,1003330,4527418,309438046,28059,169630260,4111,19527,29069,539205616,6
11138496,213519059,216736735,783260,213486603,1262028,896127,5090849,507827293,19257,219332135,4431,7938,29084,836835111,6
26621719,622808455,308255593,374564,307731471,382925,19225316,54556153,1191173439,303536,635212984,98333,331040,793194,1989257975,7
6483920,395687198,102975656,67696,102834956,62863,43686,12402694,321915526,8563,410553502,325,2084,1330,1330216289,7
12809021,197321723,13377535,48470,13363457,47114,18601,25330697,235229054,6068,208437635,337,2073,1533,681864256,7
26773081,630940291,305217232,378553,306047194,385954,19351966,52817075,1192027319,303418,630731884,98334,334843,690480,2004301616,7
25343139,295843537,206602606,66534,205895422,69304,51326,46129154,369394955,12076,303406366,330,3764,1599,1329771751,7
15326419,437392270,296954547,349666,297042785,349052,8696602,27417633,1088529719,133408,439753618,97885,299670,422182,2270457396,7
12795006,496413397,205992761,67047,205970368,69432,20688,30005871,399710525,10129,513216846,426,2609,2036,1737039518,7
50384352,296852800,206700546,72283,206638740,70349,23640,90831355,390359930,10491,308259012,529,4361,2546,1224646071,7
15795766,438996070,300329044,346352,300895728,340006,8969167,28428330,1044103963,129441,442959068,97886,297668,349543,2088532191,7
27222864,631021410,304593898,390629,305116586,389287,19277888,54388100,1211641829,292735,654506344,98338,333982,692805,2235866966,7
28712708,509568406,336218290,476213,348397512,473629,21636938,42857608,1305511054,686378,526087950,97885,295407,475932,2606206820,7
12571425,386265211,102779315,53884,102859082,53561,25242,25278619,301138891,9267,405989967,332,2949,1840,1220741025,7
6287509,383488515,214157550,69249,211619520,66007,36158,11879605,333319971,8136,383056684,230,1939,853,1473501171,7
50618017,296724610,207115126,71943,206563628,71580,16763,90528983,379615014,11578,305039616,529,3468,1890,1221570176,7
15033142,440479883,298342664,398551,296869018,393266,8755244,28632867,1417904403,139054,437614747,97895,301882,394595,2581443457,7
15409993,438478403,301548566,358521,298980381,360992,8298983,26724136,1012460486,129906,437611487,97899,104727,440736,1973401682,7
6354751,290245618,310691314,233156,310158152,211115,12844,11349015,241955732,5737,309273862,232,1523,720,1068032846,7
15461347,335800288,300966089,336869,300549707,335131,8756583,27403687,1114626966,127397,340677458,97904,306504,598706,2376211973,7
27524539,662080022,296624635,400299,296858377,397380,18934837,52159798,1228133785,301023,633225100,98333,142640,589948,2423005857,7
20697264,669080960,299784097,402123,292753087,406035,18153745,38412172,1176391095,310702,593806794,98240,322128,664030,2102433745,7
34442144,453461725,251783509,2852088,252688944,2848697,18506440,62823753,902869811,2387572,473717648,8735,47731,42687,1420162067,8
15460108,338912704,236331549,905585,231713324,947616,13665554,36994835,1261818459,1000393,346274734,9353,224297,401553,1151537463,8
8548973,344077342,167708186,2788592,167443765,2873454,4916744,17409424,593681783,90641,329517495,6582,11927,13136,1165043144,8
6393120,707640169,430627118,3922566,433274241,3956930,3242613,17193934,1445707866,271031,721092442,4615,1005444,105116,2241672553,8
7885105,240406716,143483508,2422954,144170642,2426674,5346647,17422293,484403006,50415,260108863,6777,5807,5278,898803100,8
5905912,396303145,179605345,3477007,179659141,3476306,3435232,16002275,703729266,68605,395698219,4233,15454,30530,1258720307,8
8048111,290362423,148481790,3031793,151766938,3162149,4014436,16674760,569340774,56490,292125653,4230,7602,6938,1127116360,8
11769232,424324467,185690319,2874470,185731824,2874118,8173030,26023219,825782418,123899,433468325,11074,19798,68686,1359491933,8
6040606,243257370,135349727,2461888,140458587,2597129,3975772,14312545,463856851,61700,251090208,5140,10936,12515,845580973,8
7739345,745318022,445460373,3946377,449699498,3981557,7233329,23875743,1490785809,431566,762635889,4036,626803,393342,2365255161,8
6357366,773583248,448577285,3726333,440154121,3736379,5798024,19990121,1492186899,302465,745251230,6768,637433,339980,2391544368,8
15148563,475683160,249069208,8230753,249803000,8244834,13185964,41609922,1110817122,870026,473331699,4044,25460,43490,1671679138,8
7132885,779258638,447482640,4447018,447638480,4446767,3943980,19881544,1621927823,283670,791470290,4614,621173,535470,2468761434,8
18310302,784217473,463424840,5961907,458179568,5970236,7185174,32832548,1602241506,389319,783365015,4618,230459,52619,2423753513,8
7972202,745650117,435469493,3831413,425540175,3818708,5498902,21450331,1452038851,270185,714914410,6772,218434,30338,2287854339,8
12836457,839235772,492568312,4297710,492852877,4266787,12902936,35419073,1754152571,776580,846132902,7943,620149,617075,2513826539,8
7204310,396263818,183615285,640067,183592586,638715,3243690,16243765,663106412,189125,416554112,3652,7749,6563,1369982129,8
6294970,714339617,430898393,4269166,433591540,4314312,3283367,16938430,1447191601,273224,725866703,4616,624380,704254,2223849133,8
5695395,258405083,137402387,436079,136983079,450576,4447038,15325341,458158009,44207,258269081,4430,6462,6258,1059497759,8
7853666,247883612,143096452,2352269,143307260,2352027,4766382,16909450,491849585,57195,256922622,6583,5541,5996,899925826,8
220563,8740515,32477851,14186,30795321,16738,256964,827025,50684455,7106,32082918,1366,5386,4063,106268093,9
250586,8487354,28777949,14784,28647207,14121,53721,498959,46601377,3277,47804515,390,4354,10640,16113683,9
249053,8151045,27208805,16349,27159064,17943,67056,435910,45563666,6406,39878684,621,6676,?,?,9
187241,129433772,78482837,33965,78465098,32900,57955,651658,155351690,4408,142552682,374,2040,3713,360957281,9
276811,128285983,79798791,31359,79982783,31429,31100,662923,155909854,4494,148046958,444,1571,3405,363252194,9
321428,34666101,39400100,32202,39445568,32706,115343,663919,67567221,2462,63787293,392,2475,3642,164416426,9
654938,6942820,33366380,15498,34190460,16618,151533,744032,53950086,7419,48050243,1374,15000,18931,112981315,9
176158,110339079,73664086,40189,73944503,38781,68350,723559,160666349,4712,118087909,376,2193,2615,421777392,9
294373,130969191,79664241,44606,79630576,41653,143736,843961,159729282,6189,143915599,1361,2937,7708,368544053,9
203996,4686423,96972,11599,105383,11836,21222,183951,?,?,?,447,?,?,?,9
130605,180955689,83298073,66210,76183842,77819,2034548,3711608,202094030,36462,134043503,6292,5274,8276,480463890,9
59527,2599285,?,?,?,?,?,?,?,?,?,151,?,?,?,9
183775,132468460,78427883,29520,78364839,28941,45490,606278,152188597,4410,142693963,372,2648,3920,364524378,9
542070,18638434,26055267,27273,26173571,25904,199457,728904,48133803,5173,43181902,1119,4100,3390,35521763,9
271353,11451767,32242466,17255,32153649,16474,79204,458197,49689193,4513,51914983,1372,2303,2775,85884722,9
414445,7670453,18334877,29612,17134138,31291,724469,1708029,31140263,11928,1009248,2362,?,?,?,9
67270,2387595,?,?,?,?,?,?,?,?,?,655,?,?,?,9
397368,9866899,30177633,14510,30134029,14904,33878,352758,43017097,2884,34781000,180,7150,?,?,9
214359,127034922,78772018,32537,78815726,30577,44900,629782,152834633,4460,142695732,374,2583,3552,359206184,9
99973,3190666,?,?,?,?,?,?,?,?,?,452,?,?,?,9
1016661,83644432,79215671,142353,79140021,155146,477480,2486543,171538353,18787,89635591,2022,2013,5673,291501301,10
3309562,107640051,71841138,334147,73030757,355952,2241226,5741878,255435493,156601,109324836,4301,112506,17051,375943425,10
2970927,102836153,71701254,386241,71937497,379318,2042371,5331980,252281471,158669,98376670,3520,3987,14696,366242154,10
6878756,131076022,121165213,2271855,120507426,2267341,6035106,15670978,582323227,844871,150160016,5604,8845,34502,479457032,10
12018820,195693441,172186245,761492,175007966,763867,1748587,6073391,481933584,59459,217249637,7928,9770,33932,697807178,10
5122516,300432906,200301244,607500,204681403,621452,3734311,8350553,519823260,211224,334899010,7035,190155,45878,1020224994,10
996440,240537581,173139649,862331,176060878,876102,431953,3291197,347503273,14995,281884757,2016,4961,23173,769227770,10
1292625,81953671,79238277,146090,76615124,196462,534584,2355993,170378205,12630,85501098,2218,3618,6562,292663843,10
2451759,110992476,84867150,147856,87222741,143064,3496798,7783264,294438540,201118,113388666,6482,12887,19919,428989520,10
2266403,109561102,79304923,723201,79777235,811497,2810564,6529845,276739081,173984,111494416,4137,5294,17834,407326315,10
859510,283534288,155927326,1296827,170670581,1087312,1495025,5599016,371158871,27794,294889896,2993,5053,26723,882164267,10
973008,246483737,172826565,924331,174382522,925695,352230,2712032,346245578,15254,284018282,2019,4157,20076,782783161,10
14926041,372916965,271761124,1179580,273782331,1195061,2525564,8290066,679734648,136474,378953741,4820,13049,40593,1174627055,10
1135906,92214766,82780278,150923,84436756,147888,875677,4425954,189315521,18848,105436967,2997,6194,21537,344077090,10
1454603,89644026,73412723,129738,73337808,131152,283500,2158715,159452604,11575,99094101,2024,1989,6286,327061506,10
1141789,250774856,188791084,625890,185267683,636762,1076226,5171106,360883993,17054,290188828,2865,19631,34798,832416203,10
1032840,79857564,79882380,149561,80184699,147566,422458,2411428,177577348,14094,96970556,2802,3153,19286,301252249,10
1104486,126299369,58398225,1003544,58458194,847055,2107910,5839370,215944697,38407,95762796,7173,16558,24064,418420161,10
1920506,289391011,189120215,770256,183776048,809835,2645748,7308326,446482306,169744,288672026,3521,6333,29045,906040619,10
2217332,126314817,86705876,167455,86879041,164237,3719738,8418137,293270981,193950,120748619,5894,13766,22664,446321915,10
13204331,63771594,26726790,4936068,26937554,4960992,40326,1884844,224222885,7056,66480958,172,2087,1591,137154927,11
14149943,65315620,26823520,5069187,26784034,4947601,44489,3595928,203892098,8004,65710543,213,1903,786,151526169,11
24200584,739010500,607768854,5835795,607489825,5833113,39097,21145329,1126745917,28637,747032220,221,7684,4804,2565638216,11
24484527,78619114,26679864,5633837,26641483,5634216,9389,21581445,254728117,6523,79425461,231,1594,751,189872105,11
8031334,67133148,28195379,5211336,28028159,5215247,10949,2670002,229912745,5747,69150913,191,1615,1622,148482569,11
25125340,80333528,33044358,4979614,31203296,5041977,79253,19847914,272630746,9534,82141419,210,2097,718,168775089,11
14538794,67301249,27267308,5494236,27275878,5516973,17658,882443,210955243,5650,69013107,169,2248,1620,156491361,11
6635597,83218735,47849904,4929103,47827780,4921373,20737,874482,247376301,6737,85268316,183,2111,867,399219619,11
13947506,69940797,32608469,6131447,32413470,6129286,31501,2276256,237154983,6052,71898363,223,1448,2001,171602606,11
23817094,779418508,611595054,5789692,612497364,5796397,45833,19934905,1122736777,29166,786985581,246,8175,4753,2631858456,11
22212334,91917098,27394259,5057399,27533454,5043337,10660,18743289,242106271,6196,94445961,218,1619,731,176085625,11
19561121,57087404,28852984,4941925,28836615,4943293,30604,14168262,259407000,8147,55922430,332,1706,2164,166059009,11
24563828,78946613,26623636,5547042,26656025,5556827,9916,17361670,252036277,6364,79830423,261,1632,803,158568980,11
20485085,208110589,69732345,9773596,66388831,9979791,86033,2255480,514649923,14251,183827229,172,3083,1507,567889057,11
12995920,64150959,26730296,4613931,26884459,4616913,17074,4428273,221848943,6410,66653747,223,2461,2041,138326583,11
11167231,64585846,39882604,5765798,39902641,5767793,8948,2434839,231474804,6067,66488314,213,2410,1894,186735217,11
28006951,754348465,608836919,5768388,608971403,5771961,48988,33428740,1116086928,29956,760439543,233,7903,4386,2577185757,11
15093673,86419200,40707249,5159632,36132148,5419667,121464,3622913,237073582,6133,91424782,2526,1846,1591,182936085,11
7792395,70134594,26756749,5869615,26653729,5906681,39190,1230982,264742905,6907,71378457,202,2553,1284,239662322,11
22597964,742780434,608053800,5815478,606666188,5816823,93403,21537569,1094061620,30734,747215484,222,7008,4086,2591136681,11
1330349,84593782,75405387,38388,76257743,36975,218548,1734205,150172796,7952,93723371,1944,3866,5012,332609878,12
3292531,320829558,202393746,536678,197256408,542447,1025818,4029412,419921196,29183,319248659,6301,12545,26715,991287895,12
1339818,72730747,100901279,41432,102643528,40034,244818,1648741,167590647,9332,86784652,1942,3892,4962,369109860,12
213402,91363873,73326690,102897,78671392,152979,192518,2371326,123503820,6084,85520364,916,2440,1845,312369670,12
9729674,391709680,312179280,1657034,314072426,1650163,798240,4133879,673699126,31984,392914595,4816,12023,49197,1342208426,12
8981394,391440019,265361632,1079755,268554481,1091771,853615,4213894,663693634,32497,394938231,4816,11334,49541,1174235286,12
10906907,177933654,124444577,442104,129590950,465038,1473796,4785822,491645051,31159,186491190,6385,12273,49418,605810246,12
1060284,319894979,218687048,699580,219053485,722602,218297,3143517,387514970,14983,306214225,2330,13396,20744,958244280,12
581814,67830898,87580205,90518,92003246,162778,198975,2542467,169448958,10220,97029917,1907,2660,6998,268436605,12
3104575,84032556,79394833,55279,81689795,50436,332736,2176431,167602976,14041,104236042,3749,5395,8569,350331389,12
7676087,451944486,330055308,786906,323665863,829633,4146107,13267668,607691472,46574,455409004,8630,18253,49320,1521114171,12
2937234,83643897,79039713,43607,81035554,41063,285535,2341868,164591688,12578,102237714,3750,10169,8174,348826148,12
2901267,83495533,79438855,42150,81513725,46040,298428,2454570,165935071,13058,103152882,3749,10653,6894,334966167,12
3426710,89008421,75915628,40207,78075847,39803,226135,1585863,158648043,13287,103944964,3748,5150,11569,357485149,12
1218332,312007019,219037962,539537,214337074,560610,219766,3055293,394861951,14907,299814042,1940,7087,23552,942297939,12
11573749,399811098,254968104,1037337,264737567,1071625,1568989,5743450,720483886,44641,421548348,6379,15699,70011,1240179988,12
1514690,84998758,71463001,38780,73977133,38456,198131,1524605,147979997,8517,100400172,1945,5710,4300,352496052,12
176371,88135311,72953056,158079,76052930,184209,103849,1317288,122176543,5744,90757956,526,2097,2407,304926349,12
1361892,79986559,80104264,34062,81198281,36942,227223,1683944,160620083,8383,92700931,1944,3240,3453,328457434,12
591292,325660624,226265262,696935,228330405,720859,378475,3465165,372109742,16949,318559543,1938,7230,21465,969267885,12
66696,69038219,47558460,41941,47834249,39947,59630,618666,87135823,3537,79145402,130,759,2979,226397680,13
62259,71768886,49979534,17154,49990123,17276,37955,389921,90263859,3014,81359575,127,687,3002,233183886,13
369954,17487426,31400920,11205,31369389,10640,11695,264210,54360946,2540,37939972,261,1885,1747,155114730,13
169412,4191796,21938303,8460,21926519,11936,24208,284238,40293709,2934,30218810,135,3150,?,?,13
50062,72535044,48699008,26743,49248218,24772,36784,415440,87702536,2569,80905898,129,961,1921,234328629,13
47859,74377651,49827799,16727,49746061,16781,11433,341577,86782099,2459,80979654,128,997,2925,233411952,13
177050,4935291,21585965,8825,21614138,16611,26705,292425,41269087,2992,30105078,132,7493,?,?,13
46473,72482965,50605844,22518,50360697,20977,34787,376323,87565550,2417,80995490,127,870,2982,234642447,13
130358,75437333,53270286,18357,53315453,20186,50701,425770,96107640,3158,87717069,517,1483,5408,252377970,13
254624,8070269,21492201,8746,21278955,17433,25665,319272,39063155,3485,28013453,133,?,?,?,13
45850,74605948,49963423,18505,49777885,17554,12061,349411,86687978,2366,80922918,128,657,4209,233978678,13
75391,78672661,55445474,19005,54939019,20874,25698,437210,96544373,2847,90138604,325,953,3744,259999833,13
129081,79087889,55106128,21178,55061255,20745,19807,476914,97888835,2663,90647235,522,950,3551,259479216,13
156195,4614378,21639778,12592,21763654,19646,34367,327593,40047622,3232,29863257,134,?,?,?,13
442884,12368863,20870686,11210,19552083,19999,38643,328307,37690860,3385,25575331,140,?,?,?,13
139798,80688011,52084924,32669,51918129,30080,72596,591034,99665797,3865,88563806,779,1648,10700,253348580,13
91488,71410463,49825607,17620,49821522,18539,16884,362720,88579049,2647,81241344,129,670,4100,233499790,13
60229,75316793,51027980,20429,50903436,18532,12967,390854,90381959,2426,82475194,324,859,4558,237986380,13
78349,69904676,49565811,17932,49580365,16247,10472,325391,86979788,2301,80894761,128,852,2580,232810099,13
142082,75738120,54947141,22909,54680216,22705,29779,436566,95962961,2609,88995843,326,942,4168,256814161,13
5986750,158761042,220669114,19676386,224515617,19718333,1632643,9629427,802863666,47942,161427602,8302,38082,50071,936778788,14
1624820,68993883,86355678,3010036,87276542,2999043,440195,2705074,231876835,13934,89209680,3621,6469,10761,482514713,14
20228743,134963957,224661973,17412762,233388160,17260059,1614858,17966390,853375851,41809,133343739,8302,25664,39742,932445297,14
19976627,161331498,254458828,19261098,252038269,18576178,3176888,10856381,824806441,47554,141671210,8302,32480,46204,1215670529,14
19134650,112610354,148200040,3646514,130703671,3927304,2137796,13829055,359723581,32081,119401840,8302,11781,51926,781368955,14
14847577,147494844,266687730,17501612,271727904,16522173,3405965,11439225,791290876,55952,156772999,8297,28848,25584,1094734269,14
618619,76470482,126595255,986881,117486410,1413937,429264,1854900,191371030,10012,73825899,1744,1169,723,485488996,14
24244259,112255235,222360622,17806369,216765651,17564090,1444258,19588779,759954542,30303,98996877,4236,10131,14882,878022713,14
3428054,125916527,99996503,3333883,90773038,3320846,2756179,8375598,355005772,56108,118404476,12136,37395,56594,669847391,14
194446,54384982,101529377,13250675,101842686,13213695,36572,1614040,466420932,12229,52224857,132,4350,2515,327464643,14
751708,53265257,58416130,6786081,57903869,6774500,170062,1007867,227475544,9873,50906455,2304,7737,10440,286946042,14
3109597,87768913,54032921,4115686,54834539,3899702,949736,4972454,247546568,19567,79044105,7143,24949,38447,385708724,14
18421108,111173735,238219629,14517221,235051174,14752465,2610709,14016284,698457231,45555,118458780,8301,25553,32289,835100503,14
19965391,118732061,227450216,16692112,228561603,15822389,1504475,10352955,736332874,46855,118941112,8297,34736,40518,1068233230,14
104357,36992440,79619718,11629180,79131326,11462217,31768,1379761,360032031,10758,36036756,136,2419,1191,292329877,14
708348,251159378,223488969,7530128,223602384,7655282,173835,3279723,614605445,20223,250728197,1194,6534,9957,1373636440,14
15349722,150040172,254379171,17157080,264038922,16439720,3412025,11527448,797507631,61054,157816337,8303,12555,28504,1122825505,14
2165823,81209265,183647240,13827981,188532546,13988504,958052,4859327,696558780,25180,81386925,3345,10708,25875,775727478,14
2315688,87605688,99978175,2139399,93571216,2583788,1486026,5320140,266977575,21808,80827030,7147,18678,50617,484671022,14
4435126,106707272,166072865,18169275,170033156,17162760,3082923,11428652,703503974,61222,117093367,8296,25085,29487,727667357,14
1196724,417349094,279258040,2408471,279800332,2319750,258249,3290970,524244875,19550,460581947,1939,10343,21776,1287651950,15
634693,103370000,86858858,1525733,90654382,1149411,157438,1531184,202034439,10818,140671504,1041,3266,5613,391943381,15
535188,398366419,290668523,1035598,278493671,1611618,162489,2379854,496941492,13951,405296451,520,5813,18080,1178061369,15
4658483,158038711,104027197,1455360,107339236,1422633,3887162,13201265,297494801,99223,150901976,2870,7025,19953,547289624,15
1211146,100213446,95980462,772818,97081783,593092,214627,1808774,195206809,7682,136075666,917,1744,1775,362651577,15
521189,415713996,292767735,1262370,284373902,1707650,110893,2261427,501349230,14452,420670570,519,6749,15651,1262653591,15
534362,398620912,293408225,962671,281278469,1563173,134508,2330975,497858756,13790,407243443,518,6330,16786,1178664096,15
632951,94043639,83287938,1510369,88497281,1139933,159245,1568758,196952628,10479,141480019,1042,5793,6543,358457608,15
653659,92720826,83562000,1451792,89038884,1089965,171857,1537696,198666836,10484,139215612,1041,2665,6748,356729256,15
768009,399390402,292518933,606218,290487092,1142878,511491,2933067,514863412,16783,415510157,1034,7181,19101,1172241314,15
757657,414274761,296480771,906460,287393986,1472225,127548,2518763,502925946,14223,420631745,908,6529,18106,1271098417,15
18266771,298096611,244516051,12307580,243670479,12503792,8674681,42908150,997251043,568886,323036920,11165,18329,75909,1106040924,15
524936,399376865,291908768,933344,280405505,1537360,141080,2408679,496961704,14061,407496679,519,5305,16858,1181117963,15
749546,101882524,91739120,1746407,91865808,1393342,245109,2906488,203708967,11109,139217280,916,3646,3447,423931738,15
5762616,426719131,312956330,3122392,313134078,3101101,2606631,13741495,812016572,412615,458285962,3255,11953,41851,1330847880,15
1246708,83088121,87175146,193728,92196203,167010,618305,2160649,193604356,10344,130036847,1696,3785,6703,316669014,15
533482,89048336,84506493,1143245,90305188,873579,143184,1442510,195165516,8127,137210019,527,2828,3445,344976583,15
524290,97189997,87801968,1588333,91705730,1181055,146275,1415802,196956044,7481,139565838,522,1791,2060,401707556,15
632924,112282725,91388400,1875069,93122601,1735331,102112,1595302,209587224,9856,141577705,1041,5281,7804,403873344,15
600308,417124210,285953275,1542265,278282299,1912198,385259,2743212,503236723,14270,420988328,518,6365,17794,1242979101,15
582198,1220653956,698791367,1417642,702916278,1439651,877928,5740784,1342612603,37879,1227173443,2806,8523,4130,3892263010,16
332332,309249051,207406268,1198760,208777330,1178659,730749,3156375,604134771,16584,313418373,2086,3966,1886,1470282119,16
314586,308647021,206059587,1124982,207839928,1127054,333126,2611056,597582526,17697,312899639,2085,3892,1611,1362942164,16
376689,1009215126,612057251,1181862,612196997,1182287,77112,3581610,994291876,25856,1019726224,1265,6164,3363,3568959792,16
3338871,2235605985,1327548668,2448534,1326698225,2445040,3253097,12332929,2440466499,97068,2235669738,16733,33795,145870,8942036806,16
310213,303448002,206839038,1122733,206939544,1125347,108893,2158291,553918042,15069,309534144,1106,4670,2611,1342121525,16
515876,1215419587,909995488,1434005,913305156,1434130,320904,5195672,1401805254,36471,1223312852,1830,9041,5661,4488822046,16
292301,302691473,311374537,1126524,311515816,1127104,89117,2123535,567237454,14127,309429048,1111,3389,1854,1555913952,16
318729,309491575,206791268,1126011,208177362,1131557,234787,2444620,589003138,16109,312965990,2089,3493,1669,1258170317,16
326304,207645741,311236643,1114157,316146795,1120018,365314,2061812,404343178,10039,214518328,2085,2649,1252,1595963114,16
378113,307893598,315048244,1132733,315809526,1132665,204083,2198764,572214201,15676,313955666,2084,4497,1943,1474444759,16
352958,404525484,207764883,1136030,207997649,1132188,90655,2447880,639130959,16945,414115440,1106,5541,2781,1545230570,16
529942,1210051853,713370891,1407668,714454702,1411074,253809,4455280,1201383468,32241,1224110052,1831,8146,5178,4684535634,16
539903,1117403585,699793631,1373230,709483883,1379175,696817,4576653,1061527534,28426,1134345383,2812,6575,3864,3720911821,16
497390,1113506189,615701505,1405954,615460130,1400987,342082,4511519,1106472215,31470,1116794711,2169,7848,8263,3585585259,16
318093,308590096,210987136,1141088,211036945,1140958,199835,2302774,588225912,14457,313147025,2089,3947,1421,1261478678,16
248176,307241157,416407976,1432436,415016002,1424277,137004,2238123,574160973,14823,311044905,1108,3444,1787,1672194592,16
586966,217351050,420548065,2040450,420104068,2044503,309687,3023393,719294051,23191,218973780,4614,7699,39003,1481849612,16
298030,311455066,208147263,1119662,210218800,1124415,330658,2488319,530051384,15611,312663453,2090,3863,1680,1487509389,16
363377,315691961,200886947,1060571,205026906,1093876,816180,3086707,601288430,21416,318289591,4041,3896,1888,1292869040,16
793439,309450391,207570827,1275182,207523607,1273408,214762,5475705,1543283152,50241,307756739,4033,26551,35871,2039411307,17
207894,203344061,202904896,1077270,206268385,1084559,133867,1350030,270977918,8355,210988352,1110,1631,856,1182586896,17
332382,303840906,208003332,1137651,208188043,1146439,409672,2719148,654890663,16526,308024159,1111,4118,1942,1345032754,17
478774,407261467,205895901,1238750,206200207,1240066,197308,4975474,1418479848,38477,408425286,1111,9113,2901,1837835608,17
715033,308217837,207592505,1275244,207571184,1273236,273876,5344273,1536679299,49190,307368345,4038,23380,30240,1840152511,17
737447,308243115,207416841,1264937,207352538,1264245,214390,5499504,1538818039,51971,307687138,4040,22414,35687,1843538435,17
686404,307827846,207967188,1285236,207384779,1279948,454033,5759146,1538130747,41858,306816694,2086,10508,5935,1946716008,17
667298,308328307,206417182,1265840,206793252,1272891,243080,5488808,1542789973,51382,307919199,4036,15263,35462,2046098462,17
531518,1109017418,607598265,1474898,608836309,1478072,287407,5464914,1487137945,39100,1118381089,1688,8972,5456,4373483755,17
572308,307084964,131183984,262629,130976524,261253,262571,5727030,1516397711,41889,307650863,2088,10766,5221,1645767207,17
416796,304056436,209951171,1150960,209687793,1147371,247965,2491800,627574790,26682,307396405,4039,16729,32928,2035106497,17
622624,317054567,503294730,1397563,508762507,1405344,695231,5335102,1260747844,33496,317666107,2663,9169,5724,2690316162,17
465264,408031392,206014750,1234075,205984181,1244930,192786,5128839,1419854827,37273,407714372,1106,9862,4631,2039707382,17
459931,305106994,205948415,1257975,205900739,1250912,180190,5094939,1410069697,36646,305405686,1114,9610,4209,2037263997,17
537021,305736873,206147264,1259766,206063195,1252916,220687,5120003,1418168906,37162,306801661,1106,9572,4599,1841944579,17
644301,1219528639,896959457,1450912,900201055,1454072,907625,6721779,1585248747,45304,1221622813,2807,11013,4979,5922262179,17
698714,307535512,309544894,38379052,309211419,38472728,424543,7117315,1898867181,50294,306677759,2088,11958,5736,1539171612,17
864574,312075344,207032945,1257512,206893448,1265485,288369,5336470,1529568724,40095,309529621,2083,10806,11233,1858927816,17
689798,307595996,207309335,1278788,207157812,1274676,245184,5590000,1536818541,41392,307261603,2088,11436,6028,1942288298,17
579818,1223071573,598353278,1409029,605415485,1435424,852004,5840019,1311965217,37001,1231977294,2812,8381,4432,4629716693,17
27837180,580370771,293351219,573313,294466500,553518,28532106,57085705,1830591745,328714,567372427,98805,304724,451358,4368471255,18
6693244,207817460,103081802,71552,99207893,68409,298430,14581212,389919590,9631,205480193,1110,3417,2255,1490138981,18
6728985,312907054,212201551,83887,209069601,98811,513275,15865101,529522514,16256,295458692,1106,3431,1446,1861770207,18
12785546,203201509,201399516,113794,203988553,105987,8007298,29319224,555855917,211060,208459359,4036,4577,2630,1820637090,18
6957354,215085245,89763726,81960,95764047,70081,714476,14940251,267763124,7396,220647123,2083,1644,853,1120482024,18
28112722,581426024,305304083,460535,302726118,470388,27828291,55860559,1436462820,319326,569340634,99790,270544,492875,2691093831,18
12878001,205287947,106696453,124692,106416554,117968,8305728,30467567,600046923,214030,203954393,2082,3800,1934,1619942500,18
12702428,203598105,201845016,124237,205668156,111639,8777848,29594398,560313274,210141,208253283,4036,4478,2478,1817253012,18
28081813,571953036,300052121,537850,299390609,534192,27123602,58265435,1873492697,333428,563198701,98806,306337,448117,4415715097,18
13057971,208946597,212095156,89475,213562263,106134,7903001,30093943,526815212,189459,199038549,2082,3244,2089,1729113696,18
13546041,214986968,102112983,103864,101807218,112637,7617656,27984169,526803579,220147,202653963,4042,7492,2633,1607587465,18
12876812,203697677,209244448,118217,209284070,114602,8462366,30780353,604550326,213775,204172581,2090,4116,2015,1718594690,18
12909211,207901055,104282712,97497,105763456,107322,8664186,29013017,525179235,213711,201960233,4032,3499,1594,1523463442,18
13551807,214323333,98993008,112074,97954176,110034,8085659,28182990,518468652,209946,204529489,2089,3233,1824,1611548694,18
13063679,209491135,211129934,91508,213555936,92296,8565021,29398493,531805278,190170,198579176,2085,4359,2152,1714384171,18
13117920,211166934,216472025,99627,216285772,108988,8407879,29252654,533678984,186068,198132649,2088,3786,1744,1742994021,18
13053027,210273961,215720421,87799,215705278,101524,8288285,30044128,529777557,189213,198562443,2091,3819,1914,1735601120,18
28265245,578978990,300965731,446216,301522966,454780,27136987,55801667,1433830775,323279,567552284,99789,283727,463117,2693201752,18
28016788,575345551,303846565,460514,302116074,468198,27513848,56001493,1410360956,327113,557603653,99782,313850,596581,2752888418,18
12907712,207103665,211841539,88461,214192718,89691,8343560,29662181,529920724,191936,199025761,2088,4602,2849,1712410127,18
64749892,423750978,196867913,1087457,196021698,1075979,4316022,83048931,734115205,559611,444256824,23575,61427,148133,1676205988,19
7044485,133903973,62259500,956226,62223407,956410,4056435,6710477,338067627,52169,133458133,20590,30549,166652,493520503,19
8481657,82941317,43859229,887764,43865022,889456,15696,2854991,173390799,4332,86037919,158,1103,480,364903542,19
6648415,239947647,112420378,110560,112675332,109815,4057747,7156110,377831312,74666,251349757,20591,27165,160191,837089928,19
39736991,1136742394,441898825,2361490,437984212,2348401,9140802,47853519,1460318660,817198,1113957142,41145,59587,274919,3283548037,19
3854114,160428716,89471929,4241624,94121639,4171559,2766968,6912089,456238330,56382,163747960,23389,23436,104026,607755758,19
2864849,81024727,44258046,900273,44226195,900195,20513,622539,164820537,4174,86353316,143,1062,482,366339110,19
4682197,142849691,96911408,3608987,95158859,3845293,3858666,6562253,441889225,160460,141958665,20542,24863,67996,552996075,19
12498735,238694421,144394768,180793,140608432,182668,7720105,12424025,550761997,112539,207022364,40996,60118,290942,905273696,19
12553982,169387830,79995823,1006890,80247512,1010169,8194148,12564181,509145506,104851,158502622,40994,53261,206525,603191977,19
21816133,825249525,329636698,2203454,332096655,2182336,5009512,25916426,1019563598,660304,800501875,20664,34187,168181,2637719072,19
6822571,211283393,106097947,856173,105803677,859746,3841096,6809124,351885807,50834,210099676,20589,73732,162957,635367283,19
3592944,157801877,109042462,106296,108839570,110014,2124520,6464694,387016835,53559,160439351,23393,24701,90370,865114932,19
9048792,217129879,140441490,194223,149888363,202411,10951411,14445404,559153174,298191,226574168,40943,44243,207323,910185406,19
27809231,966637696,420303572,2271400,416381272,2238630,5550829,32513857,1274592525,833089,936797030,20698,37675,163373,3121488721,19
12979576,149387368,65144751,207678,62477230,196117,7761466,12561161,515743537,106343,136209897,40998,51903,319976,586683302,19
10418236,713527128,338951753,2187114,340051413,2199123,5100092,15245218,1096281153,98669,711125690,24735,77492,110462,2463980317,19
112780954,860710499,357736089,404121,363488604,397077,9378158,180831771,1591617622,10025194,861400128,49270,61633,216405,2941197660,19
10994508,238883619,170986740,863300,170096850,887922,14006832,20856739,603480967,301186,199773454,40942,133480,131599,1074774470,19
4552380,141818366,94601192,3315638,94976359,3340928,3847704,6252886,406626271,132337,152781866,20538,23187,62882,573222935,19
340629,11095461,27776271,12757,27757096,12046,48529,782747,50758317,2842,35791450,914,2192,2531,114211922,20
28887,967670,?,?,?,?,?,?,?,?,?,137,?,?,?,20
39421,1492485,?,?,?,?,?,?,?,?,?,127,?,?,?,20
159248,89947935,76541869,78881,81003242,87159,81587,2126856,116299875,5379,94650130,912,2530,4172,287377071,20
903428,54863015,36024861,19063,35957401,18789,71351,364354,66672281,2530,56078026,522,2482,2243,196519056,20
37838,992058,?,?,?,?,?,?,?,?,111825,130,1021,912,919795,20
90454,85550774,53360651,29968,54820186,27812,32886,573257,101215842,2561,94265501,520,762,5679,272853858,20
96030,76137165,52776456,22971,53147194,20485,26008,459757,92460516,2346,86197291,520,657,1937,247129055,20
512350,93361822,86846176,292623,88245606,289836,116470,1893811,142298123,4800,93044369,912,2557,3824,333421745,20
242857,89544631,80726206,133543,75199549,128739,128345,1257314,117949625,7248,95822072,1037,2929,14117,292797368,20
191544,25746330,32704121,14864,33211252,15186,60508,475400,60516538,2834,39728152,977,2495,2916,146415395,20
265844,8777180,22508128,12960,21505706,12085,62141,575636,45372755,6324,31458268,1044,4956,7370,31279896,20
299008,89380290,82130974,117947,74209984,111771,95939,1129743,115055923,7293,93926359,1036,2886,14100,289878911,20
452195,78725529,54743089,67996,52026863,59879,136304,1328803,107038766,7729,90984609,1899,9148,14516,251967875,20
2442769,81350867,42342042,106998,42445087,120231,3006443,4595975,282602931,81299,48283612,31044,111770,172703,250850308,20
593382,33155190,31500149,17847,28493074,17495,76723,670827,61737589,4658,43454667,1041,1940,1251,185713383,20
576371,31916487,32173461,32186,31968053,26834,114241,811107,68251159,4139,46703314,1042,1543,1142,133711189,20
41120,1465299,?,?,?,?,?,?,?,?,?,130,?,?,?,20
107667,93941994,73446141,129036,68845733,105661,65405,965485,110457326,5564,100218637,520,1064,7187,298112023,20
98072,91740707,80114801,130081,73885902,107029,70514,1013624,112185831,5819,100580874,521,868,6257,297758708,20
697805,22019209,11623873,31872,11735589,26815,190683,1031978,73827440,7785,25201268,4201,4337,11454,75302781,21
145915,6198400,7514927,23658,7302746,26466,197343,706186,32941740,7021,11312852,2135,?,?,?,21
236966,332616289,505064532,760768,505456653,781646,60465,1959327,542230522,16946,335132851,136,4129,2421,2182948723,21
205614,334949543,509610126,601572,508684009,622811,49613,1917423,528675938,15007,337056906,132,3562,1561,1867022195,21
1101671,13241979,12369784,27277,11955753,25236,506946,1292445,64753417,14244,17098229,6100,8212,45595,60777571,21
285805,9790494,36740578,95120,37310818,92099,653190,3711908,49305546,10183,35752337,2083,3138,3824,56609959,21
296276,348507572,488478399,641262,488725111,633014,1320022,4515310,919086137,45594,347288210,4036,5432,2871,3848345580,21
10578342,187227574,179871318,183524,173207792,158950,5289990,12269858,291941215,52402,176939591,9998,13171,48864,751231013,21
579618,26075069,17518772,62718,16047231,60428,1227110,1891194,109789416,35962,17102002,8647,12876,50965,77632567,21
70494,3153370,?,?,?,?,?,?,?,?,?,137,?,?,?,21
171636,5281263,?,?,?,?,?,?,?,?,?,131,?,?,?,21
331764,333000541,504347531,619185,504617307,623699,41393,3003700,878001207,23591,336654856,143,6786,4106,2345047827,21
150241,3942874,?,?,?,?,?,?,?,?,?,136,?,?,?,21
85887,3180878,?,?,?,?,?,?,?,?,?,132,?,?,?,21
141346,169636855,495076597,592159,499724958,567395,37275,1615869,430618374,11186,171514297,135,2751,937,2030063026,21
161539,329875182,340193128,505075,339680452,508114,14967,1381366,418006791,10364,338717341,139,2465,842,1860165916,21
340006,333935683,336954471,596208,336555597,608276,43988,2466254,705355551,20302,335419552,131,5085,2905,1847921571,21
1801153,76708736,13255723,37498,24602727,86263,552004,2811621,92351316,8166,80625848,3136,571,294,292795466,21
1084468,13559535,12079162,24692,12134381,23555,461972,1291589,63702337,14451,15822078,6093,8064,27452,57676263,21
90978,3411746,?,?,?,?,?,?,?,?,?,135,?,?,?,21
62259,69887014,48322983,16867,47935278,18352,20930,344216,85892664,2385,79650934,128,641,2576,231497210,22
86523,77089421,52640467,23768,52870388,21284,37619,481952,94634149,2424,87888688,909,727,2052,251615950,22
242433,8430095,21912877,8855,21963745,16751,29630,441340,40923226,3360,26401317,331,?,?,?,22
97464,81870854,55790750,23501,55893717,22143,47209,492040,100496917,2583,92497681,1299,775,3664,264854030,22
522672,16710237,23382705,9239,23306291,16386,24707,305631,41319155,3117,32252503,135,2386,?,?,22
46922,73735829,47941465,14961,48700028,16902,11890,333777,88608192,2291,82182009,129,699,2795,236353557,22
437067,8780475,21776504,10160,20867006,18811,54737,528041,38908343,3740,25254047,526,2936,?,?,22
467382,18372368,24965317,15463,26577664,15307,70450,699944,57654024,5327,37531924,1042,1999,1711,159419969,22
179599,5779276,21898293,10972,21976490,16225,46751,512766,41054801,3593,29137953,525,8869,?,?,22
116675,73626324,51213598,24680,50979458,21219,47450,461458,88895152,2479,83495078,518,916,1551,241008698,22
81494,76887197,50997980,24671,50919655,25187,47599,500388,89352149,2676,84087834,520,740,3205,240128104,22
216879,7604470,22721197,14851,21203358,14629,80224,580240,44974252,6473,29082952,1041,6359,11071,13525973,22
80230,76064356,50900367,18442,50797690,17355,20508,434899,89810194,2293,83683342,519,697,1855,240203856,22
250817,8071307,22017704,9339,22046365,10437,39202,495651,42065724,2896,29000454,523,7988,?,?,22
191454,5761962,21709756,11667,21846943,14440,47538,502473,40193382,3494,29654272,525,7323,?,?,22
91534,75985798,50313198,16709,50335084,16142,15571,414668,88424462,2484,84052314,519,671,1305,240896897,22
46973,73662183,48405437,20524,48776004,20063,23734,351046,87313705,2418,80760462,128,793,3972,232980271,22
271803,8281855,22400473,8724,22130977,16185,46129,494408,40356349,3196,27500889,525,?,?,?,22
237992,8278902,21879862,8935,21826399,16837,40740,391900,39563489,3494,29420655,526,?,?,?,22
211588,5936478,21739452,10743,21869094,17271,46943,505812,40184125,3668,28417243,525,10196,?,?,22
3563158,334172801,210718113,1096056,198256159,1208876,1834165,9312204,489263062,62797,294522513,7058,49073,80483,996358659,23
2416401,113955080,64400800,895778,63928996,919090,1396907,9944374,219749268,54145,106553469,1988,4506,9168,398743779,23
2698135,310126361,196397137,866194,203578462,868752,1043985,8387300,446972473,40017,340299099,2556,6843,26893,981052744,23
3185679,106689732,75768869,744507,72404166,738529,1608027,8091555,241327605,153337,90649693,2378,4711,11845,360365119,23
2154536,110276921,68847931,1131322,73190323,1244375,1493081,8941814,206995728,20298,110487977,1808,4258,9984,393922183,23
2615231,314797909,193637672,1366733,193630786,1299732,1215985,9193685,460244803,43384,326291187,2063,8334,27318,984230746,23
2662698,115486621,67658174,756820,67235451,792325,1395541,7995285,224212416,45509,103270612,2095,4460,9411,406595859,23
975752,277499320,185088596,684731,184937723,683872,65417,2855874,338186531,9154,300533462,341,3390,19707,866954062,23
2602054,116226087,67209622,964558,66805750,962146,1445568,9646536,229000755,62947,99882505,2041,42551,55167,386012670,23
3164038,292005070,208434546,886436,210853026,906992,970427,7960983,432992686,26734,341027546,2049,6376,28650,926088675,23
2928189,107678502,79139372,587065,74759692,686776,1200021,9269020,230256635,84537,94351558,2093,42437,27846,355687560,23
2580486,111981063,64631721,856881,64085066,854484,1352533,8925652,219489589,43566,103846296,1936,4382,10008,405006840,23
2465718,113311527,71949529,809564,71725974,818597,1252740,8084952,235031908,45869,101536419,1958,41738,53514,386891429,23
4225436,99025874,89760971,558395,89993604,675547,1487063,9134405,237739690,142025,99837456,2511,6103,13220,332294791,23
1585367,293406824,164419458,1181621,167982669,1101379,101995,3878729,362781859,11435,296820359,478,3154,20427,873101444,23
3362948,297499471,205708802,859487,206567978,884160,1071494,8462915,437466368,31253,340563914,1848,5794,29390,938917006,23
2983149,311353373,195130352,841107,201634962,856167,1224861,8493067,447503957,39852,337613263,2606,5682,32621,985709425,23
2772666,282805101,211068905,912499,210733441,916475,633878,6696811,426580589,27168,332671066,1777,7414,18127,905897608,23
4212177,103031735,92033086,538030,82603324,621406,1882605,9210103,250118930,205552,93188707,3319,4422,12727,341738879,23
976658,87066114,66076758,201820,62252973,341654,63209,2995470,136561701,5865,81293760,584,2636,2860,287209194,23
2071077,105753259,80394321,619878,79610813,582539,910586,7728638,196807266,20069,112959027,1879,3067,9965,384898931,24
3826179,120494785,78541974,428982,78237039,427674,1542767,6950870,244149573,33454,106982353,7234,5210,13885,429183931,24
2088297,109105418,66932105,934603,75936756,752524,1054232,7923049,205546434,23959,116065400,1865,3488,8736,393984485,24
3074889,288598088,208861113,855697,208510595,855508,704191,6803001,412914526,30604,323262299,2053,6282,23388,904076212,24
3131160,111238325,98374786,545667,95798026,561365,1915577,8895497,268510697,86921,116296395,4228,10131,33073,408391817,24
2957823,108498746,86794802,590679,79305005,882505,1806676,8456309,227170609,73729,98725631,2684,16318,13042,373199943,24
2416454,323259069,217357119,1044638,214611823,957326,1707785,10148632,450907355,34685,336254526,2519,6574,22010,1013915277,24
2706268,114823308,78341117,2014602,78145702,2043912,864920,6372392,235916614,16508,102075393,1958,4791,8524,400613671,24
2879774,291161903,207059554,847467,207273851,851815,729512,6881286,416163326,28165,326715123,1952,5498,21533,912293104,24
3022661,108492666,87878908,507691,85166866,765777,1700398,8532913,230590185,77436,104166263,2683,14286,10678,372304744,24
3072745,106067116,90637771,526342,89211604,649146,1428913,7872882,236724422,68212,103897972,2489,16380,11496,364120502,24
2205411,301559733,201099401,843498,203498848,855188,928616,7019025,417230349,28760,328852349,1862,7800,30502,957775931,24
3290038,326496464,211564862,1121941,211271565,1059728,1398558,8458596,475215434,42330,336662605,3160,12444,24269,1010471945,24
2653252,120786901,94186922,736336,95312008,1024040,1922192,8861613,274031938,63937,126764388,2685,5356,10788,424269991,24
2387941,289085624,208140741,1031162,208221924,1037196,698530,6826254,421686673,26622,327317141,1859,5600,20670,927626665,24
3053931,288822311,208550551,848220,208385705,847460,693890,6752649,411939948,29674,326232361,2052,5545,27228,899735040,24
12177556,234306816,178274606,8226904,179528107,8250126,9221277,27392496,1012327443,1010150,239160853,8736,18459,75536,787600880,24
2486709,289444757,208198647,846755,208399627,849632,713865,6806746,418841068,28740,328039639,1854,6557,23336,918561648,24
3231730,130370830,86731983,539877,88012856,544125,2973076,7954386,274748286,266217,130075461,3991,7222,29048,467049222,24
2083174,110332123,66774003,1060717,75624098,827941,1170321,8059032,203754043,22766,114644206,1979,2330,10275,390300395,24
3360567,310778549,214224948,1410705,221586835,1226924,1183359,9120932,470438432,33306,359635589,2833,11141,34400,998591580,25
2556130,139204945,70633057,645184,70366731,768961,1405442,10770007,239765053,71487,120412397,2217,4187,7812,484555398,25
3020766,308617125,228479404,829840,227507522,832594,674281,7835730,458110966,33617,348550463,2234,8395,31012,967428105,25
4578604,312709015,246576735,895633,246635015,900299,3091377,11110138,557471862,81535,356764443,13661,47806,72165,1020137855,25
4287029,307709994,217338564,835202,213167426,871127,1002179,8488135,442280639,32557,340652865,1873,8654,26192,946543245,25
2475033,138012996,71408423,608014,71270739,726555,1452439,10482989,242621569,72434,120056595,2532,6654,9521,481714114,25
3481627,318585090,207851422,1552598,208681767,1476217,1611736,11321262,484091547,57919,362752830,3132,12360,34607,1032488920,25
3014941,352581573,200571993,1326573,200763649,1406491,2067410,11368738,502924258,218086,328273800,3031,12864,21924,1072247945,25
3761879,141567944,74950860,509442,74587683,566523,1240370,8376133,253052880,67684,102167965,3201,3311,8368,461600513,25
13868334,167139449,113292760,5509293,111860700,5627263,8194470,34664734,849600966,1065802,178770079,4855,21158,32109,601350455,25
4747501,91986437,105591445,560707,102283653,580352,2129813,9898022,283157939,115066,117965523,4667,30090,35522,331802495,25
3163283,313203728,214688330,1310870,219897887,1200689,1025225,8208192,469460874,29611,349745711,2431,6318,27816,1005099040,25
5229665,105476558,101992448,520204,98868046,516701,2588904,9946804,282703744,154413,112857340,4598,7552,23473,363202463,25
2727357,130002412,83678906,887100,78126568,980387,2237204,11968454,244425740,175848,123257339,2518,6526,11275,466383035,25
5248644,350281856,222908553,1270336,238545906,1278802,2590276,17973208,578510994,121655,379902015,4545,12278,38064,1131923919,25
2665966,115164713,69403331,1152760,76383229,924068,1068045,9232944,223875320,38996,137973684,1879,6659,10198,434127550,25
4073021,104542210,133694289,564149,125072977,582637,2158478,9608679,289787027,116169,113614171,2999,6765,20738,437315752,25
4921378,105175275,109622232,514901,99055991,533930,2584825,10031566,287403104,161030,107959915,4415,7103,27723,364394778,25
11420812,197064622,182493970,12657530,177756447,12846684,2575216,25347136,912393519,329022,200005909,4845,10152,30583,717680553,25
13256322,157507410,95788240,2823622,95204661,2860457,2163152,43401008,400017751,255869,160543656,2432,6068,11135,571441562,25
1962753,103631112,76755952,355383,75879374,389693,1142455,7024787,194946124,16043,108940939,2451,3225,10733,367389777,26
2302944,102523883,73888429,437468,71529523,456787,1360652,7467993,197916200,47287,103289953,2267,4756,13672,358841030,26
2366034,106083475,77906844,463489,75524975,458333,1723875,7575351,208928163,55273,102438190,2913,6787,14417,370873467,26
2472890,294870343,199405313,872147,198878944,875619,547800,6333985,397470215,28269,313138327,1850,10553,23055,900332497,26
2218584,306179103,201716842,1150178,201256739,1151671,769594,6918750,421742615,58989,317986106,2484,11676,27710,938638212,26
10809646,359139971,245484407,6647213,244761244,6696341,8212634,26512100,1052754371,1204993,356358468,6970,15079,50566,1110355903,26
1950263,89930839,87717043,376384,89874640,407195,706250,6958686,191338922,20758,96795607,1937,3790,11871,412429250,26
1932972,100386319,74548603,418509,75728037,445190,721072,6197822,185514769,14773,106518725,2062,3677,9014,350865884,26
703835,44842311,25492850,84126,29795547,93423,356520,1083203,77549190,3042,59071777,2948,2324,4462,167170002,26
4142505,102664055,88453625,880335,82294769,790857,2216617,12490566,279213914,171039,106032278,4042,7563,28073,358455811,26
3641635,125537272,73015559,560258,72354410,634602,1316744,8965440,243028886,84444,98811520,2802,4165,10547,420428114,26
2499524,292898019,198668558,858279,198155256,861094,563331,6307269,397502626,25664,312041030,1856,7401,20745,901502527,26
2462526,292308226,198881314,869159,199130923,870544,465783,6381255,396467950,28750,309986586,2072,7056,29553,900125595,26
2310482,101933559,72547134,431609,72411308,453950,1564315,7406815,202617692,47754,102161614,2468,5577,13775,363003667,26
3730175,327796783,207579434,915410,203801699,908770,3037265,13494397,539223940,248028,307429020,2934,8641,31297,972639140,26
2291434,103155242,76858760,481974,74927603,465545,1606883,7500043,207576674,55441,102606265,2656,5785,16466,370258759,26
2244674,301635221,199646377,1165253,199629200,1166560,919945,6901216,424457359,58688,316379979,2261,10498,22877,933339762,26
2807082,273013230,191564383,982872,191194259,986999,911950,6922372,395639354,68458,290285302,2646,8510,17894,847355208,26
2298252,112477702,62460648,650882,62212801,868056,1355174,9739945,216327174,47594,102104085,2055,4707,10884,397032953,26
3568069,117246289,80652403,500018,80327643,497236,1872333,7252320,258591952,76150,115649904,8088,13318,38857,427003011,26
1753072,134244493,137054109,283092,131589796,292293,1283802,5917977,286491292,44235,164848403,2241,6552,14317,505586743,27
1721221,135664264,133413316,286791,129397514,303778,1312079,6055732,285051847,40514,164530777,2243,5025,12435,503297247,27
1354879,542539502,340423873,2174012,340369285,2177294,564903,5510323,667307063,24576,540847500,1822,11952,27277,1663093451,27
1430720,542287475,320074872,2499568,320467708,2494245,1051767,6232563,667065614,39406,520375634,2235,7333,29195,1636135879,27
1542375,543079910,326401381,2483991,328835540,2508470,975644,6003720,676802720,38648,526264428,2236,11117,27641,1645701004,27
1771074,137398068,140015170,271963,134589258,286718,1256856,6011923,293713004,43510,172092234,2245,6894,13173,527499374,27
2936591,155384173,122747344,1896527,133299825,1370763,1330424,5168858,316899537,45915,203890794,4142,18177,34062,606892682,27
1902673,539485411,318050381,2424421,317421942,2425256,785604,6307631,656652641,26088,529670623,1822,9176,34541,1642958869,27
1525657,134284598,133872707,279412,129049744,291707,836284,5746870,276613678,20189,161734288,1831,7675,10157,488190942,27
1504220,130882964,134495321,260363,131026532,287145,828594,5687577,280193850,20210,168133143,1837,3706,10255,506049685,27
1766450,143609805,140710132,286664,139872134,292273,1153885,5827530,296581361,41113,178946014,2242,5317,18096,526854261,27
1897704,528544304,317531771,2278042,324067817,1810341,562949,5141994,643139332,23644,543053063,1825,9348,31320,1629373292,27
1841673,139765700,135711366,277180,129404422,292168,1282381,5915321,280836392,42876,170037375,2245,10740,16083,520937011,27
1745250,135632180,139344788,279415,135253801,286567,1182802,5827668,289390206,40858,168418620,2240,11301,15792,514601167,27
1713464,132857527,138278379,281850,133379642,289630,1195289,5992102,288338508,49475,165416032,2288,9725,16270,500429121,27
1709497,137093370,141771370,288362,137304845,292764,1247416,6041521,291946382,43617,167090133,2240,9028,16040,503663540,27
1777638,141763740,145292931,290524,144727936,294390,858696,5513330,297599061,42243,177008775,2436,7554,19042,512442845,27
1536835,533880204,325138998,2520668,322855412,2613653,1056198,6409487,674030870,38943,509917986,2234,14141,24043,1598935264,27
1759527,135615088,137501849,286481,132250093,293642,1270433,5967141,287549773,42780,167831943,2446,4671,12329,514080507,27
1511179,543968704,322022166,2182458,321746780,2194674,1064663,6344908,662847067,39939,523927531,2259,10330,36057,1651560600,27
6793782,504507978,529714846,777382,535507240,794801,319590,17099029,850861305,120569,523374283,638,99013,7045,2135550732,28
14658102,416307589,325033655,793581,331959293,788555,90984,39454838,594299853,109240,472893743,634,111461,5610,1087023569,28
15609826,426534315,177245375,631291,178515532,633986,94880,36944978,602741675,107571,496442154,633,101779,4734,1397612784,28
7273790,232498268,261456096,712323,261641782,700243,46483,14365389,462922997,113518,230711298,631,99485,5319,1043639519,28
7306993,463942548,403569580,1008278,403189647,1005711,56674,14110006,720263279,122545,440421991,623,107496,8985,1734856105,28
732516,298973762,412757367,1028782,412597348,1028574,63128,2380148,556541864,15003,310211959,646,4050,3566,1202378008,28
16356806,425667736,167733119,405790,167017662,402119,57273,36737437,407946575,10842,434061162,1546,2924,2214,1458320679,28
14839147,425022082,186022746,620037,186055183,619778,40935,37526661,669759686,114587,457653300,625,115951,6850,1445993336,28
6283706,287557029,398070676,531618,394411877,529289,54395,14462033,580199225,14843,286492936,628,4165,3146,1334418498,28
14581765,496119114,374211446,850346,377107515,848307,88919,38559008,675138865,114075,545696689,625,112579,6272,1309285628,28
17449048,535716302,346418022,767259,346222996,767345,256677,40917985,800742753,125235,529538523,1122,231723,17208,1507472319,28
7042671,354976199,348723277,686622,348674638,690226,54790,13268451,401277786,10840,344969699,631,3000,2517,1418892677,28
258527854,525187637,205628122,714898,212216578,709189,147860,83341377,1151945901,127537,554315507,1082,104099,14581,1890140629,28
139922596,439439806,136077056,469947,136507842,478465,598898,77791721,1162009749,30351,433050137,2094,9061,4211,1732539045,28
16472276,423325077,164046376,397235,163970549,396313,45215,32335109,398428363,10909,428428359,634,2936,2853,1443283769,28
17280325,556425868,287730266,516494,287323089,523871,40643,33101501,471574175,13879,554020647,631,4934,3186,1323047710,28
16229609,525225296,218775397,639905,218817788,639568,392955,33931381,734951079,124223,523726486,622,110069,80965,1726174873,28
16263533,420423099,163329676,393967,163158813,403613,85684,32490715,402088290,12060,427982986,630,2807,3115,1439143112,28
6837788,283148505,235851115,366265,236804268,367209,35755,13539553,396130448,10824,292222755,1127,3734,3097,1091055089,28
17089340,593984263,297438148,758371,297476901,770007,95412,35349496,717014755,125604,572558673,631,104777,7381,1297969000,28
894528,89706268,54166904,41497,54651698,41633,900292,2531748,138499960,31084,65047334,7465,8581,14530,249558335,29
404023,78154589,43335862,32476,44666433,32264,124634,719508,92374519,9519,68437611,1957,1702,5649,278151483,29
472336,113930783,69919338,39769,73978476,35904,317366,1353676,156362667,9190,125271433,2598,2487,9109,380616152,29
389896,80375243,42560086,36532,44022064,32622,136439,715941,90062099,11131,72228574,2053,1803,4101,278645542,29
1143767,137211004,97446547,267966,102595978,270326,953919,2574950,207701322,20347,143811355,3483,5936,26093,476901429,29
457748,117346169,72982026,42591,76313928,39149,466387,1786120,162625055,14390,129547066,2601,3881,5825,407008133,29
485426,114409911,80263437,34828,80866224,32634,70257,834954,157247378,6762,127784537,1951,3381,9398,386760742,29
363633,74890347,42210520,26095,44390082,26467,176054,866233,94471497,18848,70180034,2603,3010,4661,274524578,29
411701,116062716,75515889,36048,77326248,36085,136115,1033384,153593795,5769,125159826,1951,2438,7057,382051741,29
410934,116313185,75722824,42241,77507279,38199,338988,1370247,155191232,5192,125717246,1952,1730,8724,383881660,29
355548,79745444,43923752,27942,45105924,25438,112665,672991,90145630,10223,75229982,1958,1080,1537,279850722,29
1217638,137035077,110073198,50975,102952814,59784,1144597,2665712,196943176,30615,138341528,3872,6004,41037,470139928,29
575881,74124197,43767371,27206,43652937,27553,163816,838041,94483229,16724,63829495,2994,3988,26944,257721962,29
1027472,70758369,69697366,30595,70082563,30205,818264,2053882,128960103,14204,86025875,3490,15174,20402,270429485,29
405937,115678181,78262051,34651,78905003,31966,65071,745685,151820005,6300,125068121,1952,2784,7097,381570583,29
849973,74713417,72990990,31835,73272395,31788,442902,1885101,136255608,16303,94566208,3685,6961,25641,303383673,29
419846,79239387,44052086,25402,43141824,24143,96844,669364,90957422,9702,72105559,1956,2109,5091,276205675,29
99924,68618323,43808611,26117,42360165,25088,93951,1143921,87414638,8941,73206021,1957,2561,1348,278831225,29
453893,113665509,75950484,37608,77905838,33600,188163,1068752,154890292,5303,126034317,2088,2102,6748,385360653,29
1014445,74057899,70214180,32674,70475908,33695,878515,2115581,129416090,16886,84576322,3489,5663,27180,275884531,29
4052640,237520012,179031534,3957858,178908201,3960606,911699,8809416,477131500,71199,255736420,2575,26916,12454,917059903,30
12050188,407218455,229221807,7180723,237780028,7268890,3221004,24784839,778732550,394926,421021220,3651,11951,6916,1403954476,30
5438644,732405051,469618955,4810109,469270396,4807945,1628796,13306479,1220607245,222150,759436590,2568,317198,442044,2343317487,30
5064272,27558095,55642941,2697421,49133579,3073380,1109489,8684087,181827640,22500,30266167,1822,2163,520,191783983,30
14364317,790008515,487056453,5522591,489918025,5561840,4438895,28168872,1411766611,725725,814841396,3983,312675,369886,2609343007,30
4835023,769372626,436222959,4863914,449420905,4904806,1898709,12714690,1232069541,196258,771360200,3646,319830,351344,2377032783,30
5846043,228470955,155030553,4015538,154940018,4012517,937149,11795634,615348614,152000,228022888,1699,304504,242837,769036735,30
6977134,295906287,172222973,3611157,162377370,3536525,3308169,14939560,530176649,143764,274812632,5997,9910,9102,1007457219,30
4503326,257975573,174550458,3792137,174953430,3811051,1577961,10207426,703236836,189821,268368921,4042,312238,231581,931721885,30
8806816,245130063,184367323,5074396,184461725,5076757,732863,14883736,503489524,34158,249028456,2278,7089,27856,968543106,30
10610847,253742697,159139862,2224253,158997439,2220822,3193481,17449991,506813009,352393,261854383,7822,9724,7400,945262206,30
14376254,216942167,208488186,2549499,203049236,2615076,4545600,24916598,576355623,1352352,218955148,3403,13647,20664,972132226,30
4501866,745982696,429734684,4785113,442650266,4810031,1566991,11505251,1190774785,195768,742242004,3451,311964,390278,2308735968,30
4187651,227745370,163605226,3930425,164475567,3928797,1161126,9314001,486908617,74380,250662290,3653,7300,6510,876022241,30
10346005,334371762,191099115,3267047,192417554,3369023,5220188,21493961,591982013,497176,345844812,6388,7204,7424,1177998241,30
12871733,266818795,176914897,3756464,179863731,3828599,3905436,24359930,565970348,487701,276707309,3404,8472,5399,1009723176,30
12335557,266733141,197791354,3413173,198296981,3447391,8007877,27144142,686450236,3546409,262654690,6666,14957,30213,1166322435,30
7134122,754480169,512507416,2187103,512884055,2186956,164428,15720437,1223729781,131339,776382152,357,307197,357162,2746429636,30
4344307,701287058,449250380,4902898,449041156,4906467,750414,10358348,1208887692,161287,725232881,2568,489008,190141,2229543620,30
4917142,274004788,191073512,4008897,191113827,4007539,1642068,10518994,739619603,212997,286333563,2572,315028,327273,1032702434,30
180921,14555494,52175129,6365437,52458413,6392078,29902,1610020,475541036,12089,11486922,130,3961,2326,204687774,31
46555,14783103,5534786,77979,5726581,74425,24548,569013,112861296,5153,14914330,128,690,370,55436917,31
344690,448038137,313198505,7341200,313415472,7315870,64444,3323133,972184421,25461,452833597,136,6138,4126,2069588475,31
145036,12884114,59081256,7259084,58913315,7206301,23607,1690128,494871517,12821,11610864,132,3213,1670,214174356,31
187386,15284054,56014085,6473695,55936272,6446041,33069,1609352,474378330,12129,11634837,1111,4175,2279,280177443,31
147805,13149348,56801016,6900452,57021603,6952273,49573,1910670,510337490,15412,12036768,135,3461,1647,265676461,31
136847,14024796,57339374,7110020,57348203,7082549,26004,1688908,500247239,12787,11482706,137,3333,1365,200841795,31
157962,14132205,60044042,7352881,59454285,7302128,204212,1853099,489288785,12119,11716134,128,3247,1425,214199347,31
225330,14396857,57106354,7075177,56956555,7082797,21999,1788215,540780255,15163,12052106,135,4483,2588,269877105,31
146311,13100962,46508051,6497743,46643192,6484915,47277,2005362,529404207,15192,12047597,135,4270,1632,158251198,31
80569,35498561,16841254,98550,16861116,98507,6144,464413,134796076,5039,37910147,128,1742,1361,151702231,31
189200,14337248,58377571,7056490,58174158,7061363,18896,1809578,538496923,15292,12061174,133,4537,2486,212225765,31
187867,14339190,57152306,7098231,57130618,7107707,57757,1902037,508683023,14304,11638766,134,4427,1536,214675724,31
1538403,14828553,27861970,82858,33310073,72049,990385,3735572,105974695,34728,54035229,6147,9789,45457,62199585,31
197968,9725337,4927537,32245,4915398,32040,5708,292029,44972053,2742,9015194,133,3387,7510,23758000,31
202902,15696090,45958129,6496637,45810374,6507925,30851,1837160,545346995,16002,13448851,131,4857,2742,216536597,31
206190,14368981,46100102,6572104,45854985,6492340,45526,1902039,524967681,14852,12069672,131,3428,1320,226885550,31
150373,12955837,46987371,7039501,46828166,7045916,82142,2037406,518847487,15188,12088659,134,3153,1574,155684350,31
186551,14380609,57818246,7020307,57791174,7004675,44166,1924860,527269838,15033,11967551,129,3603,1639,269514473,31
460355,11105867,4961678,57057,4957938,54126,2688,290253,47409505,2740,11688586,134,2618,7009,31130373,31
