@relation problema
@attribute 'L1-dcache-load-misses' real
@attribute 'L1-dcache-loads' real
@attribute 'branch-instructions' real
@attribute 'branch-load-misses' real
@attribute 'branch-loads' real
@attribute 'branch-misses' real
@attribute 'cache-misses' real
@attribute 'cache-references' real
@attribute 'cpu-cycles' real
@attribute 'dTLB-load-misses' real
@attribute 'dTLB-loads' real
@attribute 'page-faults' real
@attribute 'iTLB-load-misses' real
@attribute 'iTLB-loads' real
@attribute 'instructions' real
@attribute 'class' {0,1,2,3,4,5,6,7,8,9,10,11,12,13,14,15,16,17,18,19,20,21,22,23,24,25,26,27,28,29,30,31}
@data
216406,248552431,156604111,619174,156562968,615118,78013,1915313,504174194,115430,252247924,128,354970,253910,767805973,0
224769,92350861,62567132,393231,62337271,390386,65786,1240464,336162382,110956,93335655,134,514430,5736,324152611,0
220553,248473078,155779314,638481,156056353,632646,132890,1933969,509767796,115705,252327978,127,309230,413544,768727485,0
209582,245846762,155044841,666180,155366545,666680,67492,1774582,502248554,114722,249669940,130,512340,13812,769359062,0
228554,243905878,156003767,647213,156071805,654992,76776,1798691,505888289,115355,249897715,129,309175,245924,766915321,0
208869,245691475,155521448,627023,155527212,626506,72102,1771762,502346339,114727,249046709,130,308464,198341,767222136,0
203674,245726673,155788405,641471,155903585,641332,55681,1792642,498398396,114511,251869706,130,105340,7814,767778258,0
234295,247128949,156508335,639933,156462965,638523,77604,1856974,509474647,115473,252594772,128,309472,335354,769334985,0
178166,93566191,62446987,394816,62632687,393085,65706,1353679,347359288,111361,95112714,136,309236,411818,327092675,0
215642,248130918,155098915,618654,155895471,618774,92247,1923637,512760867,115562,253088737,128,309841,409984,769695517,0
171559,90414816,60985604,388967,61049641,389923,47166,1210577,339204667,110503,90951398,133,309352,334275,317167259,0
209000,248613505,156199973,621776,156138031,621002,52664,1828805,506821911,114959,252209920,129,309221,357261,770178241,0
230387,246658820,156513282,621190,156411945,616250,61462,1760023,505668783,114527,252285776,130,308936,384705,768373099,0
183649,92530608,62109341,394852,62025040,395737,52369,1272647,342403843,110645,92819283,135,308434,378347,322586178,0
140949,62623605,45425639,171872,46213714,168282,69661,682376,93698109,3853,69965675,137,2198,2191,242665462,0
520653,248505372,155799390,635358,156206779,639182,74253,1780790,498984097,114677,252359730,131,512446,8577,768447950,0
227400,244931567,155870590,604797,156130268,604144,56445,1770153,503761781,115392,249915197,128,308961,271676,768228094,0
145463,65432889,50124784,110850,49985020,108908,43681,462156,99542740,3125,72221409,135,2301,3894,251249548,0
248116,248538225,155793940,615931,155841851,625997,92986,1900506,504561363,115978,251424794,130,308330,312549,767814885,0
250921,246739295,156647215,613086,156704983,612204,59630,1819638,508103135,115531,252304604,130,308698,374827,767681940,0
389219,4072703,210508340,239822,210664405,234370,77504,4769606,1433496193,39140,3051928,133,10686,4620,1972528125,1
58471,1788083,2013115,28195,2015507,29275,8084,593895,176850530,4511,312937,128,1172,551,137718281,1
138718,2166283,3168648,96463,2859348,90482,42219,1628280,430208790,12349,827106,133,3542,1435,59493132,1
78483,3799587,4724428,106582,5202864,110608,29672,1062845,273310439,8871,2804069,129,1822,711,49556451,1
458555,34595869,123448095,315446,123044468,312940,110691,5263166,1569242022,39796,33175607,133,10283,5083,1219135313,1
62780,1554530,2477231,46371,2294044,41970,35891,712408,179970310,5052,351818,132,1400,604,110798715,1
72953,3763914,3943424,572747,3955778,568968,4227,268531,74175035,1934,162520,132,449,969,84951384,1
87606,3402297,2836825,54642,2548845,47964,27296,829844,178760027,5047,360083,132,1167,571,117823172,1
54488,2809159,2052418,32931,2025841,31124,7418,584235,171480755,4475,289210,128,1133,468,102953552,1
420827,9836376,763498,15469,688222,14565,21387,318593,49029554,3054,9031952,135,2781,6636,31715058,1
699298,8868475,6420267,43902,8043748,41871,519983,1860687,113114857,16046,15035293,3858,6406,12838,120918389,1
124595,3167390,2360255,41408,2221762,38511,31556,670583,175609090,4559,313749,133,1170,508,133965859,1
232975,4581616,3004546,132841,2894153,130665,74150,2553299,735848296,18880,1361193,132,4522,1546,98606582,1
80730,3406354,3097043,58086,2739055,49923,41296,828359,188656604,4825,371358,130,1231,377,127693861,1
80959,3269260,2040244,33543,2056344,32320,8479,613328,179057690,4683,367177,129,1174,389,110437654,1
480356,6787259,211159654,271431,210995340,268516,92157,5242432,1537025329,40068,3236281,327,10947,5545,2221245003,1
200396,4117498,2670386,112489,2636444,110332,32144,2144747,666673287,16775,1179489,133,4167,1681,97087339,1
100323,3214511,1997848,28910,2015777,28375,7440,566889,175679174,4352,313716,133,1072,447,134274234,1
39743,3099385,5413589,48244,5031860,42249,52832,652748,107653691,3877,399504,133,700,294,80414553,1
68432,3186444,2973781,99350,3820830,129722,3640,304725,89014026,2257,184940,129,579,180,144149940,1
1057492,168737206,141929373,118647,140791838,721672,141293,1556563,249028535,7092,185961214,910,1731,3690,526169481,2
336459,83321302,53794068,1888700,51538961,1902980,31449,937122,135510700,4972,67406781,523,2158,2310,289328618,2
406735,74915553,47933645,1992622,47710843,1931620,124597,1789026,128766365,5910,79233710,917,2411,2339,314624966,2
1107848,164677735,142684002,115447,142676048,114897,109158,1519228,259197647,10882,204025230,1906,3178,19378,533980265,2
222551,74355216,47714587,2034137,47328745,1986962,49156,1209673,129129447,5584,75681672,526,2706,2134,316778297,2
1065819,176355450,143842739,107426,137511153,957996,443301,3412918,318717637,25144,217165130,523,15049,92001,649916095,2
455596,163973972,140352534,97871,140540487,404780,49753,1174378,244636161,6312,186824687,518,1679,9281,520949005,2
7534026,106763575,109846408,656570,109568831,655612,1287592,7179354,333113856,113804,133459294,2870,15561,17405,369456272,2
1108504,78515572,48380870,2161245,50724408,2173628,214235,1860900,148605090,8699,67874475,3087,4219,10179,280727073,2
8437772,121265630,105087905,2755962,100388518,2843911,722939,6317694,354965862,50916,129145807,2871,4335,24403,409170165,2
541542,170166409,140729505,94378,134046263,1059856,38458,1170016,244404297,6631,177414295,517,1734,9181,524342946,2
889926,169088142,143112825,104619,143233570,567083,95183,1501026,250564130,6736,187923300,911,1774,5381,534864712,2
6640717,98976002,98550676,606022,100011872,606731,1267043,7012820,323079097,130279,114405132,2673,3096,17933,343196919,2
900614,81523947,49151442,1901542,46765081,2000801,115620,1632018,143633987,7564,63546963,1913,5725,13960,268683965,2
195198,75277751,46802529,1993012,46739474,1996453,58551,1233339,127985580,5948,75912325,529,3156,2267,311089897,2
470954,167016387,142885239,341477,132585438,1080518,83996,1224219,250331153,7193,175615808,521,4184,9321,521092389,2
985529,165740096,138674449,104812,138709915,572040,167700,1530063,248994491,8452,184457180,910,2861,10997,518052045,2
368323,72279919,50920309,1899248,50742233,1860663,39368,1059295,131457876,5313,72255327,523,1922,2705,304549577,2
1401591,76325740,50103268,3770913,49596788,3771848,88575,3667634,211429269,9984,68666819,1010,3566,6605,325089261,2
203947,118286245,60436777,2652961,56345748,2862819,46674,1489752,166338873,4300,92848893,529,1133,1128,384016320,2
4720867,157425119,104809451,852369,104115897,842975,1672044,10419642,381689185,197265,150136527,2480,15808,14675,516244730,3
5184693,198522337,135703544,1233128,135468315,1268111,1204437,11491143,891402102,402456,201259827,2479,593064,447524,660052070,3
4734038,412207922,260348419,1559198,259476678,1554985,1838581,13510135,1110106567,411758,411681106,2471,626557,282566,1272088551,3
4705036,405072796,259238928,1561515,258456105,1553926,1864270,13396266,1106342695,404002,406427174,2474,215419,272253,1267812675,3
4708459,160002222,107685045,908289,107533838,903242,1878470,11139951,393637377,193782,154527373,2481,7367,23908,523810570,3
4820778,412100639,260456687,1563602,259888868,1553752,1837865,13580064,1115580069,423829,409901664,2472,618205,477573,1264942985,3
4860951,165679474,102736275,854817,102155804,846572,1735026,10355811,382944347,204899,148022538,2872,6446,26584,525500329,3
4720051,138823153,116355735,843355,115567249,836437,1690126,10436730,388261418,209627,133852039,2476,6666,22086,540921329,3
4886387,199559019,137096746,1344431,136778302,1339260,1730196,12338737,882686710,430339,200586830,2479,203050,24892,663411866,3
4532488,186977633,130209219,1331585,129506356,1342126,1826102,11921188,864462995,378012,192092188,2477,653798,697327,634323754,3
5010291,348339295,229070888,1219842,229622056,1203999,1507595,10967984,609798961,139816,381393085,2929,19719,30408,1108221644,3
4811212,413274309,260723684,1558628,260175057,1549736,1876900,13416003,1110868100,414666,410748899,2680,622810,680424,1270168732,3
5690013,392722072,278603953,3329183,278136366,3324564,1032063,12393835,1158286979,354743,409062602,2473,219346,37506,1237166019,3
4738011,157374222,105146331,836195,104603402,829301,1664590,10216159,375218685,180232,153242524,2479,7624,26172,526988947,3
5226469,198424357,136469360,1260338,135944659,1281871,1395007,11566895,901797001,408290,201279538,2478,587404,540113,659830106,3
4935250,115313716,99290081,773822,101882560,765600,1241740,9552442,359239716,105791,156799679,2480,4566,13822,428000057,3
4230635,141876276,103688869,740914,102908402,730193,762280,8679001,335785211,89738,147769403,2479,4113,20762,475460450,3
4755481,404593754,259234327,1557794,258560479,1548967,1833816,13601935,1114048882,419188,404824701,2474,214169,345483,1259616825,3
4746074,156472216,104666861,862387,103794876,852921,1733556,10399841,381878373,199153,148305728,2480,7950,23450,506243181,3
5155132,198572151,137213307,1240818,136893332,1266318,1294517,11584020,891728242,407776,200497719,2479,589238,457490,663690980,3
4453525,150766346,110734297,561746,116665391,585441,5099510,12402013,447415240,489960,143970916,9039,12414,52648,510653795,4
5379816,340939071,227061344,1464978,227624684,1636306,7445646,16234356,718936217,628144,373173867,7549,18027,46647,1082922577,4
3502767,124122242,88317803,1010850,92551491,845464,5404437,12812308,385423894,371757,134916424,5953,8898,29060,469231955,4
6066746,136091046,89889925,1114232,91480336,1060294,6783934,15323545,498184890,723187,127469318,5603,77488,13588,471620031,4
6217477,131539532,89230271,1276373,87998996,1125097,7853423,17120206,492903023,783655,126619271,5126,44466,17819,472144238,4
4331745,141449147,110796873,663807,104687890,676857,4375146,10427872,419287326,423442,148158957,6572,7786,25344,531500102,4
3583067,125489442,89329060,1098144,91667712,905670,5312578,12369953,388373304,408013,134366518,5954,8760,34933,473269015,4
5728758,341081468,234197664,864220,241379915,882742,4784876,13126804,659832908,479840,384718219,8190,14524,75214,1101629523,4
5284209,150367949,113869555,674361,113612467,660298,6336240,14212833,475909908,626445,152956551,8001,10240,29647,542339047,4
4211775,127634513,89181211,951869,88553723,976451,5400382,14653648,393787307,471797,134335530,6196,10166,46500,482507934,4
8660161,173367182,141711771,836650,141826021,827801,9016656,20590012,741430513,961406,192590900,13185,24829,61047,663376882,4
4601943,119712711,92126329,731683,91463099,721559,4254137,11671094,427936020,636700,121548568,3260,5467,14973,427945022,4
5474988,341582860,217823331,1444185,223010310,1239895,7000816,17456993,694430920,621808,365893428,6185,12468,50720,1083209780,4
4325521,315950000,232931146,795226,234672304,795030,3080525,8988660,594738098,411411,354504606,5331,12886,55995,990470325,4
4591810,327365612,223199191,835737,227311816,826429,4291623,12882225,632004729,530820,354354340,2869,8053,27174,1041452156,4
5330631,127743489,90238121,1220440,87827390,1358571,7389809,15964783,473026842,682750,132868593,4994,8266,19254,468206690,4
6477341,131176848,95157181,789905,93409488,865790,7575539,15837918,511391351,733376,130693852,7554,90693,50285,462456670,4
5060776,123246719,91765400,679809,91076305,670573,4278387,13165467,428001894,626223,122631153,3071,5701,14078,434980028,4
4097862,373656472,250989211,894362,261777095,907498,4551291,11776777,680122305,411341,410345534,7375,14827,71172,1204266932,4
6901788,125445135,99562127,962319,102552199,1118828,6144169,14199149,488910113,721036,129529726,6579,156545,48298,438852856,4
6434204,184663348,106472945,1272537,105633092,1284664,9729389,21591827,610073310,960444,149931987,5778,41266,32997,623566411,5
6074991,377057338,243734938,1452846,250441251,1283565,7506651,18193029,770102631,666419,417043950,6424,12055,58990,1240349723,5
8923307,404655227,243287216,1616897,248440521,1460916,9495861,29660274,927064403,1075036,420820972,6492,23224,61424,1323747444,5
8760149,150761554,143022061,891883,141423443,881264,8050084,19010878,649656514,886858,188517751,8148,131906,72044,567886311,5
10591132,370066062,273521169,1375070,275083507,1258740,8451779,21591666,909454333,968542,426445635,7162,137290,80578,1207780814,5
6695590,380431279,244833686,896138,245003255,1147202,8745490,21528010,776028038,785535,389794257,6617,37695,77542,1231937491,5
6570327,173881741,112381209,980666,111907112,1030856,8308946,21316854,540940677,764290,146793950,7062,88876,43904,598209337,5
8202101,152837659,140613904,756241,134012513,736526,7122555,18193714,555747326,842809,159408853,7653,99627,28583,513631926,5
7091828,179153967,111162064,1200509,110757753,1090383,9738045,22671808,616232622,915632,146235133,6581,150927,35000,602618072,5
8944361,147782396,152535586,809952,150340755,968639,6889848,17098225,568747250,758640,153259331,7644,71441,46167,608389433,5
6626515,198575540,118790125,1220475,119444937,1102444,9045014,20801688,597470844,848247,202302043,8964,14367,56290,805597039,5
5972155,163779055,106168690,1271265,102114313,1413332,7797631,20353430,601424665,906779,165073692,4159,10898,18877,666321734,5
5993865,377120136,240460660,1525414,253951724,1328489,7028371,16509249,763143108,633242,420742763,6425,11787,56282,1238413368,5
6928657,385312856,256595622,1740741,256169280,1582356,7939688,19346410,799453158,837871,383182011,7449,98497,60521,1207904596,5
11203451,147126757,125065415,844423,129702946,1161209,13139244,25652954,726914843,1411546,168947198,8146,55471,37051,519419490,5
13177732,476386042,335332827,3734564,338638994,3934154,11141670,29682302,1213584570,1021682,511207005,13036,50664,98153,1615061315,5
8835568,265223451,227748293,797410,215927845,791591,13292809,25474782,774787438,926183,263022540,18232,110174,101293,1047511358,5
8544419,159581539,134161079,991490,131098923,1182280,8851289,20281202,634497854,893256,161848019,7363,76435,43127,533958207,5
7823745,238768757,137807985,803223,144798101,863591,10867152,24519495,704259283,806661,206134060,15648,140642,110460,859710713,5
6215372,170293477,113957065,704324,111327327,714662,8326343,20817858,542248658,842424,145252171,6585,90656,35655,572296866,5
7273445,697934391,438964076,2299434,435677634,2216899,5058704,21199303,905634835,241962,683191410,5598,11170,44429,2112206569,6
2035339,647156233,422698678,3133371,409247082,3666835,1169338,6514133,787472046,37820,606316402,4794,11784,28485,1890109696,6
20898662,325138891,242184034,2268113,240174713,2247447,20684240,46006261,1557355370,2785683,322503223,18074,27734,105828,1136109082,6
5848821,215907818,151658107,2918000,151643037,2909463,2936832,11118181,410796735,120229,210048851,3258,4077,5857,752033350,6
898605,158556501,133891772,1620716,128831907,2234051,364222,2644847,290420063,14225,154814101,1500,4132,7491,518392846,6
815326,649694371,395420608,2761288,396330195,2787528,358385,4277938,755513856,23635,660609973,1877,10216,35254,1905162597,6
15375943,278703192,221320173,9207405,221958371,9228681,16219787,41574008,1376758247,1897939,287215023,11662,45088,53314,949975374,6
1476754,160000383,147467427,1675010,147089734,2003421,292992,2770396,308575248,15427,152740587,1893,9994,17109,540117895,6
7155076,181185222,182011491,9562672,185947698,9935854,1438531,16377931,623991761,29137,207657770,4808,11009,15737,776766001,6
898217,652105893,395148068,2454377,398093774,2543105,526470,5186604,749732633,24280,657916791,2723,7768,27502,1934465703,6
1618700,166488206,143562302,946015,148068413,669412,640829,4946566,289160987,13005,178091086,1697,3732,3420,563784539,6
17388591,352229662,265388824,12096942,270693976,12374507,16922709,38181772,1424334513,2159047,373246430,9548,39733,64559,1160517833,6
1567457,167873476,146477083,1854814,139003595,2446037,527654,3411007,297784975,12699,149129489,1697,3706,3942,547585990,6
3617495,192930836,143111851,1555214,146652435,1580106,1327064,4610345,356741100,22334,233359853,6357,10395,30254,642100324,6
8953844,706421026,464582898,3128524,464146979,3129624,476150,5025807,964072875,33170,683130163,3841,11874,54902,2164451957,6
21634653,320233181,268137532,5410638,264583547,5392967,1956135,8602381,972131986,55301,340059073,7375,19607,45749,1052925762,6
914313,154352409,138249736,1284293,139322850,1390624,347339,2400492,305457323,9362,156420777,1502,3607,3493,541560486,6
1063768,638179760,388373752,4216253,394412077,4098573,537639,5312591,756997554,21255,647246357,1691,6257,19014,1896457761,6
2711659,156179214,138114736,1300695,141864232,907800,547625,3422698,299485519,22918,180055817,4108,9521,28941,548495735,6
11120287,215149902,213379016,826235,209396450,1418972,988651,5504353,511305214,19847,215973001,4430,7439,31043,834000533,6
27299003,630739603,308157574,395682,307470935,398321,19252019,54667400,1192364386,305197,626039778,98333,315400,575455,1991652284,7
6556867,399147470,102767233,59401,102951690,59573,19065,10780610,321949932,8269,412261251,326,1953,1234,1337451154,7
12525604,193061955,13243863,41652,13240299,41588,10228,25975541,236079842,5868,207261542,338,2277,1521,681877439,7
27162083,640411217,305521412,395127,305793946,402425,18887954,52477333,1186571240,299114,619750929,98332,130039,701141,2019862636,7
25935239,302073963,205828268,133802,205810327,111594,58692,48304623,377740258,11272,307062563,328,3200,2008,1336167869,7
15136404,437853054,299661559,361444,299061741,357818,8818755,28287366,1091583870,134692,437987174,97883,104838,403668,2271184487,7
12865550,498373205,206085692,67636,206072235,68200,16413,29979368,399406384,9809,513219368,423,2328,1658,1736814315,7
50841346,298429571,206352195,72837,206044445,72864,17128,93703260,392916129,9832,307843562,530,3414,2133,1227521948,7
15331391,436414751,301108071,327375,300617405,325741,8663937,27981255,1037798717,127109,440250165,97886,107016,493226,2083498726,7
28162525,632563953,302722286,392694,302149806,396501,18872534,53468530,1203315152,294568,637939982,98338,145585,659898,2246359095,7
28910196,509252768,342302123,465903,351957141,466604,21357139,43949082,1313448613,692806,528311899,97886,105527,461143,2610058864,7
12860571,394389245,102900706,51253,103160358,50920,10648,26106777,304008832,7567,412451239,334,2786,1862,1223634494,7
6295407,383592598,213486728,65368,211485392,67144,14986,12948079,334036010,8481,382748602,230,2041,1029,1473809412,7
50734088,297465055,206421725,71749,206351182,72069,16781,93434052,383793344,10367,305913060,530,3367,2128,1227234083,7
15910012,440307253,299975614,398678,297359853,392559,8849513,30321533,1418171742,139421,435697008,97892,395681,239715,2572911261,7
15306924,438459692,299087076,324178,298560323,343419,8974539,28367624,1018106562,133157,438804519,97899,106456,403287,1973236946,7
6512642,294033528,311491789,233916,310954711,222646,12701,12783376,244811785,6042,309440507,232,1460,650,1081720068,7
16012378,335390976,299759804,336634,299252197,335201,8559961,28282750,1115259071,131721,338494614,97905,107306,444934,2373193079,7
28080066,655085452,295377537,394170,295709364,397191,18828827,54291141,1235756594,304968,634074025,98331,127359,602105,2376688094,7
20848172,666260471,304678423,450009,296434236,451827,18460509,40176016,1177647092,309442,587610165,98240,127055,671258,2097374790,7
34134486,452356967,255495084,2909298,249606573,2861244,18548255,62009234,909882085,2387869,469095419,8735,21906,56110,1417133135,8
15591160,338780043,232565991,893124,225575981,942681,13921069,37230467,1258286341,1005819,343654566,9353,224671,70204,1153110668,8
8558507,343072491,168031457,2743566,168309009,2794717,4807375,17260522,593353784,89439,330769563,6582,16035,13177,1167340325,8
6522164,700337622,433670960,4067241,434774206,4083113,2858157,16450283,1449575945,268828,721447291,4616,810305,357758,2223369074,8
7902098,242104018,143016762,2427405,143311904,2425893,5343313,17512227,485302754,50666,258719088,6780,5621,5229,903506059,8
5862567,395664907,180541004,3497077,180524126,3496118,3507037,16440903,708653030,71961,395529824,4233,12656,35686,1256009210,8
8355932,291678187,149425850,2959374,151448243,3039105,3712813,15720519,564845975,55819,292467174,4232,7343,7210,1130402106,8
11662223,423524265,186342405,2889073,186341311,2888187,8289869,26663323,830591447,124142,435383410,11072,20221,32215,1369370585,8
6067176,242186310,136799438,2516661,142079086,2626089,3996698,14417543,466665497,62042,251520981,5139,10431,12871,843997549,8
7875547,732597591,447123588,4038411,449811117,4067828,6579219,23551191,1487614733,434128,762745842,4036,213456,89664,2342030991,8
6414691,773969909,450550599,3816498,443045295,3783953,5841564,19697902,1488428644,298626,746431321,6768,361268,37505,2393533073,8
15154403,474160244,255973028,8143432,253907839,8188433,13009417,41594745,1116902953,883809,472371773,4043,14753,44630,1668251905,8
7132693,778321638,448334373,4456620,448285759,4472128,3925250,19559126,1621376198,283765,792397527,4615,219794,58672,2472667889,8
18562371,782108588,468533564,6019772,462083314,6018806,7101552,32659739,1623719741,390378,784119952,4619,223857,49863,2416799391,8
7808014,744225653,436433598,3900866,430803431,3856159,5430747,21600808,1454262249,276176,716078447,6769,221829,34426,2282970208,8
12310377,844688810,493213988,4310509,493127306,4292786,13320271,35921947,1760315060,776239,843554391,7940,218473,95632,2513149468,8
7182565,392315004,182897597,646358,183299362,647208,3263356,16617520,665362056,190794,416910668,3653,6368,5592,1366215710,8
6237330,714187101,432633957,3919306,434801230,3957880,3440019,16959328,1415655873,270072,732943463,4615,214855,87818,2225118967,8
5686924,258517196,136875143,427430,136663174,435197,4237277,15148394,454880424,42425,257904973,4428,5218,6175,1057088640,8
7921598,249782399,144222612,2352342,144223071,2350262,4662234,17462387,495008780,59815,257015505,6583,5989,7357,903277430,8
528481,20545478,32235666,16863,28126786,20044,274643,862441,48343341,7341,27099954,1368,4091,3293,43143597,9
272696,9733757,27665776,13796,27645879,13823,29854,452630,42991219,3081,45760428,391,2897,4337,60187398,9
300777,10343006,26493396,15044,26435449,14685,50931,426909,44639198,5834,39295002,622,8035,5163,62201903,9
183057,129915917,78458046,29796,78501107,30235,47162,624382,152570436,4536,142715198,374,2694,3443,361406311,9
231057,131543920,80484314,31902,80470678,30408,29178,658853,156559171,4254,148859518,445,1838,4755,367755338,9
237679,37959920,39011307,38361,39009768,37157,51366,388953,61317265,2283,66573755,391,1742,3545,169186895,9
295766,10782721,33754361,14017,33651680,15817,199785,859150,49695263,7888,41201103,1375,5245,2650,110665115,9
195102,108473135,75295079,35269,75309380,34158,116938,739346,162318046,4760,118675416,377,2198,2875,422028990,9
327335,129862536,79516795,40311,79487581,40009,141033,825974,158236975,6029,144060214,1361,3082,7168,363970813,9
85422,3360089,1839363,48503,1824395,48415,281388,511136,?,?,?,445,?,?,?,9
146744,180626730,82392749,64274,75246313,76185,2021792,3668372,201003579,36064,135956768,6293,10582,5507,485279504,9
141582,4554293,?,?,?,?,?,?,?,?,?,150,?,?,?,9
201058,129492104,78628156,35778,78513839,34262,54360,645725,151957566,4529,142534236,371,3933,3343,360100612,9
430997,15153260,25308784,17995,25305868,18452,129499,612863,46209074,5145,42387671,1119,4015,3659,108030693,9
373781,12085825,31053025,15155,30999162,14396,64067,335303,49193775,4456,51807247,1373,1894,1864,115258564,9
353599,7335144,18200462,31876,16977652,32606,736611,1738607,31661512,12613,1669327,2363,?,?,?,9
91481,3157422,?,?,?,?,?,?,?,?,?,656,?,?,?,9
499845,11692173,29833687,10805,29841002,12914,37533,360215,44202318,3045,35444931,178,4849,764,984110,9
227183,127303680,78535948,33158,78529076,32178,51117,635263,152688846,4532,142316534,372,3123,3786,363004771,9
163036,3263313,?,?,?,?,?,?,?,?,?,452,?,?,?,9
1253606,84497358,79373810,141748,76342635,241845,466683,2438440,170110124,18235,86982536,2022,2045,6515,290598898,10
3319602,107174894,72134639,344787,72949619,365790,2231695,5724941,254429298,154868,108870970,4303,4283,16166,376274786,10
3034606,103047677,71957849,368184,71816724,377219,1996267,5355675,249802284,194894,99162670,3520,5079,13341,365798257,10
6853888,129808264,122237223,2281344,120957576,2272574,6049365,15499953,578598474,859220,145781359,5604,11941,33541,466955798,10
11878638,199255282,171112698,750707,174245657,765134,1794828,6003383,486264339,56283,218174361,7929,11858,38808,701807293,10
5246144,289452468,202015059,630575,207093321,691058,3372928,7907028,515644994,217380,328865823,7033,15170,45246,996582854,10
992228,243899275,174884133,819083,176972127,835981,485967,3935662,346916072,14534,285628488,2016,8775,24977,777170654,10
1160642,83919248,78838580,152848,78177889,147956,580320,2393614,170296010,12889,86875883,2220,6467,6013,291923288,10
2443688,111882964,86171303,149466,87680081,142206,3674788,8001802,297464828,196872,112288650,6483,8802,22316,426724843,10
2261315,110384697,81282457,583479,80729779,707030,2847606,6667823,276117716,181649,111701022,4138,5585,15893,408744384,10
958965,278800488,159774479,1318263,173423634,1104923,1479450,5624968,372817918,27100,293728272,2994,6011,25806,875243033,10
998537,248017311,176037393,892157,176150714,892179,260975,2512815,343576278,14760,283417006,2019,4670,18021,776991527,10
14926487,372297508,270935667,1196997,273299409,1199170,2434637,7705010,678078997,135956,379374173,4819,13588,37966,1174123380,10
1146399,91033514,85261260,152631,86148446,145332,850929,4279552,191086626,18942,105152147,2999,8300,18062,345903978,10
1477434,90063465,72686318,130248,72725397,134636,278310,2110883,158080144,12425,99351841,2024,2943,6987,333385904,10
1011606,260333021,177292102,1078569,180948810,1007189,1149776,5362379,364840762,23053,288581578,2866,10291,32415,846306939,10
1078066,81949940,79690993,145746,79944994,260214,425377,2437841,176200044,13582,93227168,2802,6768,19472,300252045,10
1063587,125739860,57164451,1001287,58830478,763977,2187419,5843349,215352250,38461,97739000,7173,6749,18468,420797464,10
1941073,292144228,190418807,797795,187673604,792463,2841231,7916562,445209114,174246,285648196,3521,6693,27555,904857872,10
2229343,127643691,86561486,157789,84975256,156103,3724148,8231146,290160898,189246,119184032,5895,7279,22886,446547412,10
13317905,64153871,26727924,4899351,26882269,4905032,19121,954400,221381953,5589,65504664,174,2176,1687,135647595,11
14542404,65014729,27173718,5153185,27032373,5152841,47700,1019623,204567500,6898,65751372,212,2175,753,150809493,11
24155838,741267153,607640544,5831327,607981701,5824516,107136,20295769,1126472750,29794,747729041,221,7786,4778,2567069894,11
24708292,77764563,26841163,5612770,26772895,5612679,45536,21315560,254537503,6541,79357651,229,1592,786,189528182,11
7918873,67801743,27480147,5145126,27552081,5152954,9414,2627272,227756549,5798,68702754,191,2309,2657,149908036,11
24567759,80119717,28802475,5055552,28357197,5099513,36001,18177854,267689164,6722,81459891,208,1746,826,166848979,11
14483475,67983989,27633269,5563648,27756628,5569579,18690,3056123,211331225,8065,68237734,170,3321,2258,156055413,11
6569744,83523806,48228483,5018734,48118014,5010894,32858,929040,250883329,6334,85530714,184,1614,631,400359647,11
13802416,69488962,32035828,6121031,32069143,6124864,19597,3888077,238342401,6300,72043571,223,1523,2086,172574189,11
23553056,777469738,612369459,5778461,612528418,5776656,52144,26689138,1124551924,29140,785055609,245,8154,5556,2631095676,11
22550366,91108764,27402450,5051938,27485424,5039730,19870,17238694,241202931,5961,93878195,217,1544,742,175266912,11
19382714,57125386,28690108,4942325,28751942,4950786,20803,13843116,263435601,9692,55945322,331,1932,1681,165499460,11
24537822,78488603,26949542,5545326,26851518,5557125,63980,18916178,252640117,6949,79873218,261,1517,722,158742379,11
20607201,208274012,69951723,9843370,66278217,10080340,45080,6897977,511905714,13433,183580366,175,3693,2040,570847335,11
13235900,64993358,25930392,4537401,26280525,4588205,7793,2210370,218839187,5668,67364088,222,2224,1952,138799083,11
10986652,64629634,39846871,5744960,39830060,5744028,9948,2700063,230423540,5768,66332304,213,2394,1977,187032374,11
28183205,755089879,607821950,5792408,608376191,5788637,68670,30355468,1108024728,29014,758664570,232,8468,4328,2569886129,11
15356411,86916427,40957872,4978903,36239889,5296215,171541,3837834,236574532,5668,91024024,2524,2171,1395,181677764,11
7679918,72015288,26441095,5766686,26434508,5830963,48699,1249060,265794825,6621,71200949,202,1726,862,238448695,11
22341440,739645550,607970243,5784301,605650263,5783332,66135,20794846,1093405087,29792,745817217,222,7202,3718,2586673327,11
1335459,83888459,75547747,42969,76419138,65446,239215,1793618,151415869,7798,92870398,1944,5902,5213,332834209,12
3283083,319595924,200605009,611484,197684321,611440,1064328,3941270,421666990,29727,320114283,6298,12714,39954,988065593,12
1184332,74562661,102037567,44154,103451052,41288,154997,1659839,166559203,9268,89875711,1943,5376,7246,364353268,12
207218,90876089,74115386,117373,78435031,154726,171369,2428466,123779351,5903,86998202,915,3022,2535,315252157,12
9036047,386474419,302162831,1823284,306946453,1855129,918316,4526857,683455509,29981,402821190,4816,9783,45855,1337597875,12
8711482,399735573,259288355,924410,255552261,918513,1497916,4596070,657859437,36108,392640268,4816,11603,49627,1220856978,12
11146269,176205345,125775364,451220,133281530,466891,1419048,4683708,490364387,29931,187460590,6385,23142,50452,603622231,12
1006216,323927178,220861003,677471,220316030,692457,301577,3201879,384068388,14193,308674783,2330,13416,17922,958769632,12
540822,65499500,86004802,41947,90426626,116257,211293,2482263,169893007,9998,105355962,1906,3737,4029,300559032,12
3294055,85885097,79161188,43476,81205902,41241,224617,1548359,165072877,12778,105073442,3748,11053,12124,344504081,12
7679400,441365972,325589951,723557,321074935,753157,4013862,13269809,605442968,43284,456538392,8628,22444,46639,1528752559,12
3120849,84029212,78874846,46372,80974635,43454,287679,2052483,165162928,13661,103329017,3748,5444,9290,348884138,12
3220423,86114867,79717129,46003,81951121,46321,234002,1540952,167138034,14063,106373385,3750,11347,10205,329678379,12
2982497,84011184,76857716,47772,78765785,45535,345551,2413450,159958313,12519,101323591,3749,10233,7268,361869062,12
906396,326382447,209858547,590469,212772156,585444,178696,2791246,384728868,14783,309241565,1941,12329,23987,969710458,12
10812291,395088919,255734288,993635,268315887,1008766,1603721,5446457,721561759,43703,423643933,6379,25438,67331,1233023049,12
1324186,84512121,74398840,36366,75927032,65297,225892,1913320,149133291,7943,92634343,1944,4807,4481,344690415,12
168379,88308347,70705853,139105,75071581,186612,103692,1283105,123579252,5758,92091300,528,3004,2883,305597717,12
1336418,79965935,79618366,43462,80908419,41049,253175,1714628,159906806,8384,93855703,1942,2937,4181,324779511,12
953000,316701837,214918443,570060,222032772,613511,219042,3104377,373706670,15946,307019501,1938,8060,25660,950299209,12
67953,75001639,49079122,20944,49165579,18939,16654,366736,87169178,2467,81535943,130,708,3034,235268237,13
59870,71776598,50596010,20595,50200749,19291,20779,364844,87893046,2334,80465485,127,853,3082,233618538,13
484405,8905317,31252845,11224,31240129,11268,12685,277505,54052994,2803,37102604,261,1790,2244,149088246,13
214086,8023978,21653848,8372,21465577,16676,23631,306612,38997482,3229,27425501,136,?,?,?,13
54903,71495193,50202026,18577,50159774,16969,11148,355417,87912011,2518,81362954,128,887,2133,234790172,13
48536,74096762,49842274,23688,49712260,20046,35523,366086,86910877,2463,80663653,128,983,4990,231439830,13
184308,4778654,21581088,7197,21570174,15153,22975,276977,40555081,3081,29337345,133,1505,2197,3692176,13
61154,70461591,50385430,19686,50258304,19747,21283,358547,88278359,2328,81138743,128,871,2974,233756948,13
101081,75571105,56283889,78243,54938996,61915,84286,1079243,94540386,3266,85842912,518,1247,5617,246875905,13
151610,5682581,21403678,8991,21547651,16156,25223,290327,38739941,3058,29169668,133,?,?,?,13
62436,71579834,49996026,20941,49909760,19647,20785,375424,86317450,2382,80970615,128,658,2089,233552842,13
90964,77811984,54993925,17923,55232916,21757,45765,454258,97505192,3378,90264150,324,728,5189,258304691,13
125989,78569771,55441029,23220,55440510,20345,20841,498403,97161537,2633,91122591,521,733,2025,260883440,13
214448,7370938,21079983,8101,21041021,15673,24517,287685,37848059,3169,28402585,134,?,?,?,13
172931,6723045,22051953,9951,21960136,18391,33332,316851,39392411,3085,27691851,140,?,?,?,13
148964,77698147,55699538,22776,53908325,22332,37866,509092,97788597,3747,86199512,780,2241,8295,253468856,13
45372,73525561,50100426,21285,50088390,19496,17719,366396,88433754,2379,81680668,128,902,2921,236058924,13
69179,72822995,50778830,18593,50692543,18630,13905,396066,90461919,2351,82815123,325,724,4489,240357270,13
48790,72800787,49813730,16247,49755274,16895,15935,341135,87638533,2551,81229969,127,862,1967,232755308,13
77023,77736533,55561773,18488,55535719,24943,55664,481590,97785893,3296,89744968,325,849,5171,257555728,13
5641636,154142821,221824378,19627098,221282762,19742137,1759277,10005818,800720892,57946,160107229,8304,37767,54150,913669216,14
1759415,78179115,88601804,3076767,90437928,3122694,349097,2588931,234586710,15550,91965675,3620,7717,17400,488981568,14
20071038,131513802,226429043,17839011,232782867,17517073,1595350,17738862,860979671,43875,135948809,8301,13972,38938,917501916,14
20293037,161196597,254035050,19430243,253159775,18795420,3050760,10582066,826003262,48089,141938122,8303,15976,47511,1215490432,14
19092174,111826272,146851111,3693865,130395826,4048543,1928843,13392809,362808694,31757,121355745,8302,9994,52022,781737107,14
13765772,147080022,282251742,15531314,275848279,15887829,3348375,11264949,791847509,47723,154856223,8296,20588,34879,1062229157,14
613284,75006868,130891949,964456,119728427,1374331,434188,1935851,193166061,9901,73734374,1742,1145,669,485705825,14
24501450,111632085,227354639,17701982,220821812,17543095,1120418,24270981,765805796,34145,100366854,4236,20026,20634,876418452,14
3446374,126567593,104681339,3253732,93188677,3329646,2653243,8264279,353862809,56241,118212842,12134,13718,55961,673134657,14
171728,54061581,100892838,13150356,101441279,13217060,55437,1723303,468336416,13026,52549574,132,3624,2124,330227035,14
671007,52199371,58455902,6791044,58315612,6791989,167486,1016838,228526738,8237,42528742,2305,7747,9102,287370146,14
2999062,86973802,54555734,4231349,55351693,3956925,965401,5295394,251032311,21620,79156286,7146,17660,32635,383699629,14
18432131,110177230,236565489,14834432,232316135,14920670,2537129,14876864,702803750,44286,119470361,8301,21356,32345,837761790,14
20583521,118523051,223840852,16490522,228449288,16127071,1302117,10567639,737976604,47923,119028894,8296,33363,50878,1053703761,14
114850,36711993,79750647,11643042,79808066,11666148,36714,1433188,361753526,11312,36191022,137,2728,1089,295033703,14
647436,252273686,223589208,7629253,223543077,7665773,332059,3546615,613770392,20034,249730541,1193,5136,10080,1370188074,14
14797391,148786767,266038141,16884195,270910750,16214966,3423826,11556405,797046980,59051,157177019,8302,12551,37178,1112712135,14
2128058,81006363,185026392,13751299,188032160,13854274,989087,4821246,693947488,25437,79957793,3346,10076,25116,778611720,14
2398231,86854525,101994432,2151350,96344644,2558130,1676015,5551726,267833299,23172,80557747,7146,10082,41025,481801994,14
4825988,111564837,164669960,16476150,183390422,16253062,3796622,12228341,698538277,62706,119687739,8297,12409,31822,709728614,14
1467810,402990036,280495949,2244239,282963560,1783617,216444,3030346,523202557,19866,451681642,1939,10303,32071,1249067272,15
632267,107746450,86703458,1612335,90908353,1272656,179661,1593215,201167042,10719,140622803,1041,4093,8049,398449910,15
841300,395487150,292517783,561841,293630345,756663,148149,2189425,499355992,14452,428219685,519,5803,18901,1181388754,15
4511786,155548450,106246710,1357223,108832259,1337308,3990611,13174938,296797781,108739,151163022,2870,6082,17235,548189937,15
1106878,101244124,94685274,847982,97035923,650240,183611,1759896,196292449,7219,139790335,914,1816,2735,371131997,15
596423,412225321,290449155,1408395,282995332,1804008,286220,2569287,502911040,14339,420644945,520,7323,12235,1260556963,15
526628,400730480,288074019,1318643,276008503,1812395,107470,2331021,497358065,14746,404014730,520,4969,14012,1179859494,15
618979,97340071,81882865,1751125,86593462,1297954,149927,1498155,197191871,9732,141936125,1040,2805,6689,367993576,15
630359,90875818,83738831,1271549,91319280,973582,161837,1630910,199286161,10127,139747271,1041,4758,7895,349157781,15
694487,396873491,294213134,744334,285251732,1423720,153343,2637460,500965221,16333,408176813,1035,11737,20022,1168788994,15
805228,410333029,284596606,567631,289678523,600255,288462,4326798,502016994,14160,441860159,911,5097,16881,1273828473,15
18294432,298028600,244336416,12224971,243387928,12468039,8669195,42943632,1001111368,561592,323291252,11165,18815,74749,1104994426,15
532827,402382483,283827492,1507317,272964898,1919612,107698,2306011,493307946,13562,403647114,520,6538,12817,1180554352,15
751227,99120117,91800683,1723092,92939866,1324242,233469,2900914,205263796,11748,140328888,916,3711,2460,421114008,15
5594658,423622863,315197632,3096803,313716877,3085974,2686768,13803178,808701685,418902,449163134,3254,11883,39279,1322559162,15
1259358,83835309,88432648,132450,93277770,118971,575022,2049531,194179594,9424,129921784,1695,4033,7460,317694263,15
600244,83597586,91636200,874695,92780708,668388,156420,1534350,195022747,9223,130868101,526,2760,3106,328480564,15
523238,93936319,88721052,1413119,92594150,1071071,172882,1461494,194991685,7703,136985852,523,1808,2643,391635512,15
655979,110283825,92165938,1702868,94037434,1567801,124296,1539013,207132636,10456,141306232,1041,5902,6536,402406812,15
527127,419260363,287275787,1444977,279225898,1852231,120167,2325154,498989761,12594,421465078,520,4408,15387,1242219507,15
677954,1219417774,707185307,1434943,707007469,1443987,838875,5561581,1340907652,36933,1223529453,2806,8555,4493,3901078374,16
319852,310541315,203863421,1145433,206889853,1142467,424106,2774703,593026651,17496,313469020,2086,3649,1826,1469491449,16
314544,309539149,205401148,1132524,207105556,1134074,344817,2686863,596786170,19615,312690632,2083,3527,1874,1361697213,16
374349,1012458808,611791008,1181633,611753956,1178806,68890,3486604,993479323,24836,1020020357,1265,6079,2396,3570673847,16
3216970,2242043834,1326407032,2455410,1325567781,2449212,3510265,12707303,2442451084,100057,2232201827,16731,32292,86068,8958741562,16
301807,302047480,206923826,1114339,206875899,1114036,48418,1989626,551068882,14180,308287013,1105,4454,1950,1334223050,16
565159,1213321768,919895022,1446785,918004915,1440804,426469,5294618,1405754369,37338,1221972647,1831,8908,5718,4487183527,16
291039,304395932,310492874,1119456,310330481,1119195,71201,2136723,565302681,15261,308936073,1111,4391,2235,1550305863,16
311954,308934297,210147535,1142559,210218610,1139884,227204,2357009,588475016,16786,312394036,2087,3679,1824,1258576996,16
353335,206556438,317660892,1132986,320418525,1138052,345276,2171595,405635346,11345,214503147,2086,2430,1614,1593397944,16
311767,311127132,307142338,1119001,310698661,1124162,248682,2380922,571781850,16254,314242111,2083,3542,1834,1477193216,16
341889,406169326,207204968,1133542,208063923,1132580,185113,2607398,640057556,18041,414029115,1105,5745,2755,1542292052,16
520781,1211020081,715508600,1393613,715214089,1394871,178466,4237944,1196837988,31170,1220335891,1830,8279,5151,4683481714,16
564132,1119104038,694307709,1360216,707105691,1367959,726157,4494586,1062453013,27923,1136428165,2812,7095,3819,3724663217,16
544269,1112065273,614801856,1388249,614888687,1388837,292032,4294887,1102798586,30226,1116073965,2169,8845,8857,3582722086,16
341373,308899385,210599256,1147857,210473173,1143531,237006,2342277,588002936,15506,312290700,2087,3765,1459,1259907304,16
295068,304660703,416139093,1418698,416257847,1417921,74148,2052000,574150495,15229,311853543,1109,3972,2040,1669805207,16
516241,217858435,417081674,1978929,418152538,1980845,336017,2961348,719945923,23940,219433518,4613,7284,39889,1487570027,16
293588,309616884,210267655,1135856,211550087,1128438,343785,2414450,531276748,15378,313555569,2089,3653,1469,1484711695,16
355224,314751444,201840418,1061899,205902898,1095146,836867,3028435,602771882,21745,318743458,4043,3613,2063,1292019904,16
675643,307659400,207194930,1270008,207396616,1281223,262650,5421595,1541915173,49471,307533446,4033,20873,34418,2039180316,17
174788,203322051,204829200,1084622,207960068,1090851,137828,1350930,273089342,9019,212214258,1111,1905,870,1185735628,17
314724,303129595,207350696,1127469,207578902,1128546,70196,2358693,651533061,16735,308414795,1112,4922,2273,1342380855,17
508881,407829911,205648115,1248093,205799850,1255002,332371,6072890,1426673419,44255,409076698,1109,14756,6823,1842275320,17
751290,308405664,207760201,1274098,207673524,1271172,236533,5224703,1537707574,49802,307726537,4038,15051,35097,1841115495,17
678988,308113901,208277488,1298422,207934017,1289397,406358,5768824,1539289626,52143,307414420,4041,24414,34085,1838807440,17
627941,307199123,206510742,1266273,206739309,1270602,259114,5550386,1535759032,39616,306985949,2086,10014,5149,1944796522,17
710053,307999466,207227642,1265405,207234486,1268322,263310,5491534,1543777582,51059,307544870,4037,22804,35710,2039088902,17
600116,1110459064,611904019,1487538,611059169,1474505,272121,5639593,1489796865,40726,1118306059,1686,9156,5226,4376722700,17
616011,307707669,130784182,244586,130805546,239909,286288,5413000,1513809398,39922,307636616,2087,10764,3449,1646972732,17
411456,304545277,209381190,1168678,209202285,1158612,285836,2594051,626326031,27331,306597745,4037,9492,33731,2035168073,17
551305,316470778,503848477,1430045,509621944,1429371,1052925,5845114,1269377737,37082,317729018,2666,8314,4724,2696903941,17
473421,407841495,205999080,1258053,206000810,1259124,204789,5090998,1421442217,37919,408199751,1106,8700,2695,2041017809,17
522019,306134626,206346164,1269903,206208813,1258935,240118,5129672,1412779812,35473,306130584,1113,9216,3791,2040836033,17
472317,305355092,205650589,1244696,205612822,1238094,156233,4843944,1409256042,34580,305380412,1106,9398,3173,1835969601,17
685352,1218613397,901099147,1452801,902083393,1468064,1008195,6729277,1585418300,43405,1220804524,2807,10389,6294,5924964085,17
697914,307682196,308007161,38446336,308441899,38338932,387781,7129692,1895469138,51925,307467967,2088,13014,6003,1541185669,17
645243,308042887,207255049,1263489,207045314,1267237,245299,5423443,1529753363,38982,307941743,2083,10598,5652,1844526995,17
635801,307736637,206468427,1269280,206507661,1264768,230081,5364212,1531818962,38188,306859908,2088,10487,5136,1945227527,17
632168,1216561464,603033544,1410885,608601993,1416198,707488,5287329,1309036678,33657,1232151205,2813,8164,5080,4623387211,17
29166392,579936828,295042662,533813,294536463,550112,27669538,57406014,1835071452,331990,562392197,98808,113073,724588,4346653122,18
6659852,206602256,101076413,66352,97895774,64749,238161,14590078,388998987,10189,207262721,1111,3393,2036,1472218482,18
6706925,311908615,212217286,87070,207776319,102370,265763,15833389,528560614,16139,295327575,1107,3098,1528,1876673768,18
12728853,204034084,201171115,104211,205899385,102173,8346067,29491732,560164793,210050,208132500,4035,4420,2205,1817079473,18
6950885,215042885,91794269,72700,96548314,64154,630753,14461128,265374029,8215,220454034,2085,1639,914,1119754086,18
29194867,580252447,302030820,494791,301258623,481527,27350355,55960240,1438429004,324105,567302173,99789,113603,504162,2681929447,18
12881086,204455254,106438658,127940,106907111,117487,8285015,30421647,598896513,213533,204766575,2081,4085,2196,1615967418,18
12732737,203258541,201355043,108000,204812002,106246,8513045,30072122,561684579,211536,208401048,4035,4927,2613,1824259415,18
28291559,569772663,296372614,529191,297142682,533261,27004148,57141781,1864945876,326014,568094392,98807,108783,416787,4479056971,18
13190268,212271059,216086250,90289,212695199,106177,7985649,29083346,527097428,187045,197645620,2084,3146,1369,1744100047,18
13621037,215115896,102038385,110270,101288458,113689,7365424,27212110,522607813,219003,201288456,4042,4247,1882,1599602880,18
12887091,205310283,212025700,115223,209786207,129315,8534800,30252419,605005112,212997,202540208,2089,3698,1864,1723121645,18
12848136,206660703,105116629,116981,106083741,122330,8547833,29305839,527841521,217762,203402532,4033,3185,1631,1531363207,18
13564705,214394506,96941045,114337,97541482,107095,7927316,28044688,515558987,209350,206042911,2089,3022,1261,1610359048,18
13149234,211530986,215925450,88556,216119984,93499,8379434,29292602,531691600,187586,197806926,2083,4025,1615,1736710772,18
13182948,212089744,217105739,94431,215550143,112712,8292513,29155389,531693711,188137,197771300,2087,3259,1724,1752026491,18
13020033,208238546,211847336,91407,213945026,97139,8365026,30162444,531768119,186531,199206284,2089,3711,1800,1726274483,18
28683898,577405306,295747712,471442,298473768,468974,27180804,55955706,1441933861,323617,572232570,99788,114730,465028,2674005571,18
28679796,577355853,307786885,477489,305508368,471931,28277516,56164401,1418541706,327747,561027081,99785,114054,501123,2741071950,18
13168694,211826129,215747933,90444,216044676,96487,7967586,29076638,532571085,186395,197901429,2088,4145,1811,1745701815,18
66084456,426470382,197290670,1087512,196139595,1082798,4371422,85218191,739655957,549055,443387390,23576,59758,147756,1686787928,19
6707770,137114569,62444536,960734,62295920,952657,4176797,6855207,341397141,53492,132831153,20589,28297,188084,499347436,19
8522662,82068139,43820233,891652,43953896,891603,13374,671024,173708585,4483,86243313,157,1085,508,365158865,19
6841557,259303173,111681561,128325,108580661,128017,4131123,7128158,377420482,76989,236688680,20591,29767,172009,835012772,19
39681215,1138447646,441997919,2371301,435815737,2356778,9441258,47212651,1467412804,812297,1108690276,41146,59175,213893,3304590188,19
3820780,160083129,89789306,4465054,90306816,4284717,2898612,7064782,461062839,57991,162155170,23389,62261,82686,619675798,19
2949923,81663230,44104256,898033,44010503,898479,19119,633183,165322299,4180,86356463,143,1120,527,367584701,19
4639209,141228637,101394367,4623864,100251597,4303636,3539110,6635862,442522290,143956,148626325,20543,23921,65112,556307016,19
12609268,238899746,144641407,190077,141520664,190417,7258770,11844775,547545432,108146,206836413,40996,152115,306063,903499799,19
12320438,171232872,79493308,989053,79432417,990827,7807161,11981614,500201497,101506,156411305,40997,51144,205737,608299786,19
21497282,831764431,330580375,2141649,329784040,2153164,4770976,25383532,1013470648,679231,800833067,20665,77834,163143,2649510129,19
6819804,230308305,101496427,890202,101976683,904389,4065425,7088763,356504431,58305,211344522,20588,35436,175478,640099732,19
3543740,156592677,108691569,108262,108704690,114074,2192647,6431806,387474713,52980,160572283,23390,24938,96113,870115183,19
9141961,218190942,131283426,205550,145384442,209909,11901026,15360779,561798715,300722,228671729,40943,123753,204201,917986177,19
27813702,966499779,420131715,2280556,416283476,2256142,5892158,32420758,1291138573,846211,937381525,20700,37003,193559,3112635824,19
12903869,148015513,67645272,198534,64163867,191736,7755866,12582913,519612093,109521,136360296,40997,53127,321513,584681048,19
10396391,712532497,342866974,2195221,341086747,2234428,4753687,14643966,1094145431,97948,711570185,24735,78012,119168,2462283970,19
113047719,861582385,358549206,387496,363348568,381654,9467671,180059714,1592209321,10063792,859255785,49269,243603,193298,2934777538,19
11134737,238416349,171084943,862233,171066601,881003,14003668,21069509,608688175,299065,200526611,40943,133443,217918,1080196368,19
4576836,143517008,94447964,3305873,94709252,3334808,3926653,6253756,406832833,130629,152548742,20537,64160,62822,575117564,19
474092,11471031,27345002,13045,27488631,12732,50395,772385,50641897,3067,35246098,915,2149,2653,108873730,20
66764,1545116,?,?,?,?,?,?,?,?,?,136,?,?,?,20
24489,1074684,?,?,?,?,?,?,?,?,?,129,525,884,1483412,20
159985,96134942,81425490,131660,72799975,113965,152019,1558377,112694614,6412,100264264,913,880,4402,306978347,20
885345,56156239,36247011,19523,36148117,17555,64613,362448,66744623,2518,55318553,523,1734,2492,195312738,20
85449,1417791,?,?,?,?,?,?,?,?,?,129,?,470,1039563,20
167227,82491541,57427613,23756,57271950,21428,19202,520232,102430296,2884,93708845,519,874,6675,271933852,20
115902,75148598,53248252,20344,53269368,18333,14389,440486,92451217,2421,85930541,520,909,2113,247074662,20
158883,104600412,87033996,125566,86903831,145133,136005,1682750,126974665,5832,101739769,914,2070,3207,340598426,20
242653,90719878,81280587,125494,74531589,120131,96999,1171369,117296399,7136,95356300,1036,6087,17643,293732071,20
220336,25756870,32585519,18117,33119178,17071,73026,493601,60762506,3060,41089336,979,2261,3051,152180568,20
246864,8302188,20913971,15054,21575838,13713,91373,589996,46679224,7032,33780921,1042,6458,11723,14188744,20
253948,92191102,81123658,110832,75594558,114730,101762,1208558,116488304,7087,94777925,1035,5707,13814,291508482,20
393061,79207689,54025516,75735,52550742,66900,148247,1492228,108061590,9706,91102868,1897,9368,17610,251768128,20
2381635,84078206,42779149,136765,41586084,138131,3005240,4588642,280646514,82937,47125206,31043,108117,142654,259949152,20
602122,30289931,28700587,18331,28664941,16583,71735,692030,62280271,4370,46082789,1042,1883,1318,182769136,20
589278,32159020,34530034,21148,32522057,19183,85569,723959,68548769,4258,46335269,1040,1698,1168,137699488,20
90423,1418083,?,?,?,?,?,?,?,?,?,129,?,?,?,20
145724,91253212,72609273,119639,69180637,100937,62588,934689,111112219,6341,101425208,521,884,8245,295145092,20
107947,93900013,72331388,113582,70178887,92292,57621,919689,109789586,5950,104184051,522,871,5107,298952773,20
740079,22105231,10975894,30262,11422017,28470,246629,979116,74007019,8208,24965156,4200,3753,12411,76628625,21
174049,7730820,7786395,21543,7261180,21716,173646,640096,31600945,6712,8059567,2138,?,?,?,21
203289,332807901,505754248,756911,505806955,768461,22082,1937621,541782404,16339,335034223,137,5140,3041,2183310292,21
164008,336372335,504654391,590939,508429855,565817,61572,1618404,428618124,10826,343147864,131,2777,1038,1880486740,21
1150457,13426019,12297834,29772,11829458,27780,493657,1319691,64338221,14261,17024382,6100,8043,28180,60637965,21
265985,8812705,37076540,89584,37181342,95501,705595,3825141,49900915,9932,35815292,2083,2684,4023,57253792,21
292723,349141184,485091037,611492,487323324,612172,1272339,4439277,916136955,49063,346103187,4035,5863,2404,3844481399,21
8990288,182490553,154530202,283396,167289820,252940,5685126,14416714,289149217,70037,186580880,9996,15053,60186,714875899,21
598395,24005283,16218574,61154,15165536,58608,1997385,2547178,111338640,34388,17042899,8646,39727,44948,75061731,21
190994,4556020,?,?,?,?,?,?,?,?,?,135,?,?,?,21
97305,3200435,?,?,?,?,?,?,?,?,?,129,?,?,?,21
305194,333405499,504158944,615577,504232757,620482,52284,2861814,876136215,21721,336446692,142,6705,3118,2342908143,21
73580,3110439,?,?,?,?,?,?,?,?,?,135,?,?,?,21
80633,3393091,?,?,?,?,?,?,?,?,?,133,?,?,?,21
131751,168412648,497067051,605127,502204614,576679,38215,1618528,433571970,10890,172438734,137,2611,1274,2034572628,21
125422,330914950,338926829,508850,339136494,511750,27990,1439855,418001708,10611,338620789,140,2498,1132,1858936348,21
256363,332664756,336416684,595224,336399077,603179,41198,2404833,703804425,19795,334831925,131,5634,2970,1845068828,21
1945433,79231978,13244514,36522,14018459,48470,538621,2657450,92892568,8995,75926034,3136,629,301,297273797,21
1061587,13629889,12119890,24957,12219437,24119,470457,1262449,62515812,14253,15922949,6094,20941,27686,57458719,21
82744,2645340,?,?,?,?,?,?,?,?,?,135,?,?,?,21
120427,68989368,48098952,18665,48029169,16836,11379,344703,85658896,2313,79637492,129,738,3240,230573965,22
156186,75473711,52914395,22616,52866305,22904,34790,497399,93636716,2571,86796246,910,736,1611,249075633,22
178883,9145517,21733803,10320,21594124,16738,37434,447912,40119840,3319,25584650,330,7311,3446,6050222,22
88650,82357752,56895259,23916,56695067,22428,101518,577344,100488338,3375,92822686,1299,1224,2016,266598603,22
286961,9555872,23154365,8935,23144487,14002,22824,300095,41421749,2864,33344815,134,11281,5154,4546578,22
57665,70497395,48758639,17768,48668497,17152,12648,338413,86692125,2338,80701442,128,672,1963,232258461,22
256617,7589020,22471893,8533,21725291,16872,42371,520876,41128351,3825,27773807,527,?,?,?,22
569226,20961658,27521555,20530,25723083,17809,98498,708609,58028684,4596,36189969,1042,2402,1298,164421810,22
528110,8853316,22065846,9767,21407792,17222,42702,519639,39566410,3765,25952464,524,4106,?,?,22
131527,72109313,50501480,15563,50532330,16891,21726,437420,88606086,2656,83468947,517,708,1429,238523729,22
97056,72405406,50865081,20078,50634261,18074,21247,448932,88409750,2504,83663401,520,666,4527,239295710,22
229831,9000756,21343804,13310,20705685,14439,78620,550857,43416805,6339,28710864,1040,7866,9417,11629307,22
82820,74231672,50762040,18512,50759744,18361,19746,432871,89283255,2476,83361464,518,668,2280,240554866,22
319346,9093768,22107527,10908,22051247,17742,46149,498894,40423608,2856,27172021,523,?,?,?,22
240803,8476798,21097001,14250,21043462,12339,55232,506487,38171731,3067,27806076,526,5551,6965,9283301,22
100803,74712864,50793082,21276,50810533,18897,29215,443226,88522970,2433,83549538,518,687,2019,239036841,22
49261,72953528,48832897,23426,49133580,20943,21312,360896,88866822,2263,81078203,128,658,3051,233402528,22
222761,7642604,22672287,9763,22600614,16209,46514,502495,41420734,3003,29530734,523,?,?,?,22
503111,8510226,21393360,9968,19826948,18378,47302,401823,38599794,3685,26862307,525,?,?,?,22
253360,9551037,21867221,9212,21839539,16843,38667,486924,39294828,3220,26908009,525,?,?,?,22
3468171,341881278,186716067,1363778,182732313,1391524,2178541,10088900,487909934,62127,299679235,7059,29543,28239,1024914689,23
2576189,114248977,64632665,876387,64344075,839223,1467241,9837647,219374798,55661,104697021,1987,4260,9218,408441504,23
2596106,317732540,196959850,943537,198397949,925494,1251359,8786115,451918112,39935,334460457,2557,9024,25285,996853464,23
3193565,108768454,72717629,777551,70637564,749637,1645658,7990268,240469643,151319,91487699,2377,6699,11694,361834334,23
2086835,107601084,63925507,1082610,72223808,858226,1361064,8975282,208380336,25860,114413641,1807,5127,9273,387263514,23
2675127,317250542,195240138,1243369,195410019,1171590,1324817,9202668,454840801,43160,329669482,2062,11765,24276,995153284,23
2776484,116875590,68668319,743025,66886875,804078,1542564,7889152,229162964,49377,100375124,2095,5252,9720,398517128,23
958765,288866313,184535244,713329,184819479,709095,62275,2883090,342036027,9095,300681017,339,2696,20009,865509473,23
2539059,114144733,67228540,974523,67145840,922505,1522439,10014735,231849599,65714,98859622,2042,17691,48679,383833321,23
3222064,291764276,208347611,884802,210728568,900073,864561,7807579,430445300,27433,340111499,2048,10416,28721,919771245,23
2556471,114923643,68231375,931968,67907648,889877,1418018,9602842,230501636,65674,100536237,2095,18413,7492,383748123,23
2313874,112294573,63907802,933338,63510105,963583,1279560,9397949,215783652,40721,106266004,1937,6112,9169,393399046,23
2426087,112473373,71547142,827904,71496279,830681,1300477,8211225,236198749,57309,101411075,1960,20463,38735,384026357,23
3563051,107269352,86204857,860733,78926826,999273,1896854,10765801,238848802,176913,95630522,2509,9857,11680,357020142,23
1598944,294428085,164234258,1182999,168000252,1104877,101689,3907171,361952251,11345,296625079,479,4184,17898,874103161,23
2181635,321363113,189809812,1461134,190454691,1360716,1067104,9149936,458624964,40836,321008340,1848,5396,23977,1002993007,23
2970087,308482493,195428754,849785,201848562,860726,1256070,8469498,449205817,40632,338634425,2604,10501,30531,986381769,23
2350178,301038502,202670390,1211697,205618570,1248865,991346,8486424,437880431,30364,331847261,1777,4945,20043,955681755,23
4184514,103668790,91288715,534377,82040873,637513,1840561,9270952,249186184,205524,93223205,3317,6858,11419,343801313,23
985766,86676900,65668840,299819,58583184,390790,83102,2916445,135192621,6583,79604353,584,2229,3158,292813653,23
2078640,108216432,69155890,923709,75542493,768131,982658,7914028,199900978,18958,113058565,1881,2711,8880,386165084,24
3825833,119418963,78511947,427736,78399969,431035,1660354,6909975,246792759,37048,108763248,7234,5844,14771,424800556,24
2117026,110771236,67197039,937336,75014526,745731,1185272,7931587,205710528,25044,114319489,1868,4413,10014,395738059,24
2568860,297020265,207819631,1004217,208200986,1004880,643998,6791606,417839366,29762,328503434,2053,6108,23366,918629882,24
3234334,116085581,96663176,570769,92498606,578306,1781152,8401173,266666099,87289,113432004,4228,14845,23797,408077660,24
2974434,107220734,85113870,655605,78258278,927687,1870475,8601253,228289387,76929,99042140,2685,15588,11423,373007346,24
2617367,310023233,214466468,829574,212596702,854128,1325940,9638266,442304174,33372,344124744,2523,5573,28875,989051609,24
2655255,113935235,78930638,2032987,78535429,2059792,856397,6394538,235645202,16929,101094708,1960,3762,8126,396305874,24
2728076,292249431,207554056,851202,207555414,858033,840787,6870912,420045883,29661,327546529,1952,4383,21701,911822152,24
2959068,109319592,87763154,679727,81115295,923561,1800063,8583144,227415777,76154,102311365,2684,5294,10117,382996280,24
3135204,106863432,90840931,513998,88808912,651528,1429694,7798900,236881218,67658,103294855,2490,14557,11314,363432697,24
2566579,289078925,209987102,881357,209194937,873954,779581,7086089,418283212,28619,327945224,1864,5791,22101,905432509,24
3295663,325266005,210637148,1117847,210030723,1033295,1332241,8484710,473808546,48177,336710674,3160,7675,25687,1010638716,24
2608370,121395879,100311906,490893,96805706,808163,2231682,9491985,276717116,73955,124931397,2682,9994,11568,424069741,24
2472176,288500304,208497943,848397,208392753,848263,754481,6769255,416541598,32056,327531416,1858,5391,19367,914458714,24
3079275,287844703,207172783,841149,207323037,841798,663422,6768667,411698407,30309,326079896,2051,5745,26014,902314069,24
12085153,232535267,179358106,8271981,180002028,8299060,9203644,27567314,1014853734,1015579,238386065,8737,18280,53532,787203764,24
2438041,292845864,207894041,845588,208290058,848563,768632,6818814,420379486,29182,329291093,1856,6420,23056,929147826,24
3206604,128048952,86474793,551217,86802467,554842,3072340,8073857,280731796,276183,125989289,3992,19231,23467,462469070,24
2103279,110520393,67516644,1219478,71872047,933656,1192193,8244418,204486742,21050,113254058,1978,3410,11587,392964013,24
3358518,311447927,212143167,1440341,220635417,1253104,1224411,9505857,471250796,34895,360735453,2834,7686,29191,1006057580,25
3008646,141186044,70804907,601929,70535632,678304,1372353,10007024,240869000,79941,112612118,2218,3004,8494,478756451,25
3072567,301435625,228751181,831328,228313156,836749,959750,8344499,465695983,30761,348898366,2233,7439,29439,954537823,25
5540548,322524593,238899584,1042181,241735335,992890,1768090,9436071,560810513,76271,364602126,13662,19156,95747,1055792957,25
4280285,305702468,216004988,851822,212200792,885543,1031784,8598248,440619824,32279,340344167,1873,6030,24478,940764471,25
2456199,137925182,71403345,610561,71065207,744662,1526571,10517613,240395989,70768,124451357,2530,3349,9123,487465419,25
3173793,329289811,206514560,1471093,206820080,1502756,1933155,12535900,487766013,73012,351965049,3133,7425,30277,1074911102,25
2879354,348126084,201159841,1388822,200923923,1495356,2225973,12094932,499708830,196631,335700765,3030,8659,23762,1083006917,25
3750349,141739669,74316555,514148,74130625,572430,1285296,8302208,253406786,68884,101993744,3200,4407,9460,464213670,25
13793535,170578460,113183726,5513737,112139858,5586636,8308521,34993408,851562880,1074995,174782324,4853,12313,30515,601645525,25
4415170,90862902,113349831,540626,107814476,556637,2111113,9651584,284424532,106482,121588883,4665,14430,46673,342053694,25
3152980,305168272,230381713,900861,230329551,892818,699183,7939061,472389409,32540,349547986,2430,8517,32564,968322064,25
5159837,104702484,103438296,541621,99761980,541121,2577855,10010938,283593913,149872,111948720,4597,6752,26819,359923595,25
2851464,132782027,88355858,809664,81119554,934176,2118294,11702278,247978508,181481,119280184,2520,5185,13043,463959033,25
5315192,346455839,230641463,1242334,242730941,1277517,2588185,18055084,578012791,125873,379313152,4543,8988,34013,1129889472,25
2660155,114630378,69785197,1091544,79874813,858967,1079393,8825557,224165581,32145,137928517,1880,4045,8461,424923475,25
4043478,104746731,137187281,504106,129383938,541644,1966470,9216369,288861418,107498,116859985,2997,18210,19571,440342310,25
4707977,104093548,119882428,527439,106324082,527605,2551374,9825705,291035471,153192,110426975,4413,7675,28660,368506992,25
11140369,195158568,186175504,12190392,179452768,12609862,2855536,26516224,919547873,327725,199437770,4844,12445,31364,718285869,25
13265195,156233812,95839318,2841767,95172372,2876531,2245597,41934016,398652997,239816,162922597,2432,4704,10500,565014495,25
1972890,104115404,77073577,351087,75196664,385211,1137665,7002222,194985469,16010,107334008,2451,3518,10673,365370265,26
2284724,101403265,76555808,449795,75081940,466332,1553264,7602471,205116828,52095,101373444,2269,6256,16159,359754310,26
2320248,104806098,77705336,466905,75649807,453603,1716634,7683320,210188647,53518,102982037,2913,5612,15112,370943504,26
2471195,295750425,200128168,872744,199018335,876742,530675,6284914,397592080,28444,313387249,1851,6467,18094,902520408,26
2208150,310319226,196417385,1107846,198664543,1125448,1025101,7122294,429720219,56991,317962430,2484,10640,27115,939309003,26
10767450,358680247,245451979,6482486,244588153,6547585,8534071,26852678,1052573762,1220693,357047329,6972,18055,52488,1109421705,26
1968250,90513136,89418411,381770,88328270,406410,905972,6905022,197207990,15609,95625989,1937,8431,6875,412560077,26
1955243,99439028,76267628,387094,76943827,417127,883759,6651771,189003389,15497,106773713,2062,2341,9855,353209441,26
712843,44669650,25576390,82220,29795537,91524,343427,1061755,77433335,3051,58954033,2949,1418,4835,163308746,26
4224646,102009949,83340328,851138,80220979,789659,2174586,12235558,278395622,172741,106551110,4041,7156,27280,356209736,26
3305161,127282816,72525959,638156,71689467,747854,1453298,9754084,243533212,75788,106190214,2802,4748,12270,429291434,26
2436368,299011194,198703201,862828,198816204,865681,606445,6302775,401075736,24652,314721331,1857,5707,21805,907703341,26
2462415,294409316,199548167,866493,199300173,870042,570110,6390470,403186449,29803,314076194,2073,9135,33347,902403911,26
2266134,101475068,73570621,435788,73053312,464616,1598014,7509812,206410543,46484,103269346,2469,4835,12994,364228345,26
4123216,320851751,210200339,982291,206217071,950884,3066227,12748106,544357679,247247,301995873,2935,10984,34361,959962217,26
2302853,103371430,75925357,475433,74302809,464329,1621886,7469278,206196616,54281,101633833,2657,6294,16774,367334282,26
2206907,309848831,198641660,1147811,199674939,1155238,927698,6935471,426396886,54774,317239354,2261,9271,23430,935454984,26
2839042,271762847,190784286,962348,190365328,966755,918199,6855481,393779939,66658,285822349,2645,8724,19186,842171900,26
2199046,112205564,62919617,690156,62674266,921244,1375792,9836453,215128828,43295,102732937,2053,4340,11585,392390308,26
3690184,116124015,80927125,509424,80361337,505101,1800008,7191983,255758688,76337,116060727,8089,11427,36090,423463922,26
1753581,134642416,137356460,282437,132179121,292661,1240066,5856119,285443773,42615,167695672,2240,10921,14367,510787067,27
1717091,137066704,136063610,279403,131135469,297265,1182211,5948287,283948500,39760,166928066,2243,4093,11601,511387814,27
1377159,544917369,339856621,2167275,339990898,2179637,537100,5550472,665646255,27644,539673137,1822,14104,28209,1658321826,27
1507993,541852757,321022681,2509868,321234897,2514338,999732,6343963,669439595,40872,523152235,2235,9546,33268,1644106833,27
1577180,545019992,319944154,2418488,324159162,2462361,1241822,7047438,673351674,39800,525747685,2237,11650,26765,1630394156,27
1777519,143412175,140109467,266937,137948508,275565,1158012,5894942,293434534,42966,179120219,2245,8772,14087,530672763,27
2896289,158090453,121645279,2091903,126835066,1596937,1401466,5199448,318142302,45956,205290059,4143,13095,33559,624733248,27
1888396,530304357,316663895,2002944,326558469,1625749,458765,5001393,638540649,22902,544336453,1822,13558,32851,1627198218,27
1552361,132966480,134061732,256992,129730176,276547,817367,5575414,277861083,24318,167043387,1831,6465,11352,501362366,27
1532367,132755400,133995346,279540,129068146,297207,1025147,5858864,280880117,19769,164407277,1837,4405,9490,502831653,27
1747487,139842652,139326506,287755,137240784,292285,1148603,5815330,292841305,41883,177282020,2241,9007,19140,524655723,27
1830672,539404342,318012006,2391159,318019518,2288058,621430,5529636,643600160,26033,534728791,1822,12255,26197,1636549841,27
1839584,138340235,122641402,291707,120819912,312770,1301790,6191741,278341819,41178,163738015,2244,7153,14598,493504101,27
1796193,137102711,140385473,276597,138542329,283723,1093526,5741888,291844022,41922,174298347,2242,8113,14222,517718238,27
1729511,133435820,139746366,288249,134763551,290659,1253852,5913756,286579217,42273,167384733,2287,5433,17162,504177251,27
1691189,138278001,141607472,284135,137531023,295158,1235719,5984748,291644246,45068,166579089,2240,6999,17682,504140180,27
2100981,140162651,138493937,502726,141480638,433967,715795,4846243,303235158,42123,185157470,2437,8546,21272,526494451,27
1524961,539052929,320025486,2586194,320007272,2596642,1012978,6348882,675184520,38957,516238086,2237,14574,25414,1620005717,27
1742185,136929168,139100195,277627,133203744,285614,1284476,5879320,290440801,44553,170451902,2444,5511,13704,520117209,27
1844358,537083595,321983292,2193457,321831466,2199672,962627,6104079,658592970,38869,533663024,2260,9965,32982,1665243174,27
6162361,489329341,541394405,770449,543969380,787630,154076,17446800,853164643,116546,520882664,637,106094,523761,2055700670,28
14833398,419671727,321474725,806359,330151746,806865,117126,38029542,592886855,109574,473683962,635,432547,5013,1086544852,28
15228407,418846656,177597293,631264,180225828,633806,120025,37382532,601290848,104909,491303777,634,104554,5016,1373642276,28
7130922,229351164,264708274,714495,265146600,701459,38563,15232143,469307590,112890,231466404,630,293059,311350,1031785892,28
7113313,461238366,404946845,998667,405609559,998556,49152,13854562,726825818,122547,441308652,625,317254,228421,1719723090,28
723140,298581835,411260450,1024065,411947693,1025128,45772,2347037,562794618,14035,310396891,645,4610,3674,1199275929,28
16201102,420165074,167871198,408445,167423736,408194,119132,36236979,410555348,10809,437605957,1547,2953,3270,1460357040,28
15090117,430179511,181565067,637764,183466195,632539,95028,37263365,673744367,112781,460802402,624,334062,364854,1462287509,28
6257950,288235852,398950616,530071,394611680,532817,55271,14450994,580074614,15357,286408013,628,4962,3850,1333942169,28
14660938,495286746,360735745,847398,367087609,844556,137086,38564987,682710436,113008,556744928,625,317503,314551,1323654788,28
17425494,534840408,343220327,776104,343788458,773392,477368,39328220,800039933,124546,527533017,1120,311055,185827,1504101231,28
7137351,357501849,347097959,696485,347517272,696296,53380,12933574,401234018,10504,343636642,631,3101,3700,1422146881,28
258028397,520701081,205831776,705052,216647670,703631,128663,81902099,1149945571,125784,557434601,1080,106324,212191,1877364202,28
140050605,439604238,136050852,442527,141457666,463679,430479,76897429,1157722416,30330,436115481,2094,7612,4446,1732476803,28
16433375,425886770,163836558,390832,163837105,391782,91577,32297979,398633939,10331,428591349,634,3479,3353,1440508662,28
17177324,553021542,286649721,513622,286559879,519713,36765,33263615,469412528,13706,553701326,631,4489,3110,1322549256,28
16213727,524319709,222078114,784419,221155586,738734,189670,34915257,736148434,122783,525231369,623,398062,357606,1724416726,28
16275277,420820651,163587616,398910,163292429,394370,61513,32529368,401450183,9725,428116722,630,3087,3379,1436765573,28
6878769,281840817,235639447,370002,236618890,370012,44464,13599047,397636770,10107,290185961,1126,3571,3134,1089929578,28
16662101,586340888,294684794,748157,294691924,749250,55365,33550014,713032942,124492,568654208,630,109742,6133,1273578664,28
1139208,86145741,55243518,41795,55273385,41002,833430,2224836,140143378,31278,66251243,7465,8813,25764,247514460,29
392612,78262856,45362724,23709,43987841,25216,95064,655050,92106004,10446,69661957,1958,2933,3402,282171503,29
305964,112971516,77940854,43017,75222112,39014,350710,1516277,156935867,18953,124015428,2600,3986,5847,395642020,29
375005,76459309,44066306,24091,43134403,23769,96800,712583,89809187,10126,73442441,2055,1876,3813,280163582,29
1004789,139618357,111836368,54002,103994849,59007,1077050,2720400,198966629,27265,144181454,3483,4651,25555,487907056,29
484184,117646634,70731031,38215,75558229,34659,470181,1730499,162099156,8530,130919267,2598,3459,8229,405896323,29
405578,118253310,78532754,33765,78938819,31550,264864,1321293,157305346,5797,127663996,1950,2232,11046,390091939,29
372631,73664405,43169357,33383,45341552,31861,188562,898323,95569718,19128,70787725,2605,2857,2317,270658717,29
479547,111626100,78247829,36783,79051868,35107,93032,874207,156065716,7781,125986428,1951,2697,7512,384768743,29
400259,115725541,80833203,34927,80337356,33789,301542,1375952,156960289,8360,125601488,1952,2731,8152,396103465,29
357008,76826222,43976947,24362,45003944,24269,106503,652513,90466509,10029,75859998,1958,1594,1433,284434453,29
1317957,135376677,98559301,269581,99180172,268192,929715,2503440,210996250,17929,147657392,3871,9728,40952,451281881,29
570684,73742813,45283599,28606,42486375,30688,194616,845358,95783784,18752,63852678,2996,4740,26612,257458269,29
1091048,69715083,69929049,32359,70613834,31877,844584,2115208,130463810,14605,87090719,3489,7308,27205,278369973,29
395448,113943012,79430105,37242,79597074,36425,83867,752444,154129481,5641,125495861,1950,2692,8593,386025385,29
1166004,75132045,72958758,53815,73876156,46449,499597,1461855,142759921,14351,103175091,3686,5686,21060,323504320,29
351854,76504757,45515835,22097,44220284,25168,109121,806835,90915521,10325,72402485,1956,4211,6175,276233982,29
148850,70922053,44465185,23509,42977277,23729,87730,935678,88800378,8789,73303141,1956,3055,1231,279113763,29
464519,113548576,79380534,35330,79563004,35727,73488,738641,156412832,5258,125146110,2087,2263,8120,382808933,29
1021527,72110378,71010331,32314,71032151,34655,902435,2143337,130925888,17238,85456670,3489,7069,27878,282902955,29
3944904,243362225,178022785,3957763,178271771,3972279,969783,8984534,480706692,72429,256482066,2573,7888,8232,933754727,30
12062980,408454565,229236122,7305851,239140128,7388914,3136078,24437489,779778261,398191,420795397,3650,14031,5642,1398817318,30
5471063,733184334,468082975,4798176,468198811,4799602,1580774,12949544,1203040949,222631,758303423,2567,110134,44797,2337326400,30
4887578,28500135,55846288,2885036,46807948,3161038,1111607,8808772,181708985,22956,29580584,1821,1304,655,192475770,30
13758585,792955985,490084545,5606380,491424668,5620841,4230315,28368948,1395552527,749521,813917978,3983,112657,29046,2611563242,30
4837534,763628499,444720633,4952203,454708626,4982759,1765741,12536372,1223956969,195255,770882402,3647,114809,29201,2368800542,30
5931518,225439053,154501955,3990042,153938228,3927082,1099312,11738009,607887577,151777,230415246,1699,103427,7929,772537356,30
6977087,295080970,172057841,3592594,163879191,3504587,3336644,14945712,532919732,145972,275808807,5996,8602,6765,1004542466,30
4333966,260236749,174093454,3735925,174532717,3772294,1809962,10426733,702146545,193059,269236298,4043,113142,132933,936683863,30
8875143,246254181,184378061,5072014,184337712,5074870,745068,14738686,502671102,34003,248724563,2278,5588,26651,968679391,30
10567173,252287017,158538769,2201321,158609278,2198321,3234023,18066679,504042189,357461,263801205,7821,9104,4886,942767400,30
14411758,217191654,204274898,2601148,200729023,2650728,4643740,25934888,576305594,1344042,218741378,3405,20093,22825,970661789,30
4412937,743151456,437200303,4811140,446681106,4820191,1594695,11599802,1183802373,195335,742421528,3450,112323,44611,2318203588,30
4140447,234629014,163298795,3819777,164014483,3857210,1625494,9648442,489062494,74772,250076498,3653,5852,5187,895252205,30
10378320,333719911,190755682,3274804,192683543,3387143,5202004,21594999,592847704,498064,347037474,6389,5646,7654,1175902925,30
12803608,259896095,181106285,3895878,182559188,3922186,3789468,24690201,565048879,490173,277420409,3403,6605,6642,990667391,30
12112851,267886431,196951699,3409694,197215363,3449038,7891220,26440228,680018590,3555483,261246513,6666,13854,37943,1162256182,30
7176089,753401910,511355724,2131214,511075881,2131441,156263,15696623,1212106686,131284,773715628,357,106059,86997,2739624619,30
3849420,701274332,448949825,4820026,448696675,4831015,763940,10225923,1194899862,160898,724360090,2569,116435,30711,2232395553,30
4548936,273741572,190504315,4018284,190867638,4024708,1414772,10417321,728646154,211377,285872141,2571,107671,10793,1033199052,30
159161,13553565,52227446,6356046,52413598,6407566,19681,1628674,476518972,12097,11505887,129,3687,2236,204728564,31
48251,15242184,5592641,76461,5730297,72486,33041,563043,111801739,5001,14840557,129,704,294,55515689,31
289654,449417222,313348107,7324767,313483846,7316221,113291,3554012,975655687,27056,453304398,135,6319,3656,2072875484,31
135333,13529793,58997343,7241913,58739540,7198072,70120,1806604,494399712,13391,11658066,133,3699,1338,213669661,31
177771,13945159,56220685,6496171,56138053,6451634,30586,1524408,474934660,11758,11665592,1111,3805,1715,280535010,31
188339,14343780,57368879,6933468,57537414,6977601,95738,2063764,513559318,14789,11889989,134,3838,1375,265197560,31
169263,14313052,57505588,7110791,57412357,7067012,37079,1663440,501665989,13071,11651716,134,3381,1668,201747372,31
163207,14394533,59306669,7357659,59118848,7332068,17308,1553162,486881366,12100,11484872,129,2958,1014,214495622,31
184541,14357793,57219546,7178683,57348295,7147641,51117,1934668,545753437,15662,12274914,134,4213,2396,270721519,31
185575,14747819,46387389,6504211,46410457,6399991,125333,2205044,534993104,15791,13284396,135,4012,1470,162574559,31
90018,36895165,16901635,99358,16859600,97940,12867,462039,131788040,4995,37238018,129,2070,1610,148591834,31
179447,13531836,58277795,7032163,58086797,7018022,20250,1805113,540222967,15965,12155260,133,4669,2794,212512855,31
178745,14430012,57516184,7096888,57351440,7120450,19794,1635891,507347102,12356,11452748,135,4096,1501,214675254,31
1605577,13146936,31757732,78951,32427867,70818,918771,3675795,104220308,37814,54386465,6148,10745,46324,83109302,31
207692,5935768,5062352,33466,4967897,33335,11162,276968,45808138,2608,9235371,133,3154,13978,56009619,31
180716,14815037,45830395,6495624,45701099,6507630,50351,1943812,544324847,15519,13189193,130,4126,2294,215360170,31
208922,13777740,47056469,6676891,46241281,6665863,89641,2035313,527126511,15987,12228905,134,4243,2826,229763098,31
144811,12720725,46751640,7085194,46759385,7062521,63739,1896325,520796606,15360,12107517,133,3593,1125,155976835,31
163232,14314533,57929105,7017756,57905399,6987227,47366,1891476,527470940,14940,12082078,129,3510,1063,269545277,31
469706,11236842,4971605,55441,5002350,55302,8625,280727,47871423,2878,11883737,133,2698,6334,32252795,31
