@relation problema
@attribute 'L1-dcache-load-misses' real
@attribute 'L1-dcache-loads' real
@attribute 'branch-instructions' real
@attribute 'branch-load-misses' real
@attribute 'branch-loads' real
@attribute 'branch-misses' real
@attribute 'cache-misses' real
@attribute 'cache-references' real
@attribute 'cpu-cycles' real
@attribute 'dTLB-load-misses' real
@attribute 'dTLB-loads' real
@attribute 'page-faults' real
@attribute 'iTLB-load-misses' real
@attribute 'iTLB-loads' real
@attribute 'instructions' real
@attribute 'class' {0,1,2,3,4,5,6,7,8,9,10,11,12,13,14,15,16,17,18,19,20,21,22,23,24,25,26,27,28,29,30,31}
@data
208503,249108155,155183760,602025,155655732,602303,55084,1801962,498919389,114903,252518849,130,105228,156842,768840187,0
173486,91673838,62802935,388973,62972930,391152,53917,1241719,342351087,112626,94640057,134,105670,213355,327475189,0
232112,248206116,154476662,644047,154803189,639308,75585,1925998,503472846,115578,251824715,129,309380,323954,770177916,0
214433,246029762,154747383,647296,155252182,644054,81347,1952565,508033390,115386,249966907,131,309181,349488,768279489,0
216432,244828115,154331522,769047,155042045,766814,81865,1979562,512394816,115368,249666279,130,308767,370257,765729698,0
225474,245839898,154633231,560417,154846476,558823,52288,1762009,504389801,114248,248669719,129,308293,408161,766358535,0
245660,248632101,153322184,725837,154128629,719229,80929,1985850,510639013,114703,251392722,129,410688,391949,767561094,0
216139,249269374,154477505,638592,155529490,643645,85802,1791434,498152747,114923,252482909,128,296518,114232,769499606,0
227387,94195248,62614230,392958,62811894,398683,95760,1324788,336520288,111713,95241416,136,515626,5922,328309884,0
298250,248584236,156259140,627198,155988861,621558,85464,1933821,507451478,114690,251287745,129,308537,403599,767313901,0
174493,90296472,61402072,394776,61366455,392645,49021,1263739,342144863,111022,90928747,133,308389,410393,316079490,0
227199,248804464,156257001,661146,156277525,658635,64528,1813046,502435520,115120,252445020,129,105028,8614,769213290,0
205951,249499132,155909023,644425,155866644,637823,84042,1841272,498989056,114444,251526536,129,309035,201862,768109231,0
238004,92332751,62454546,396145,62444630,395098,72920,1308723,339839185,112413,93588056,133,308685,280532,320925053,0
141296,63163640,48679801,161557,48606582,159566,43506,444988,95069227,3673,70806570,137,2371,3215,245668455,0
273467,247963217,156246603,647518,156072340,647308,58313,1833145,509180661,115655,252031368,129,411517,363954,766939831,0
230677,245484405,153775804,722918,154595804,717906,75699,2048169,515271830,115514,249209709,129,588841,382580,768694269,0
157122,63631882,48395292,109303,48422195,107830,43200,452311,97464181,3034,70667644,134,2192,4099,247868847,0
225954,247385097,155298030,653739,155665197,648328,98360,2012042,509177413,114866,252060275,129,105074,408834,767866059,0
280312,248736620,155390267,624537,155744969,626453,58679,1879933,504049753,114949,252223878,130,309462,342164,768498922,0
375329,4301130,210132891,237241,210160985,235717,65973,4767611,1429919435,37807,3013962,133,10129,3651,1971255121,1
130524,3200692,2105285,32085,2055599,29924,11938,607079,175945306,4317,347745,128,1069,348,136989745,1
193124,4020145,2394684,83794,2554509,81748,44275,1576751,430793533,10819,992161,133,2893,1271,59909068,1
115744,5218748,5679254,125595,5373391,118591,51317,1123514,273889733,8641,2288364,129,1672,636,49604290,1
429771,35601006,123055251,347518,123507643,339527,329074,5667613,1576845499,37659,33630726,132,9660,4783,1217392230,1
84722,3380217,2240870,35591,2193022,36303,21122,659056,179432081,4471,376288,132,1272,355,110134627,1
127065,4130766,4060231,547875,3997851,553925,14950,297178,73035286,1881,163412,134,721,1102,82215526,1
60832,1803034,2383981,47216,2265315,41687,41968,728460,179632820,4783,373999,133,1147,556,118857137,1
54564,2496423,2200116,33315,2122168,33414,18363,628782,173407747,4196,332833,127,1063,523,103610877,1
373444,9763956,696968,12770,674140,13881,10492,315718,49709571,3155,9170380,134,2653,5137,40783047,1
681344,8979010,6465113,44192,8128973,43651,539414,1919409,114402340,15951,15082405,3859,6290,18562,121000894,1
75371,3185479,2024961,30419,2174106,32545,18831,604221,176190901,4513,470155,133,1121,342,133220171,1
230308,4649495,2640355,121592,2708394,124645,41242,2426292,736286855,18352,1394360,132,4396,1389,98816299,1
59558,1696431,3107076,61380,2749658,52130,53746,868364,186415191,4574,361263,130,1150,397,128413733,1
56129,1685016,2043898,34066,2025454,33489,8427,632123,179137808,4586,344071,129,1102,537,110310428,1
517663,6253817,210665493,249709,210708168,246288,52694,5000413,1543727249,39104,3893615,327,11304,3819,2221339672,1
174073,2705518,2733711,107700,2637433,104455,35815,2144368,664925024,15517,1116067,133,4081,1222,96363782,1
54187,2704379,2003875,32198,2024496,31223,7812,614954,174376782,4255,334595,133,1068,466,133483031,1
52158,3299976,5703765,39072,4962437,33540,25310,549215,106319856,2659,199173,133,665,212,80969369,1
33838,1925770,3155834,60768,3678458,122137,16525,342341,89139117,2436,205169,129,674,179,141986473,1
1074149,169887832,141615158,100875,137640186,907271,85182,1523411,247563338,6788,183123224,911,1767,3997,528037121,2
342245,73708571,51971901,1834821,51291707,1833944,32993,956286,133208540,4935,72657112,524,2603,2784,308275109,2
467141,72145378,46144139,2002586,46619011,1939785,94985,1714933,128839929,6161,78969353,915,2875,2293,310678423,2
1118882,163632609,142884420,117099,143124934,117078,121981,1662467,261191763,12390,202511018,1906,4097,19003,531555765,2
202225,80617654,47620279,2023374,47345012,2009269,33309,1143725,129855138,5677,73059788,525,2741,2745,314454289,2
445691,164656594,144181225,102883,137518117,943604,115316,1310033,254065773,8190,179932225,523,2413,11132,520679143,2
486072,166949952,140805468,99125,140855447,571677,80877,1240124,246126079,7029,185482720,517,2014,11521,522169546,2
7687258,108265163,109732475,662424,108935111,658135,1233327,7140471,329126682,112648,133853215,2868,5944,23940,370696123,2
1079331,75402453,45929624,2355476,48541790,2286988,221626,1981979,149200382,8281,68382599,3088,5401,8813,275057482,2
8490058,121540371,105332512,2742364,101460128,2814867,759736,6189195,356980334,50887,130599849,2870,6403,16034,411344311,2
628744,169522700,141611572,100212,134339336,1091499,65909,1166904,247106686,6373,178010194,517,2217,9649,531698642,2
887473,168354825,141714914,111259,142240035,208606,109763,1471237,250281811,6633,193865802,911,2242,6803,538121397,2
6459804,99015892,92626720,578298,97166854,591168,1049105,6926517,323693882,135456,119775893,2672,3773,19686,346074242,2
923795,75674722,48181336,2049154,46623473,2003107,149381,1717610,145879728,7252,63919842,1915,6965,10589,265275338,2
182736,79216364,46256327,2003214,46514663,1985989,59673,1198325,127717602,5488,75143919,527,2385,1755,315270045,2
452044,166245782,142875489,107827,137060524,900755,103504,1240815,250441791,7055,180037487,521,2683,10292,522646281,2
1066461,168131778,138607996,105130,133935551,932355,153450,1492851,246517289,8059,178364202,909,2495,9870,519272975,2
375617,76105709,51805536,1828349,51287242,1830784,43304,879324,134535170,5297,71633253,522,2435,2762,307716078,2
1411105,76881961,50430065,3768369,49535259,3770501,90474,3695361,211069210,10054,67724497,1012,4640,7181,321144986,2
192365,118450000,62747422,2554129,57960973,2808057,32637,1495888,168511991,4347,91009214,529,1289,1187,378466679,2
4751988,157348687,105888168,853580,105277995,846012,1630286,10219692,381949013,204831,150091872,2480,5649,22040,514741276,3
5022300,198108325,136204948,1290416,136024575,1307626,1417531,11746519,892303997,424216,200826753,2476,285023,119371,663221256,3
4872843,410183140,256350579,1532450,257014152,1540372,1834665,13349279,1108380981,440239,407027408,2473,212999,41298,1257353760,3
4736938,406062947,259179385,1546982,258248232,1540929,1826881,13677795,1110433319,412166,405183172,2475,627730,67024,1264475768,3
4701223,159892336,105234258,838808,104521604,829405,1681888,10307534,377682221,189004,153502424,2480,6807,20535,529730767,3
4753298,411376377,260113300,1555144,259517517,1549327,1858449,13357787,1108457819,404721,413049096,2474,838154,43258,1272268691,3
4833942,165683133,102403349,849808,101915263,843029,1776689,10618993,384746673,217834,147852913,2870,5957,24218,528985747,3
4787811,136123490,115349844,844234,114506046,838425,1698068,10601977,390966086,213192,131480373,2475,9215,20044,530246081,3
4962019,199870395,136905032,1328894,137079140,1342331,1856394,12364125,888154615,429981,201731505,2477,201404,25907,667580417,3
4775549,187019203,129521968,1295300,129520567,1277777,1414525,11323837,850504510,341602,192294222,2476,225188,125248,633491116,3
5121306,341062690,230962526,1023935,234761658,1004753,1364215,10960622,604125083,125151,384500257,2928,8673,38482,1079337571,3
4824083,414324304,260623034,1543383,259986012,1541422,1852368,13315043,1108316932,414296,411609112,2680,219957,37533,1274613854,3
5037772,398259734,274055762,3357471,273460964,3358122,2109848,14311393,1185086440,401239,406829695,2475,1966746,30127,1253523227,3
4750477,157160628,105385077,849896,104805866,842874,1679787,10152469,381103479,209311,149941465,2478,6632,21853,516521191,3
4977988,199150252,137364155,1341269,136893751,1336322,1930196,12364599,884371727,431365,200713559,2479,200551,26178,664790629,3
4895315,119770341,99154156,780542,100646520,775539,1348034,9633413,361094640,117878,155520510,2480,3938,22976,441779069,3
4226568,140689280,103097088,724235,102697700,717413,707524,8526450,335002162,94760,147794723,2478,5250,15468,473225855,3
4833928,404900841,259548529,1555913,258751025,1550411,1830508,13494214,1112249601,426762,402530837,2472,212528,41243,1253632968,3
4742459,157669879,104808962,849673,104023752,843881,1661196,10295615,381156217,196824,148917533,2480,5285,21296,510189161,3
5275074,197519273,137113813,1218246,136457727,1209796,770704,10928763,904995756,370533,201348111,2478,201210,512429,659847518,3
4524764,150779781,110658202,565457,116397521,592295,5122279,12444196,447880860,490898,144868372,9038,11058,53193,513013920,4
5570558,343426822,228786472,1487019,228508124,1667386,7663538,16361995,722430872,639463,371553089,7549,44452,53777,1089796319,4
3723369,128739128,88825603,938189,88811767,914547,5264142,12202978,388194485,398655,133564092,5954,9699,39522,477714468,4
6193251,135886176,86812258,821681,88288705,1044604,6705912,14856998,494636265,732304,124857617,5602,72311,22110,461694053,4
6189572,130202708,90347046,1277056,88102408,1122189,7906633,17073652,486795449,783292,126257341,5125,41165,23682,471556169,4
4420514,141751481,111120929,668113,107290532,685334,4426372,10439376,419887773,428982,150273035,6570,7763,34920,533697146,4
3506409,123439026,88744151,1057520,93261688,877327,5378274,12482248,387336008,395489,133995683,5954,8484,41250,466399390,4
5821990,342636348,234629335,869988,242183898,886319,4735352,13186754,662540699,480924,382643691,8188,13245,74028,1094945897,4
5261290,150163230,113492417,675869,113262195,660244,6406918,14335086,476953426,638919,153307078,7999,9350,38007,542172260,4
4219095,125528394,88273230,1010689,88216884,973085,5463208,14690635,392113345,469675,135015301,6196,9027,42576,477492226,4
8723175,170732712,141634803,829109,142361052,824676,9085523,20844678,746268937,968371,193445561,13186,16354,99051,652987033,4
4539607,119970221,91883455,720750,91266633,713329,4170112,11570709,427619981,635852,121842321,3258,4952,13768,428490404,4
5534165,339829598,217915203,1640026,223134758,1423317,7015011,17525579,705200586,636605,364654771,6184,12118,59839,1081126702,4
4319690,318958880,228278482,785399,231952843,789378,3292870,9234427,595076119,413323,356803034,5330,13203,55383,999083890,4
4813401,330606263,221593167,880955,221087891,875877,3935122,11981702,634652083,511556,357261540,2869,8559,29122,1058716536,4
5321699,128163818,89937756,1217091,87532276,1350758,7375674,16045395,472482919,683487,132904126,4995,7601,25228,467950825,4
6400813,130705811,97504095,779001,94831740,783689,7280634,15883432,512847932,736371,130567697,7555,113635,50105,458374948,4
5038241,124468959,90622197,680141,90699679,676611,4286471,13251102,428375918,628636,123558326,3071,4958,16065,435779154,4
4086445,373615627,239269126,988733,248420097,1033694,5020634,12949476,684302216,431484,414181905,7376,12493,71579,1229314239,4
6485781,126888073,104236269,1145069,94890743,958592,6590696,15777568,498369948,736355,124639275,6580,127621,37283,457139878,4
6632016,179300073,108532500,1297713,107210971,1445203,9982437,21964028,611205285,957662,142131841,5779,50459,39200,588754800,5
5916467,383885550,244046724,1245194,243315889,1265092,7810321,18925091,766957744,673134,417456475,6425,22912,46696,1257880842,5
8964612,404701339,242845214,1653536,247603303,1494400,9717467,30161275,933619714,1072255,421062658,6491,11649,49304,1328370906,5
8839089,150110463,142850879,873855,141398609,915949,8304771,19161404,649273422,883693,186860754,8148,164834,45552,553776088,5
11054451,364337471,277171700,1296722,275356874,1204215,8413774,21495036,911225225,965340,423102187,7161,116938,74611,1184724487,5
6563069,385292168,250706813,1180391,248026347,1092700,8954645,24206471,783298102,798026,385276113,6619,88240,50958,1229717007,5
6583673,174432861,110712222,964707,110812393,1001524,8242358,20915647,539065501,761067,146086775,7062,74021,59551,595003332,5
8262537,151363841,140137477,772145,135004154,747708,6954235,17873540,554869136,830798,159445848,7654,105632,31222,509073900,5
7093196,179864489,111870982,1267906,111316830,1116603,9755888,22871961,616880886,905852,146317174,6582,173385,30006,605732893,5
9007210,146367778,153572857,816912,151304283,862817,6751053,17005549,571152045,740941,155379112,7645,97680,57500,615952757,5
6396302,204877970,120617137,1257327,119295222,1131570,9211933,21637263,599135402,850097,194324179,8963,13925,71931,809622557,5
5924788,168327945,105961900,1229060,102886818,1341921,8182326,21199464,600972441,924729,161091260,4158,15237,20589,679255000,5
6233351,372604121,244906933,1452135,257140948,1276223,6867321,16117856,761884771,632943,419035016,6425,22781,55848,1233815034,5
6395765,386997019,255666462,1118296,251719593,1160350,8233558,19353463,793136898,819005,383146013,7450,73907,62617,1218557768,5
10981624,149469705,128195904,813451,130484884,823246,11879969,23572420,737652282,1375998,188090529,8146,99690,32928,566707529,5
12986154,475599603,338904698,3818048,338328993,3862232,11289421,30023351,1227008547,1031092,512040359,13037,50737,92633,1624370202,5
8725740,263735421,227740030,787015,215976755,783652,13293635,25786109,775629040,926596,263196885,18232,110751,117558,1046929005,5
8366045,158071483,137187673,1019514,128539728,1132989,9082677,20653970,635087041,896907,156968366,7363,108498,40242,531427547,5
7637917,239215688,135396701,783526,143656498,844373,10965705,24890150,700764658,803154,207348414,15649,92783,105388,861398812,5
6161981,171315312,116226462,718281,112541494,762579,8487987,21032299,541450178,848485,144599801,6584,92518,37266,576660868,5
7740104,697703808,438472800,2417594,436638644,2199703,4670075,21153487,905745446,240203,679428981,5599,17278,46183,2106572144,6
2017947,647556822,424311099,3046392,411776022,3591713,1174842,6568206,786596216,37541,605815798,4793,20225,29090,1892025280,6
20774729,326232374,238991043,2311118,239221315,2275136,20319297,45224725,1554479691,2764199,323133199,18076,33512,103194,1133505113,6
5913396,213591220,150856165,2887588,151097256,2866602,2868222,10999865,408754074,108874,211824627,3261,5068,6105,740816001,6
935045,160876671,133893355,1692522,127499308,2275163,334329,2534281,286908682,13251,152739294,1498,5009,7593,521357255,6
815499,650324753,396806881,2774002,399935352,2801570,360935,3998144,754053653,23722,666858353,1876,8114,29996,1911188039,6
15369831,278416690,222425921,9204898,222491289,9220075,16250117,41666987,1382319304,1893354,287279936,11664,21629,73209,947295940,6
1518280,163779063,147099582,1702513,141936615,2285883,274698,2772042,307426368,21885,148747319,1893,11603,18328,539161786,6
7416421,181530132,187393377,10107131,190916797,10211514,1419321,15356370,618757738,26945,197885506,4808,8934,13725,765230286,6
1036520,650506303,404438181,2619372,407606985,2638623,313024,4306858,752102453,20706,661622466,2721,6123,28167,1933355943,6
1710719,166988436,141523394,1060596,146475233,747871,607541,4557391,286580808,12783,177064910,1696,5287,3778,557067430,6
17392474,352489718,264433371,12049187,270555044,12298313,16709926,37932904,1419026572,2149285,372811439,9548,31236,67909,1159024711,6
1549930,165568980,146125708,1757900,140417697,2326007,481158,3357453,297218037,12993,148401914,1697,4877,4681,539780448,6
3509878,192141282,144137134,1527524,146086512,1548056,1387165,4554732,360240427,26029,234596697,6357,9310,34461,638531661,6
9083907,701044319,463558136,3170807,464199583,3151542,496077,5317201,963388311,34334,688092630,3840,14593,61010,2175666389,6
21516863,322205992,262174392,5516588,260410869,5761586,2022933,8873124,970345970,57074,333733287,7377,18631,50220,1060789920,6
854804,159039899,139939269,1577047,140292851,1763429,336185,2581821,305714882,9513,152891514,1502,4452,3989,544191740,6
1178465,639928120,383926306,4175184,391354677,4008953,824470,5785765,763022511,23956,646472536,1692,6827,32432,1896990717,6
2567714,156009553,138654029,1199168,142067271,844003,582707,3722056,299648885,23215,176506246,4110,10699,27875,548588977,6
11608162,213319954,218409992,796636,212694561,1359318,918821,5391302,508790003,19300,216901255,4430,8480,34113,836789328,6
27212140,648492991,306783181,379647,306435879,387578,18905619,52245845,1190174814,306510,609567815,98334,160068,686189,2043628280,7
6428431,390717478,103309215,54953,103291842,55791,22008,11886867,321587613,8085,411462218,326,2118,1555,1319853597,7
12925150,198420312,13206239,43439,13267011,43370,11265,25396057,234951928,5764,207934054,336,1764,1402,680425529,7
28457867,623248800,307886745,387384,307233667,388662,18655655,54228914,1191889620,293321,634871558,98332,145648,698063,1990588578,7
25836117,300361616,205510673,72474,205266100,81689,50566,44565484,365242497,10904,302624593,329,2589,870,1333794701,7
15637465,441744023,298885838,393414,296827988,377765,9308424,28174279,1092095893,132733,436213366,97884,297764,604568,2274761256,7
12748638,494022401,205572352,71297,205685259,70554,23462,28339716,399066614,9851,513465116,424,2410,1739,1729110816,7
50914802,298275657,205987982,70649,206495890,69247,15216,90796692,389769964,9604,308326518,529,3503,2919,1223813334,7
15634333,438501193,298011757,329417,299498054,327425,9040555,28466976,1045824834,127267,443575230,97887,302282,428616,2094099697,7
27396003,633076561,302055885,418631,301293820,417386,18631053,53855078,1205859163,289611,649027416,98339,325883,694655,2241008971,7
28601965,511457153,334369088,500635,347555358,497818,22035688,43266833,1309946986,692853,527601718,97884,297579,289612,2609675926,7
12702988,389266367,103184304,49915,103276916,49292,12533,24915083,302988448,7281,407489759,334,3358,1836,1222394582,7
6211859,379471297,212973333,75480,210794848,75275,44484,12993666,335798096,9312,384700681,229,2062,1251,1477160466,7
49855700,293535966,207393876,68603,206481642,73132,29429,90672761,380909236,11466,303667769,530,3623,2030,1217229840,7
15686311,441208375,300689585,399495,297131691,399965,8757517,28619490,1414366000,139356,435638391,97894,301843,396022,2573587037,7
15686425,438643096,298766575,333585,296799464,336290,8815407,27235527,1009784183,130763,437222784,97901,298603,401345,1976562033,7
6325668,288314260,307871999,231431,309815923,204912,10616,11273979,242734181,6141,310999525,234,1548,616,1057294764,7
15964042,336663323,298611652,340992,299542559,339958,8720572,28440530,1116407217,131549,338998125,97905,305905,489351,2375828886,7
27316819,661320354,296685641,396078,296670025,393474,18893699,52226517,1230066509,299295,632153162,98332,320960,644040,2441905501,7
20760863,673036376,299364420,400117,291581940,406382,18183947,38538788,1174561280,308654,594694618,98240,328934,676462,2114282580,7
34502041,454200902,252863289,2855621,253829234,2863835,18842461,62432411,913426072,2420858,475732502,8734,44479,61884,1423844560,8
15210432,339801501,226887141,885457,219900486,937097,13958632,37397545,1257314355,1005723,341340839,9353,291211,60637,1150667739,8
8601271,344082278,165968977,2724753,165923798,2841500,4807586,17200107,590401949,89776,331367085,6581,9344,9642,1170299963,8
6235878,706217277,430921347,3953074,432863197,3983889,2991602,17306479,1432577138,269958,721956892,4614,215551,440726,2240524409,8
8360126,252270609,141568354,2474661,141887681,2472938,4228518,16398843,487205844,54915,249867698,6777,15255,7922,929625294,8
5893245,395987808,180014382,3492211,180104633,3492901,3605988,16275524,708162669,71519,396374300,4234,10995,40427,1259184576,8
7961335,290720135,148827464,3002851,151190406,3137756,4018145,16773969,565770160,59088,291088094,4230,5674,7410,1121824956,8
11879684,423567946,185999578,2880999,186121973,2879175,8300133,26212414,826732659,127209,434128160,11072,19804,59483,1362780864,8
6090734,248382861,137301519,2373713,138078323,2532747,4077512,14820694,468934225,63172,250259628,5139,8873,24575,845634689,8
7914360,734666625,448402774,4065452,450615047,4092582,6490461,23141853,1489844971,430333,762515460,4038,934051,34683,2343754231,8
6408058,773663691,449946013,3814613,447278702,3793974,5830683,19716058,1489415636,296246,748674449,6770,224401,88022,2387641161,8
15139893,475283271,249387478,8212998,249997618,8229941,13067991,41445926,1112217781,875322,472709062,4043,14456,42226,1668907641,8
7220907,780362689,448401719,4520078,448393411,4511667,4072263,19833798,1624301770,280797,792064282,4616,222800,53457,2472719346,8
18911801,784634689,467176937,5961758,461010151,5961510,7085651,33311102,1605200098,389304,782653917,4619,228693,50636,2420892792,8
7976239,743541259,435669493,3914429,429071370,3872854,5596989,22127180,1460195449,276227,718153241,6770,217912,46202,2291660773,8
13232895,843903575,492207453,4294855,492221762,4256050,13099112,35607567,1746285501,762697,844079079,7943,220382,90520,2516810324,8
7265159,388037701,183647174,650573,183768308,648721,3241180,16263307,665540060,188968,415511577,3653,6758,10613,1353401089,8
6293208,720736827,429112042,4163636,431612658,4205979,3444994,17483735,1426392964,271321,725216295,4615,403125,291779,2230766762,8
5737690,259409866,136696278,426433,136670703,435280,4290560,15097654,453705054,43733,257515820,4428,5629,5777,1054226247,8
7862671,244542401,143609057,2364203,143491188,2361947,4931372,17227978,493335028,58360,258907236,6584,5401,7028,893694848,8
216088,8677823,32748746,23300,31552587,22539,228180,818795,48972958,6466,31838022,1366,10545,4450,109200077,9
175941,7202062,28550599,14426,28506005,16608,46085,444781,43808279,3229,46394507,391,16599,1621,4575257,9
248493,8283726,27239723,15575,27230005,15978,65729,428818,45993547,6584,40623163,621,10476,10465,13669030,9
199096,127688014,78593526,34799,78640020,33159,54515,640025,153241896,4339,143190104,373,3018,3382,364477503,9
251354,129725333,81245165,31060,81216037,30996,28306,652246,157832679,4528,149953514,447,1338,1415,373652209,9
324494,31447280,39013600,32946,39061873,32847,47808,377796,61236649,2200,62269377,390,1806,3902,164435016,9
857038,10540497,32875448,16226,32895699,15976,117429,558032,49895012,7650,44180565,1375,6194,23324,92512676,9
144601,109740934,74547952,39414,74452883,37873,52928,734791,175699037,5497,117661803,378,2656,2329,415926770,9
229101,136674758,79317812,53562,79039255,48378,169701,948618,178885124,6141,142949729,1362,2624,4903,368954980,9
71703,2888507,299759,20278,361432,21909,11645,218039,?,?,?,446,?,?,?,9
1354069,164588901,77971018,58087,77997645,58192,884764,1766127,223373113,32172,140648308,6293,5320,6224,454652548,9
70053,2181027,?,?,?,?,?,?,?,?,?,148,?,?,?,9
226963,127760094,78384565,34010,78256818,33286,49774,644798,152407162,4781,141982773,373,2848,3224,357280858,9
485003,5436954,26624221,20620,26543137,21183,131811,641356,49392816,5205,45750157,1119,4781,5836,125963649,9
342411,9364080,32479289,13941,32441445,13336,67906,385535,52736287,4427,55031437,1372,2092,2732,115355695,9
163770,6051008,18244435,32277,16246128,32424,747546,1775513,35030136,15510,10054900,2364,?,?,?,9
59268,1859459,?,?,?,?,?,?,?,?,?,654,?,?,?,9
190696,5390775,30427925,12100,30299746,11957,31299,362681,45427511,2835,40520580,179,5620,6625,63183929,9
216641,127417284,79048409,34097,79066469,34642,50843,665992,154048119,4686,143653275,374,1465,3011,364252905,9
73378,2139529,?,?,?,?,?,?,?,?,?,452,?,?,?,9
919211,82025463,80121999,142993,80031146,141174,462391,2472053,172310385,19383,90412540,2022,1992,6228,289745882,10
3328341,107027549,71862882,350260,72880859,373109,2253522,5720897,254453682,155465,108366652,4303,4123,14891,375058167,10
2951089,103336149,72123888,373281,72251184,377577,2018032,5320955,250510320,184418,99359442,3520,4430,14823,367156083,10
6814981,129733813,121758840,2278936,120697229,2270021,6165853,15679923,581903446,861159,145875629,5606,9783,33347,467376556,10
12243537,192838594,173324812,750187,175435180,756252,1681925,5965438,480556239,62921,216715695,7928,13585,34339,692265026,10
5237890,294757404,200486828,619531,204781501,636831,3792490,8361943,522548318,212314,332262547,7036,16258,48544,1014801932,10
1050617,238400806,173438515,843483,176422570,858912,471273,3573106,348186160,15070,283109304,2016,7167,24551,771250098,10
1221358,82047655,78971609,141622,77824134,160671,503890,2302054,170043938,12931,86338621,2218,2058,5888,290975718,10
2466433,110848954,83127337,145934,86297165,144509,3532902,8026805,296269058,206044,114762541,6481,10860,26087,427767957,10
2219270,109541343,81370098,624704,80975843,741146,2851965,6656591,275698942,179097,111679331,4136,5353,17825,406838213,10
878122,281864790,160285463,1244428,172303552,1053224,1528478,5643666,371192400,27794,294601988,2995,5205,24394,884435417,10
939336,251413281,170756352,900474,171981112,892719,612518,2930001,356624740,15718,282268159,2019,6972,16840,785052209,10
15166533,371358716,271096754,1193982,272836089,1192755,2314221,7665489,676814230,133893,378510088,4821,13857,39461,1176575870,10
1147960,91595847,91634198,152866,89075150,154695,1121859,4724392,193543110,18349,108432840,3000,6859,27033,352690276,10
1473103,90967556,71981292,128127,71766713,129307,295140,2173023,156556422,10843,97425139,2023,3517,6933,330238162,10
1228593,248208878,182837622,606302,184067265,620448,597007,4476692,355613906,16866,285237916,2866,10808,40962,813379557,10
1041063,81353467,80526010,149159,80185785,148693,452458,2395678,177526567,14186,96169142,2803,8716,17734,300060667,10
1087147,125425577,56591391,1007439,57130110,850498,2122296,5871415,214013219,37450,98365538,7172,12785,18630,427841369,10
1931290,288351615,187977458,784465,183711343,822017,2645797,7252787,446302478,167832,289818323,3521,5274,28308,906905537,10
2244993,127248783,87017433,154345,84357245,155904,3646655,8189353,289851246,186836,118776302,5895,9615,20743,446029509,10
13586665,64936880,26179869,4877329,26492350,4897064,15584,2001794,223029792,6257,67190775,175,1403,1626,138990652,11
14033267,64902107,26802131,5136666,26806284,5136439,32812,4057089,206092748,7353,65961988,212,2426,711,150746640,11
24021055,739934342,608449033,5835155,608569540,5832159,125064,24412659,1131766612,29771,747847156,222,7254,4445,2566480982,11
24742709,77857340,26722583,5646664,26756891,5643806,43960,22193690,256698127,7749,79604290,229,2311,750,189609891,11
8073683,66850514,30632688,5125873,29678746,5174398,19972,2045086,232118164,6400,68653631,193,2194,1998,148444250,11
24657651,79765516,29373904,5141103,28691863,5152660,48899,19137183,270917383,7704,81812035,208,1608,927,168277569,11
14491054,66928458,27599928,5613845,27718919,5616874,20464,917588,212798944,7452,68464786,170,2438,1772,155976319,11
6536229,83416376,48100389,4987405,48092631,4986756,9334,969566,249772345,6492,85623602,183,1614,741,400397449,11
13793442,69464755,32518814,6086707,32482031,6083335,28754,4690903,236127124,5989,71529103,223,1418,1962,170590325,11
23597857,778525977,610821500,5738436,611950786,5745351,80793,20503926,1115055582,29318,785259143,245,8425,4308,2633231939,11
22742575,91457936,27659219,5045022,27615945,5040544,10256,16355134,242349593,6206,94203485,215,1440,703,176117756,11
19766192,55166200,28820513,4974178,29000303,4973580,52750,12698397,260231384,9593,55897671,331,1637,1968,165376695,11
24807974,78414909,26752217,5592677,26681622,5584080,8692,16103077,251788959,6296,79675702,262,1610,760,158749932,11
20419207,206807786,60197295,10120181,69207135,9666162,18228,1850824,503541383,12548,208317488,174,3153,1767,567702187,11
13474014,64216142,26947157,4633571,26956828,4627631,19325,3837947,219988269,6767,66071499,221,2322,2272,137657211,11
11153130,64082167,39860101,5745758,40016380,5738790,20508,1790908,230314219,6096,66508240,213,2305,1873,186385439,11
27895827,754564038,608139722,5763195,607969334,5758651,58136,30357401,1110870569,29499,757339893,233,7961,3857,2569639574,11
15112599,86562652,40714717,5272647,36064080,5467777,103592,3306486,236284914,6096,90588085,2526,1830,1448,181263607,11
7662712,72763595,26530561,5816012,26518282,5863191,42436,1206983,266005041,6701,71308089,201,1632,862,238948385,11
22625007,742699005,607202400,5771092,604212629,5794428,106929,19953844,1090293308,31209,745310049,222,7235,4012,2591887129,11
1375172,84311870,75743886,41500,76770420,78340,224549,1747501,150938203,7708,91934325,1944,3379,5341,327732433,12
3295329,321062279,195326987,634199,196348603,631863,1115897,4052446,421574014,30291,322216342,6300,26627,39069,992400716,12
1185306,72475438,102208563,46275,103699966,43957,228261,1656502,167618083,8747,87945430,1943,6586,5561,364649255,12
211802,90994155,71849887,104330,77739071,157856,196461,2438047,124368157,5700,86712813,915,2827,3052,315175693,12
9123837,383521690,307457581,1867316,304659524,1874273,1117206,4408157,686236458,29040,406746566,4816,11515,46986,1343946540,12
8699043,397201611,253638969,847269,252274977,842985,1545582,4795925,656956523,35336,395173800,4816,11054,52818,1225317147,12
11374800,180005171,122569780,444596,127739742,475228,1433441,5368952,491320700,30136,185519755,6386,23355,48271,608950853,12
1039661,322184986,221545214,685669,220917391,704715,222640,3242448,384539394,14402,308717205,2328,8338,18730,958442636,12
534201,65990580,86975732,51118,93565611,150460,190024,2601560,170351834,9794,101373776,1906,4950,4013,279615330,12
3226022,88798331,78578828,50386,80907293,46683,222657,1433160,166496670,14672,108490901,3748,5190,13880,349172097,12
7438149,441115985,322773578,759496,320351738,782824,3434338,12823625,604648339,41961,459131635,8631,16542,40538,1526453070,12
3290757,86576784,79135381,47807,81248623,46595,208960,1525590,166119573,13464,106228908,3749,6606,9485,344390364,12
3183106,87022778,79061060,48112,81068572,46381,221789,1547272,169954351,13474,107913396,3749,5119,10064,336102066,12
3249040,94661461,67888531,46792,73424772,47014,294535,1342356,159668858,11472,114988455,3749,6138,12361,368856530,12
906517,327620406,208519879,591618,211919379,587942,200165,2769218,384761124,14080,307285870,1939,14353,32785,964173827,12
11933254,400737815,255407243,968610,260808931,999881,1498427,5955752,722917086,43567,419327596,6378,24509,65097,1244182357,12
1249586,86101901,74526081,38393,76497098,70664,213857,1974719,147582079,7379,92216858,1943,3352,6463,340154426,12
166661,86312176,71500974,123849,75602627,180405,94313,1291602,124895516,5666,92834734,526,2796,2360,305611336,12
1542495,83387408,76769664,41643,79577090,42286,428695,1598679,163406610,9938,104218546,1944,6713,9384,335132378,12
560908,326022222,227404783,684425,227767646,709882,240909,3259688,369031964,15366,318055564,1937,8231,23542,970474355,12
46223,71527414,50208097,23362,49981274,21525,33656,372383,88458498,2429,81266488,131,630,2576,233425160,13
71005,70352795,49335111,22099,49282498,22663,25172,392280,86894045,2542,79720510,128,706,1907,229379603,13
545627,10851203,30962502,14712,30895148,13080,19079,281224,53644456,2858,36285421,260,1800,2247,143538931,13
191023,4708844,21932629,8342,21824844,16035,24910,283976,39996396,3142,29177208,135,?,?,?,13
42804,73890271,49924930,18550,49828332,18191,12862,336260,87473250,2337,80862132,128,636,2365,233074531,13
46550,74238778,48996977,23735,49433997,21427,25602,375950,87112143,2242,81454739,128,647,2571,234187838,13
275803,8894171,21696778,8363,21484296,16890,31631,310355,38320310,3151,26356133,134,?,?,?,13
48725,72924800,50258223,16521,50255141,16071,21631,348311,89608892,2601,81534836,127,671,4151,234255817,13
119315,78020066,52834732,19578,52824214,20918,51325,447219,94894382,3151,86723077,518,1184,4682,249573513,13
188478,4854477,21778279,9696,21821028,17725,26894,301531,40019421,3225,29634500,134,?,?,?,13
45706,73959434,50501623,20048,50414661,19097,23946,345156,87617967,2344,81980300,127,621,3123,236235534,13
65839,80638541,54255975,25615,54584076,24196,28712,468642,96507200,2605,90162204,324,730,5171,259002367,13
88941,83164676,54972708,27107,55378818,23547,42707,505296,98546349,2657,92138636,521,714,1996,263392238,13
140214,4760095,21814983,7837,21862457,16043,23652,281860,39395559,3134,29474246,133,?,?,?,13
205249,7187710,21841548,9960,21278765,19563,32476,330461,40018243,3292,28340826,139,?,?,?,13
139127,77807893,53875126,27410,53057684,27475,52050,580799,97788974,3945,89260706,780,1639,6979,254789272,13
44472,73053986,50216702,18347,50194408,18896,12232,343197,88039994,2318,81451865,128,658,3219,234683040,13
107542,72464023,50532419,22193,50398699,21296,29126,433799,89576509,2537,81573011,324,730,3014,234928457,13
57875,72331119,49467945,20556,49634656,18056,21148,353357,87372348,2346,81055956,127,708,2430,233773802,13
66143,82314457,54105942,25883,54365355,23609,32060,450123,95849750,2435,89376190,326,710,3821,257778394,13
6205264,160173098,223163816,19493525,226563000,19535596,1817842,9111894,803660410,46279,164007019,8303,16674,54859,936577032,14
1621664,74039936,92897055,2943166,92709932,3017919,335392,2583564,232426976,14577,91102511,3621,6240,17726,473738798,14
19998869,126867177,222340324,17964636,224732052,17956737,1626995,16340850,857208162,43338,138889303,8303,25760,29920,933662219,14
20236756,160646701,255270211,19444598,252721486,18756348,3127816,10760698,826826656,48471,141394315,8301,55622,37936,1215921210,14
19130861,112469334,149098551,3635463,130412913,3955797,2057102,13048318,359668256,31889,119593632,8302,9943,52227,780286935,14
13378541,146717680,286819312,15517393,275998398,15973184,3176558,10959575,792012864,46535,154366605,8297,23834,22667,1053449498,14
621378,75917998,121338290,1166914,116491961,1585362,466471,1962260,193329663,9459,75450754,1745,1346,734,487890190,14
24764536,112612129,219342987,18168266,212629172,17540379,1010464,20899377,763653687,33468,99183394,4235,15758,16446,865357039,14
3691051,120013444,102868558,3406846,99406040,3556742,2394901,7873927,353270873,51972,120950609,12134,14831,67745,683594606,14
158928,53901099,101882931,13223160,102128547,13228791,26965,1546109,466040645,11706,52205479,132,3772,1906,328413956,14
678359,52777775,57752445,6769263,58276680,6791333,184788,1035810,228909071,8263,38861295,2304,7733,5019,285222830,14
3110011,87043808,54060393,4072827,56250353,3904626,877516,4919045,247271686,19690,79199588,7145,14909,41459,384916199,14
19116793,113198514,236645325,14691544,235592647,14778837,2756613,14178543,698331030,40900,116736381,8302,21386,26311,840140221,14
19627485,117613278,230250217,16068239,234578119,15558560,1555549,10799925,732150457,43833,118788610,8297,37340,36560,1055981221,14
115086,37049298,80397403,11711472,80109935,11564173,34577,1330335,364152238,10875,36461936,137,2258,838,293959040,14
660943,253414575,223778880,7570644,223295552,7599587,107365,3230116,611133891,19461,250019410,1193,5539,9050,1372897727,14
15830421,149390235,246125980,18598875,256904259,17013184,3484659,11903363,799022733,64305,159167904,8303,23489,29710,1124015281,14
2192170,80636620,184419271,13837350,188302059,13987282,988751,4816729,694190124,25264,80204621,3345,17981,16540,775893763,14
2397645,86954957,102776461,2032865,97461376,2423505,1647176,5656114,267492808,22519,79752593,7147,28440,47351,480815840,14
4989241,112800925,168644485,16275029,186008506,16258276,3830027,12176705,699636210,62318,119239923,8297,11874,37823,703900377,14
1472302,403779332,279498394,1862530,285210974,1523850,218943,3009453,522278722,21296,447976652,1939,8887,25476,1236690588,15
635809,104472210,86847249,1562249,90612351,1209320,201508,1649799,203609436,11829,140417629,1040,5069,6434,394806323,15
637835,394951719,288759224,552347,290202710,866903,113322,2129338,494273027,14081,423020917,520,5825,14659,1178388929,15
4396301,151368006,108286013,1332504,110012203,1328445,3751603,12761961,293335181,98711,151237355,2871,6558,18401,550741372,15
1121954,99678394,94462163,863072,97493680,662667,211441,1835499,196946884,7618,139493377,916,2779,2384,369450798,15
545793,413015132,290923888,1350759,282908441,1771095,116862,2363295,500148133,14346,420256926,518,5841,17266,1265285434,15
521228,403125448,285653592,1392427,273886706,1842163,101330,2323751,493278408,13526,403198413,519,5518,14477,1180199669,15
623693,94365293,83182895,1661524,88433347,1238452,166708,1550625,198715186,9992,141921207,1042,5659,7981,361736293,15
644747,93560122,82918614,1478896,88751907,1104747,167472,1525045,198020777,10484,139234712,1041,5680,6276,357449650,15
699463,397573566,292651116,580332,288782244,1188421,121184,2516115,501459829,17145,413475411,1036,7598,18085,1167728098,15
779669,411819220,294195486,1177083,284131997,1655420,119177,2586804,501600378,14059,417906905,910,5910,17705,1271922657,15
18232277,297144229,244723146,12502137,243250024,12622763,8608667,42974393,999194883,559677,323089825,11166,20011,86073,1104433312,15
564335,395882028,292481818,968555,282633244,1623913,113917,2292871,499846881,14463,409886518,519,3968,15780,1177876559,15
792232,98885253,91845193,1738536,94431415,1270436,231220,2863146,204087959,12567,138184519,915,4630,3514,416033390,15
5717701,424635029,314311358,3109383,313365211,3093660,2681674,13831763,811732268,409575,453519461,3255,12812,39864,1328982470,15
1229821,83076985,89335230,99114,93748699,92312,550941,2012970,192690075,9865,128482456,1695,3948,7304,314290914,15
591215,86295852,84778661,1128149,89785217,862896,155619,1438528,194294467,8260,136277656,526,2942,3167,341366145,15
615679,90829689,89479535,1321229,94088241,1009329,187815,1430483,202147446,7795,137145825,525,2746,3855,390138042,15
637216,110034532,91765814,1721837,93822726,1582779,123643,1535831,208175755,10610,143113760,1040,5230,7865,407541764,15
543570,417805017,290259153,1264425,281046594,1733608,114359,2399715,499627460,13564,421374034,519,3993,13955,1237915005,15
658816,1219369043,703471847,1441377,709766886,1444553,805025,5691943,1344052111,38254,1223905178,2806,9617,5143,3896702500,16
310333,308234350,207445828,1135939,208777598,1140392,294291,2581338,594880924,16521,313077166,2086,3571,1931,1467569338,16
351847,308449595,207587885,1154465,209012050,1161835,436386,2906546,601379126,20519,313218369,2083,3985,2029,1361388923,16
358923,1007895018,612937686,1182987,612860405,1184007,108007,3538730,994514775,25552,1020395322,1264,6486,4269,3570964851,16
3188178,2243155004,1324230588,2443865,1323755352,2448318,3285546,12413348,2436180671,98643,2232840684,16732,33246,91219,8986962865,16
270064,303623581,207019228,1113137,207053197,1113372,50072,1916946,551616110,14512,309065602,1104,4618,2416,1338641008,16
525402,1215442628,917498209,1429789,917238780,1429168,171923,4959053,1399594902,35217,1222644498,1829,8579,4959,4490913967,16
277807,303632852,311019502,1121281,311552048,1123890,83582,2036611,565525563,14387,309705014,1111,3604,1583,1544947689,16
311064,310095309,206071163,1128750,207444753,1129896,213146,2469813,585899860,15980,311465196,2088,3493,1877,1257385146,16
325594,209003495,305314674,1099240,312080708,1110254,395946,2146269,403073789,9993,213524132,2085,3090,1856,1598859670,16
367269,306544520,316390673,1141484,316426870,1138487,238563,2355339,574140916,17391,313687066,2083,4122,1854,1472432531,16
337476,405685198,208535069,1129907,207997294,1132232,75136,2433161,640228318,17081,412668227,1106,4788,2796,1541006268,16
542166,1209844703,715815473,1432372,716254340,1425542,303447,4510359,1201429581,31853,1226455928,1829,8129,5688,4689498852,16
592495,1115923789,699341136,1384354,709697312,1389508,734451,4714158,1064231576,29322,1135670782,2811,6622,3964,3721206424,16
579225,1116302525,614588992,1401417,615338346,1399680,202755,4455146,1105483152,31880,1116421115,2170,7880,9422,3567196529,16
322436,308909839,210506489,1138424,210559326,1136959,157115,2313095,587623981,14866,312794141,2089,3461,1876,1261003469,16
321178,305496894,416354339,1417987,416282595,1433237,136958,2281801,573772181,15871,311406093,1109,3484,1734,1665515674,16
530600,217845810,420651658,1973563,419951721,1969321,224047,2806358,716434957,22733,218852415,4614,7398,38647,1479312538,16
400814,310065736,209550042,1127725,211318787,1132113,179334,2212630,529892816,15857,312598899,2089,4659,2804,1467582281,16
332363,316450944,204605268,1054687,205753949,1082046,902292,3168606,606173612,24632,314326251,4042,3984,2221,1295120808,16
800206,308481551,207533509,1276694,207493594,1284969,250092,5697158,1545776276,56963,307831762,4035,24246,34992,2038853282,17
162789,204145487,214120046,1092483,209554677,1096345,124327,1342738,274175296,9763,209148636,1111,1672,888,1188922162,17
270898,304365132,207319853,1128815,207523930,1129688,71851,2383760,651955181,17143,308699107,1111,3942,2037,1346128538,17
474816,407562968,205855195,1247972,205864039,1246379,171647,5239270,1419212634,40787,408035910,1108,9928,4453,1837452167,17
730416,308347505,207752466,1276359,207748870,1271466,246208,5317256,1539167371,51517,307782195,4039,14875,34788,1841355827,17
729416,308443370,207594079,1274882,207689211,1269596,247047,5315450,1539187537,51645,307757112,4040,22381,33607,1840614251,17
654548,307761014,206872425,1263735,206906840,1261531,193310,5241487,1535988012,40227,307030495,2089,10240,3911,1943094346,17
707706,307667207,207170841,1264639,207348862,1273376,248430,5416517,1543566093,51934,307440920,4036,21746,33340,2038412067,17
546746,1113437705,605536114,1461353,606906943,1459709,369685,5672331,1485711119,40899,1116693059,1685,9771,5501,4378724105,17
580842,306973165,130551121,253527,130728244,246175,305287,5648382,1515471808,43647,307520571,2087,10013,4778,1644385849,17
497051,304861289,209044478,1137694,209175755,1136358,190985,2376887,626196105,28402,307320125,4037,9100,32936,2040042325,17
626662,316877104,509668019,1432527,511429623,1438004,949543,5644445,1266515401,34833,318218474,2663,7758,4938,2700277998,17
460181,408199040,208950034,1310115,208044844,1299263,257409,5508473,1428158492,41082,408282950,1104,9089,3485,2040255467,17
476443,305563453,205808269,1247546,205761299,1242257,167365,4984128,1410842676,36616,305601211,1112,8778,2693,2039826069,17
563389,306150633,205695277,1259934,205688241,1255598,275265,5220445,1410524324,37347,305382321,1107,9714,4551,1837471142,17
652914,1221269856,895512582,1443124,901784629,1463320,911380,6751015,1581587626,46607,1219535652,2805,9353,5378,5922468149,17
675633,307515016,308853908,38409797,308784272,38503276,304360,6664980,1895951873,49096,306589772,2087,11884,3983,1539721068,17
663188,308228285,207180147,1259760,207171059,1271885,305479,5405089,1532933585,41020,308575592,2084,10783,4120,1846667969,17
638518,307450080,206708283,1258226,206920279,1262844,257579,5365756,1534974343,40713,307164986,2088,11514,4260,1945269643,17
586544,1220147930,601205805,1408896,607350577,1412897,781632,5548355,1310171643,35032,1232080933,2811,8340,4481,4625023818,17
28577237,579642116,294860916,526914,293567795,528228,27369760,57032966,1827986614,326943,562415632,98808,111026,291337,4334970529,18
6699530,208105283,104259495,73196,100031515,79482,200124,14742892,392007240,10832,205712582,1112,3619,2212,1489744651,18
6722353,314156959,211275928,87411,208768781,87858,572703,15111487,529512960,16199,294892746,1108,4257,1845,1864190538,18
12728928,203761221,201211257,114201,203969393,107093,8250697,29414273,556607786,210914,208081811,4036,4596,2646,1817237158,18
6960694,215233833,90228297,72955,96001462,64675,622319,14365368,267771364,7088,220727600,2084,1724,808,1117349985,18
29744789,577876073,301561821,495531,303460971,482111,27812320,55908406,1445459796,321193,569715152,99788,112292,306252,2692195384,18
12839876,204935778,106422901,122516,106897206,113707,8052067,30372814,597477432,213670,204283320,2081,3572,1504,1617759446,18
12721711,203960048,200885966,104932,205172277,100612,8501062,30036475,560382618,209522,208230669,4036,4335,2710,1820751040,18
28658999,573836985,300923454,592575,301312287,603691,26784948,57976551,1899433235,333394,569966070,98806,263258,385917,4447970314,18
13082107,210608722,215269383,87178,215801319,98847,8388475,29301072,530266436,188431,198526101,2083,4202,1470,1737481328,18
13600778,216174515,102111073,104122,101408923,114978,7849204,27442499,525620625,219079,203071607,4042,4151,1743,1612350659,18
12886320,205347097,213191887,103490,210726677,116268,8501476,30069617,606300248,211165,202850033,2089,3556,1604,1728640367,18
12889930,204445327,104203495,111821,105189689,112862,8077660,29622516,523377280,218671,203580237,4034,3399,1427,1526135648,18
13524565,213757894,97471291,107813,97811843,101399,7802042,28058572,516045402,210195,206169224,2088,3247,1260,1612125370,18
13054223,210009438,212092678,88604,214211059,95463,8303560,29341758,531605119,188976,198956491,2083,4538,2053,1729821737,18
13112167,211042292,216520095,92228,215703061,111540,8458067,29417509,529960373,188286,198351796,2086,3390,1655,1735540902,18
13193041,212429585,217042406,98536,215089718,112587,8342891,29217050,528559688,186751,197364454,2090,3323,1757,1744075208,18
28415029,578943797,304048783,451838,302210174,451013,27600682,55995117,1440969395,322443,570562993,99790,112935,329937,2678999664,18
28413815,577619767,303921104,500464,301837328,489472,27126641,56386370,1416569295,327376,559336777,99783,112101,614486,2770898902,18
13077013,210441372,214728802,87990,215628793,88195,8310404,29329876,531070386,188478,198657191,2089,4320,1768,1735800981,18
66200953,426375362,197255514,1076824,196279148,1077401,4286085,88014555,741765584,554966,443999629,23575,56559,155040,1686428768,19
6649437,135151437,62258450,951865,62162691,952251,4073053,6737276,341604048,52750,132855320,20589,30772,161396,496145203,19
8368945,81715282,44070576,889179,44055303,891711,18326,617634,174049486,4487,86296188,158,1154,582,364982099,19
6686688,268169679,110144137,124524,105848244,127046,4059733,7086913,377237041,76335,232439556,20591,30020,117014,874696224,19
40467029,1117190629,439044095,2377890,440634237,2402005,9163476,47837185,1471188884,811103,1152832952,41148,58763,304021,3273471400,19
3710136,161054158,89660410,4349134,93257323,4264587,2891500,7213369,463268626,57124,163606964,23389,24263,93740,612312073,19
2932862,81245488,44333355,901014,44273073,899948,7023,607960,165856585,4358,86583371,145,1161,487,367502752,19
4688655,141934740,97796745,3733488,97020241,3877739,3683416,6365343,443012992,158245,143539722,20543,69070,67602,552812915,19
12681213,242676439,141413082,185490,139393116,184619,7225723,11758842,547358932,99263,207162830,40995,48326,353234,920621735,19
12368655,170908346,79236140,991337,79204832,992362,7868043,12243879,500986407,102785,156349771,40994,133615,212468,608492837,19
21619169,828780481,331618451,2145537,331619555,2152352,4676718,24985730,1013233579,677634,801845217,20666,34358,162857,2638506243,19
6870950,225576920,103777510,828443,102488805,865697,4002217,7045737,357210619,55902,209621661,20588,28986,168875,625527955,19
3504785,157789454,109082165,154419,108958559,153244,2086993,6516641,390908791,53922,160615065,23390,67673,45035,863840592,19
9104598,219448976,132280411,228051,135568454,229346,13472689,16731767,565230382,297994,223331425,40944,43151,120585,923850892,19
27655878,960113509,419318022,2308454,418429293,2273679,5450374,32819170,1276078930,848137,936639779,20700,34612,165705,3091558886,19
13098260,146593816,71227389,211769,67018175,202374,7686445,12783675,521091249,106324,136310376,40997,55866,396759,581615168,19
10325638,710992283,343012156,2191602,341718061,2228481,4957287,14976051,1103063415,98761,713524029,24736,77561,119162,2466920043,19
111228527,858057814,355462869,410565,357367558,412107,9609937,186157411,1613771408,9791254,849445209,49271,150377,96563,2937094198,19
11091554,237323882,170107370,925912,170507601,950077,14034673,21125741,607448836,296511,197834561,40942,133354,217438,1078632674,19
4629592,142674506,95064908,3360723,95193994,3385068,3848166,6287810,409934853,133448,152897853,20538,23033,103123,571900354,19
342384,11545043,27720549,12612,27617044,11646,51867,810785,50145187,2922,34681089,916,2204,2965,100423828,20
37467,1560330,?,?,?,?,?,?,?,?,?,137,?,?,?,20
88164,1411774,?,5601,94556,3431,1672,31219,1416639,711,193096,128,?,?,?,20
213843,91549236,71080465,137684,69267102,112135,123500,1350510,111218806,6063,105961172,913,1150,3869,302460556,20
855588,55252521,35854999,15621,35954604,16254,58458,338493,66350241,2343,54912149,522,2076,2428,199451858,20
72285,1558211,?,?,?,?,?,?,?,?,?,131,?,?,?,20
88722,86260073,51381879,45472,53390415,36593,56034,686157,101034211,2641,93726187,519,988,6006,272448996,20
78594,77603345,52894761,18940,52859770,20082,18626,443947,92264777,2340,85258364,520,658,2986,245377670,20
162821,107872077,86489754,127266,86495308,136772,94846,1622918,125171024,5342,98650744,912,2626,4733,328684878,20
247775,90966165,80567584,134063,72746978,119418,97123,1198868,114792373,7163,94268814,1037,5619,14238,290604139,20
190628,27467172,32152621,15390,32651048,14693,59168,481478,59765912,2930,40920285,979,2826,2662,149180455,20
416858,10496948,20135157,12561,21480890,11438,78281,544887,44371762,6306,32608380,1042,6002,?,?,20
267277,89559504,80642740,128459,72596600,107946,100486,1155569,115582989,7066,97043369,1037,5736,13554,293153415,20
419190,78488439,51910627,67969,50107708,59745,149380,1428787,107993190,8637,91073407,1897,4682,17416,252362219,20
2408668,80766301,42689078,110744,42334705,117236,2968528,4434965,282207629,80553,47895682,31044,38624,144832,250968661,20
576571,31000663,31934786,19938,29153584,18435,76768,677342,62839020,4347,44702890,1042,1654,1193,192473888,20
683231,36488361,32584552,19917,31003744,19382,108860,785866,69436782,4211,47792683,1042,1555,1407,144340975,20
40373,1435960,?,?,?,?,?,?,?,?,?,130,?,?,?,20
105050,94981199,79356662,128527,73184758,106190,68396,1056566,113625896,5506,100240572,522,1209,4929,302229369,20
107784,94183258,82454328,127622,75496784,105088,61057,1088306,112826060,5359,99623953,521,1073,4566,300455829,20
669411,22083281,11434956,36812,11576678,30881,226031,1053861,73495233,8126,24716338,4200,3592,7520,74758420,21
317688,8650237,8328132,26002,7774160,27108,159607,640145,33178198,8453,2816764,2135,?,?,?,21
217189,331823058,505630921,753175,505130798,766432,21077,1873362,541265480,15860,333941936,137,4246,2789,2179638547,21
227230,333864339,510834493,568664,510309892,572670,29918,1842515,542560544,15839,338685374,133,4209,2732,1864093170,21
935559,14991914,11554806,25397,12240513,23387,508921,1306255,63085919,14474,17758876,6100,8400,21040,59445017,21
179533,8797899,35029376,84627,35402366,92223,641294,3623162,48398366,9387,35194675,2084,2692,3817,66070361,21
371535,347884192,491828584,616349,493392284,617119,1123307,4133079,916788599,38564,347834649,4035,6156,2242,3836068770,21
10614612,186835869,177750447,147660,175039914,158467,4602522,11155736,288113259,54972,175696171,9996,12946,46392,769087806,21
841848,17656287,15925565,37660,13326836,41255,2237634,2808540,111193794,25662,19859105,8646,16035,45880,66301409,21
72851,2478060,?,?,?,?,?,?,?,?,?,137,?,?,?,21
101041,3658063,?,?,?,?,?,?,?,?,?,131,?,?,?,21
351674,333216481,504470795,623491,504366595,629394,49128,2973634,876293333,22225,335345012,142,5997,3788,2341982457,21
106806,3528022,?,?,?,?,?,?,?,?,?,135,?,?,?,21
93555,3122374,?,?,?,?,?,?,?,?,?,132,?,?,?,21
143689,169963210,492507171,606090,498240283,578213,60797,1657295,431626156,11365,172227455,136,2614,920,2037999477,21
127325,333462735,337621996,499425,338488962,504585,15599,1421077,419016828,10682,339721558,139,2531,1421,1869848314,21
230893,332906324,337512044,594173,337313216,599417,63725,2476336,705661505,20620,334934101,131,6084,3229,1843290784,21
1867489,78002867,13488839,41007,18255762,67599,553344,2760877,93821259,8806,77042162,3136,552,289,297893445,21
934193,14841227,11382684,23932,12213313,23051,528579,1283925,62236702,14315,16769737,6093,8303,26215,57543012,21
74020,3492845,?,?,?,?,?,?,?,?,?,134,?,?,?,21
68278,72048656,49973435,18852,49493354,17092,11217,346445,89464649,2401,81288058,128,672,4222,234275541,22
88435,79483061,53122136,23395,53196026,22831,42195,481064,94964762,2525,87375669,908,740,1692,249311707,22
496477,9149306,21813173,10894,20977586,17416,42826,481753,39400830,3918,23469473,330,8132,?,?,22
93397,84716054,56028431,19070,55905503,17400,39412,468550,98489721,2706,92232013,1299,797,1886,266970872,22
552925,15686408,23163701,9301,23088522,15184,22554,290668,41547781,3021,33061192,134,1755,?,?,22
93751,69228245,47437082,23460,47578623,24055,35483,392280,85909871,2301,79907867,126,653,2647,230358804,22
251994,9154332,22052159,8810,22054781,16525,39759,482177,39713377,3414,27596781,527,?,?,?,22
568035,17943928,25861678,16123,26680159,14911,68324,627398,57662414,5065,36416611,1041,1866,1594,151789559,22
419031,8074674,22121311,8832,21383042,17182,43039,512039,40197069,3860,26629626,526,2483,?,?,22
83271,75555182,50978732,19346,51179512,19022,18772,449588,89529986,2373,84068149,518,691,2043,241443896,22
91350,73756195,51380578,18967,51244282,18210,18323,429168,89990960,2342,84840725,519,691,2745,242623650,22
503306,13627866,19674702,11637,21027450,12631,92627,585404,43504534,7189,29971141,1040,8578,1398,1931052,22
81628,76100057,51156419,19191,51078369,18849,20573,449793,89738011,2615,82873690,522,781,2560,236844520,22
253142,7793491,22322382,8655,22289813,16142,40542,497838,41740276,2899,28792170,524,?,?,?,22
399083,8134121,22563568,8934,22586756,17829,46251,516160,40660100,3612,28805961,526,1260,?,?,22
82786,76974855,50408239,18431,50657888,17729,15702,433034,88833379,2399,83923351,519,690,1382,240823089,22
65647,69180262,48771087,18576,48731346,17649,12699,343614,86939215,2344,80401807,129,670,4302,233596155,22
206852,7437959,22469084,8827,22439051,16808,42303,503092,41333914,3085,29277825,523,?,?,?,22
162440,5246971,21858493,7910,21877260,16222,38462,382999,41084556,3499,31530324,525,?,?,?,22
362174,8873166,21967257,10162,21450604,18766,48488,517148,39492202,3595,25928430,524,?,?,?,22
3454724,341242093,186104011,1378374,182298864,1392116,2126414,9844727,485471763,59792,299963972,7058,27546,25770,1023733404,23
2599266,114008664,64770177,843490,64587508,832070,1473454,9807952,220739433,57534,104191681,1987,4268,8933,406927794,23
2702590,307454613,196284390,870504,201921630,868689,1171875,8503542,450336672,40062,339211775,2556,9210,27823,986333595,23
3204600,106043350,77475327,710703,73726899,731113,1672852,8070636,243041986,151500,91025331,2377,4045,9682,360023746,23
2150525,108768512,65116639,1020965,73647445,823612,1211334,8781297,205291926,29152,114618625,1807,4298,9537,385297626,23
2986037,308588602,194483059,1033451,199202474,1045959,1043296,8325681,447930777,38455,335030194,2061,11881,28181,973262658,23
2748416,116393763,65974191,845670,66241181,804937,1425533,7921564,221908119,43643,105391763,2096,5451,9891,417134347,23
954479,291112417,171362694,921386,176157682,931592,90219,3059844,348707103,10300,300004920,338,4723,17246,864349028,23
2702512,117391068,67171015,845570,66956946,877957,1136778,8676814,227777291,58569,105283891,2041,15584,32263,398502738,23
3517689,280677730,210437753,924359,212203968,926446,629584,7010315,430773108,26950,336442853,2050,6709,28520,897332662,23
2494840,112324298,68660750,892010,68427090,864352,1450571,9978851,231773426,66891,99331537,2094,18681,7601,384437603,23
2319934,111544394,62976179,933788,62808274,958650,1305040,9363550,216518961,41912,106788392,1937,5505,8935,397815394,23
2438279,112061576,71635548,802413,71212195,822035,1286371,8214133,235122330,49071,101598673,1958,16877,8108,388180261,23
3730992,104880301,91294121,726314,82200998,918808,1791713,10318226,239327234,168754,91815870,2509,6720,11064,350164425,23
1599451,295071342,165148017,1207431,168369750,1122321,262861,4063894,364153041,12081,296350492,478,2646,17865,874230191,23
3444405,290922770,207290117,876005,210019684,897635,993962,8641752,439198347,30647,343068248,1849,6879,24512,926555245,23
3100729,305174615,197040083,843647,204158573,866404,1262842,8588852,449418467,36461,341408638,2605,8864,31381,974108815,23
2827129,283583633,210984303,912114,210794782,913937,651807,6765045,426117465,30116,331596982,1776,8674,17204,897693773,23
4200141,103558117,91181680,535476,82129159,637239,1895395,9283965,249945887,206257,93550774,3318,6734,11381,342959683,23
995184,87164064,65820011,244900,60171661,359869,58583,2887320,134239215,6111,78468172,585,2694,3338,280276042,23
2085793,110255106,66071276,965380,74665303,771286,1041994,7937389,197590375,21036,112163443,1879,3601,11682,386711572,24
3864019,118090439,79559028,424837,79188851,426681,1617194,6855431,249413446,38594,110009124,7235,12941,16535,421110877,24
2126111,111095397,67114376,885564,76010049,719385,1088417,7880986,202158311,24061,114594589,1866,3586,9047,394510850,24
2659378,296581589,208501136,853505,208601568,860901,685426,6681109,414876686,26114,328674917,2053,10965,25276,910532645,24
3181040,115293871,97756291,583179,93205144,589143,1806577,8563115,269140672,81981,113929811,4228,17244,29608,409117935,24
2973442,107690718,88778952,493075,81662103,794693,1769753,8422785,229028181,77624,99571386,2684,5311,12592,369566681,24
2567219,311042094,214122408,844737,213633595,856738,1438170,9740002,444237388,33213,345232462,2522,6148,27940,993738372,24
2660617,111123149,79140375,1807102,78670006,1902233,842006,6342976,232355846,15643,101324652,1958,4172,8476,390135609,24
2784126,295824228,206473236,837427,206596696,837450,660653,6702564,412944050,27166,326580080,1951,5595,20025,912391925,24
3048189,109506694,87817940,500366,84258773,790606,1697177,8581434,228596057,76659,103216079,2684,5449,11022,373574139,24
3104501,109827517,90843852,573890,84550167,740157,1432198,7800151,232408274,65556,102541776,2489,5228,12632,373835128,24
2817379,284668350,208907141,849520,208636743,850616,659818,6750893,414227960,28380,323135862,1861,5675,22179,901617314,24
3350656,320444275,211729998,1078113,209660826,1028287,1253358,8460694,476072060,46080,339570142,3160,8104,27337,1014292445,24
2654755,120581248,93448570,858819,94936988,1114812,1831777,8682251,274575975,64782,126863985,2683,5024,10344,422309488,24
2540402,291348739,207529708,846893,207889627,848897,658401,6777365,415943795,28812,327361118,1859,5865,25733,913861078,24
3147277,287573959,207223986,842533,207081854,845033,624792,6744807,407964330,29704,322937951,2052,5715,29034,895451095,24
12122207,237853815,180991198,8239734,180675740,8154680,9269281,27614791,1009503478,1017876,237275877,8737,20714,62154,783287401,24
2677826,287827292,208216069,889306,207835029,890547,762762,6909620,417940602,27720,326410715,1854,10036,20318,904434779,24
3198196,130472922,86631006,538483,87550878,541567,3000989,7961973,275094351,258029,130115944,3993,17338,21748,467500692,24
2064989,108960322,66970750,1190293,73803391,907997,1213402,8316367,205795587,22499,114855308,1977,4495,10507,393419419,24
3334552,310117044,213082085,1556421,220792442,1370790,1160244,9153044,472762364,34295,358694444,2831,8094,31428,998332878,25
2442048,137478021,70586163,666402,70305691,811739,1467691,10914072,239837733,68366,123895294,2217,3245,8878,490503967,25
3196762,310669189,226083811,931006,226713434,921833,823204,8035633,473965019,38117,351324193,2235,8340,33801,987164562,25
4701433,315565285,246421150,893994,246625016,903261,2693019,10635026,558870648,79414,360507266,13663,42189,66928,1028545712,25
4090915,307955952,218964001,828630,215439226,854747,1012057,8293986,443257635,36038,339090152,1873,6913,26082,957550895,25
2463392,138547728,70884869,602766,70747011,728432,1531179,10400101,240974070,71564,123346306,2530,3438,8074,485243339,25
3249706,325113083,205661829,1506234,206559961,1525538,1858065,12130333,487154381,68277,356258667,3131,7504,29299,1064071418,25
2834519,348795955,201676091,1388553,201441554,1493319,2181641,12019644,499300008,194508,336231489,3030,9739,24485,1085684434,25
3758185,142978697,73726756,522328,73789979,587933,1266565,8418822,252845635,69271,102766787,3201,4078,8149,472614712,25
13775450,179387822,113247697,5562266,112796884,5543617,8580244,35059163,856715355,1115870,164852585,4854,13098,33298,604469985,25
4452276,91154197,113658452,544000,108002500,559161,2107323,9563132,284612298,108191,120816079,4666,17010,41284,343559542,25
3153436,310264586,225351743,937286,226937356,907694,741291,7768353,467701380,31515,350527833,2431,7909,31510,986775360,25
5325512,105715658,99065354,528606,95394775,529671,2645300,10215187,284317125,161053,112052310,4598,7307,20126,362475231,25
2736866,132641164,86167286,833522,79762222,946032,2151235,11829015,245297563,177478,122263537,2520,4993,11817,468271640,25
5312563,346887213,232093702,1224701,243989229,1257257,2508226,17799851,576422882,122259,379400783,4545,11102,38373,1130967646,25
2581536,115531794,69111945,1192555,71904596,1023252,1196699,9750718,229384574,42673,137320699,1880,174907,8545,446386422,25
4060654,105543274,137027856,490783,130006741,534056,1853228,9051678,290425955,109427,117302980,2997,8396,28072,441438890,25
4672051,105528539,124904116,516809,110786466,507648,2411570,9575351,289226755,147806,112201006,4413,9055,32025,372055258,25
11204812,196092986,179913770,12580534,173789048,12800277,2675906,25768771,915181066,327098,197864342,4846,11059,31923,716122154,25
13457810,153509241,96359598,2862058,95518551,2889584,2314570,41041133,402662050,237058,167123464,2432,5256,12219,558099564,25
1969241,102143795,77684665,366516,76696123,402663,1158032,7114427,197449472,21880,108682441,2451,3538,9391,367621865,26
2265512,100465643,74697889,440791,72426081,464421,1456634,7515344,202316812,47529,103807758,2267,4417,14181,359267905,26
2308625,104044562,76868583,471398,75118495,457008,1713432,7663138,209599864,53619,103591742,2913,6517,13457,374731107,26
2475864,296048835,199080883,871969,198306517,872985,582860,6308082,396225164,26330,313322702,1851,6401,24050,900876736,26
2216522,307853704,194226853,1250645,197062078,1269467,1080985,7470634,432855271,57032,318567678,2483,8991,29703,939445862,26
10745307,359054294,245719630,6471874,244809003,6552141,8646051,27044004,1050168521,1225810,357434012,6971,19648,50484,1115189149,26
1943823,89988608,90371777,381187,88256785,412264,862686,6931192,194445616,16098,94256630,1936,3263,9094,409510521,26
1918137,99466674,76061384,417504,76903710,442662,738757,6247119,187976000,16326,107027816,2063,3106,10508,352175100,26
704231,46270243,21971313,92501,27783084,101491,498343,1227554,79502411,3671,59578271,2947,1607,5148,174546022,26
4103636,101900285,88904633,879600,83128954,789849,2234960,12612125,279864735,168910,107036960,4043,8093,31459,360083958,26
3393385,127367825,73206320,598355,72499847,697577,1307418,9480572,243272891,78339,103836565,2800,5154,11500,428743342,26
2437917,295123282,199681962,857922,198963436,862829,529843,6318065,399529150,26992,314422593,1857,5953,23732,907917793,26
2446226,294168009,199950076,869137,199676040,871719,550808,6347695,403485717,28529,314725080,2071,6215,33632,907745774,26
2277062,101335137,73562242,433667,73336738,453505,1588900,7486463,205805907,52452,102901848,2469,4539,13169,365323490,26
4095162,316291273,213754472,985216,209522901,956959,2698177,12556725,544579834,254820,302902975,2937,9766,34099,959247344,26
2307364,104137014,75834882,464932,74493704,457679,1563968,7495334,205704857,53559,102703566,2657,5196,15667,368978870,26
2188408,306299865,198180290,1289805,199388481,1296639,877428,7060041,429701672,58121,317661386,2262,9326,24891,933977323,26
2839017,271309268,190379203,975658,190181206,984183,912876,6862305,394417800,68352,286178232,2646,8258,18160,844215824,26
2177689,113209475,62437464,776350,62659838,935668,1298186,9626783,211099813,41281,105389743,2053,4637,8922,391820560,26
3608833,118200458,80833831,490030,80217643,486088,1801527,7218018,257421077,76810,115482645,8089,9892,38602,426413168,26
1767771,134325181,137571050,284921,131446184,293027,1265898,5927328,284957306,41830,163772191,2242,6677,11652,503701061,27
1725425,137423840,136665250,281423,131147926,290724,1308859,5942040,286409454,41696,164817328,2243,6078,13342,510817943,27
1372370,545710034,339945266,2163925,339692149,2166508,592497,5458438,670267677,25122,537038096,1822,12662,36182,1651814319,27
1505337,536953608,319287235,2598574,319551446,2631236,1036794,6144472,670822272,39365,510407210,2236,9612,30943,1605486492,27
1624692,543196890,318326851,2346333,323766756,2403453,1427947,7592538,677633777,40616,528250667,2238,12546,31257,1625360217,27
1799479,139406227,139986573,287758,134958200,293198,1303397,5974769,292197909,42965,173536693,2244,6612,16172,527519225,27
3004512,151193170,124491451,1500960,138290491,1108298,1262240,5208510,316142789,49664,200289098,4142,13810,36274,588451658,27
1824945,536125995,318122322,2414069,317981413,2170203,616972,5515314,645679206,24153,535320542,1821,89811,27994,1620846383,27
1519185,135417406,131778080,280810,128705778,298572,893201,5829980,277458329,21224,161018863,1832,6365,13967,486162295,27
1563821,131593872,134480307,262439,130397052,287471,852526,5689338,280898680,21157,167487810,1835,4998,8309,508718454,27
1754220,137469413,139626778,292847,135278888,296395,1264377,5920872,291435953,42876,171092343,2239,7696,13198,516094737,27
1920890,528869691,319011828,2410888,322977754,1909425,568484,5249928,644184174,25813,542035652,1821,12454,28933,1629780342,27
1825027,135214518,128133524,281821,124793533,302824,1274889,5991658,278695956,42676,168239448,2245,7415,15649,509374274,27
1766461,135946662,140030433,285881,136752172,289231,1176055,5866510,291187309,42946,170547745,2240,8197,18224,513624381,27
1723218,133108440,138313766,285533,132147830,297569,1253647,6050931,286474266,40959,162612394,2289,6074,17645,494571065,27
1697733,138469894,141686076,279740,137677108,289941,1181427,5919555,290327224,43068,167887352,2242,7019,16872,506290438,27
2031229,142226597,137938540,486090,140821237,423612,708756,4817289,300998632,42823,183249420,2437,9423,18664,520787771,27
1520024,536365936,319887710,2574498,319765196,2606381,1224925,6592014,672895525,37868,513589918,2236,13212,23394,1611331283,27
1789934,134919800,137571704,280659,131741987,291055,1277278,5962578,288513127,43213,167529701,2444,5866,12055,514267007,27
1610657,543866089,321266485,2199747,321650601,2201396,1130434,6357185,660901313,39935,528169250,2260,9220,34896,1662491809,27
6235324,495195946,544256238,869234,547155294,867224,121394,17170192,856463229,116795,521545888,636,104299,313255,2075708384,28
14874559,415270725,313290685,783983,320713554,779835,95931,39148558,598224690,109718,484517942,633,315551,227467,1113099195,28
15992251,432890959,177741659,631276,177908277,636912,123644,37132642,608814348,109194,494329165,632,291999,220079,1414162302,28
7157736,229449517,262705552,712133,263469025,698283,41985,14556959,463995503,113153,232233133,631,98697,5330,1033518953,28
7206688,462714203,403851168,1014070,403715836,1012296,55716,14075107,720972756,122926,439370734,622,108311,10086,1719624972,28
754626,294160004,410855104,1022675,411317145,1024831,60657,2329178,557003171,14001,310474252,646,5262,3503,1188450009,28
16310080,427329400,163556751,405252,164944136,402856,101599,37661102,409882647,11450,436471661,1548,2906,2536,1462999063,28
15179796,431475155,177626565,635804,180838353,634411,111498,37070806,676948665,113590,465093929,624,189969,330139,1466136930,28
6242049,289392693,401846011,522654,395978745,537893,86231,14992822,581165435,16484,286067268,630,3803,3059,1335078009,28
14636482,498157638,369207404,843509,374857421,842576,100538,38734618,675750433,112680,549007518,626,110816,5544,1313529769,28
17483056,534854552,344510889,766167,344478941,765770,381025,39289562,798093391,124208,526471814,1119,106768,11069,1503261658,28
7186849,357608724,346309575,681538,346943862,682131,52135,13056422,399697284,10213,345336495,631,2587,2904,1430114933,28
258664036,530467963,208922767,729001,208984092,723421,150971,83385843,1157508435,125652,549935199,1083,101451,14179,1903776398,28
140588431,439402214,138511701,466232,137624925,469754,960301,77865279,1162627538,30412,430616494,2093,7241,4856,1732097757,28
16408569,425387310,163597941,395796,163606580,394902,55223,32297777,398300535,10785,428257760,633,2825,3056,1436174536,28
17404330,559943507,286417092,511098,286704187,515715,43264,32977115,469891315,12330,555264994,631,3874,2678,1319856494,28
15956900,519968790,219198274,640301,219189443,639714,45074,34476775,729671882,122756,523349474,623,108608,321620,1721267844,28
15983648,423159253,163593999,404818,163706491,400263,74277,33414769,401428688,10747,430191225,631,2757,2377,1444565010,28
6865679,283619207,236074050,372847,236720688,372584,54723,13464993,395829473,10605,289623258,1126,4486,3401,1090621632,28
16424507,579574293,298116379,747078,297822153,756963,76102,35188313,720767415,124189,572388177,630,318155,331715,1269611268,28
622843,87794916,54901765,43666,54866679,42423,1088810,2895946,138836446,31795,64916656,7465,16123,21832,260312371,29
396107,78568899,45224190,26216,44112734,25478,103260,672259,93544461,10797,70151981,1959,2272,5475,282029016,29
458307,112679333,70862371,40183,74714921,36319,361196,1418914,157242966,9978,125575099,2596,2800,9967,383024964,29
336722,74535339,45438787,24059,43847022,27669,98510,904923,90295670,10226,73660239,2054,1382,3902,281915949,29
1014171,138045793,112253921,67400,103987031,61014,1103354,2741362,197443773,26525,143485220,3482,5413,22113,486835832,29
486985,118335623,69778281,45018,74875248,40034,486357,1738815,161290530,8645,130210505,2598,2712,7992,406606678,29
428373,116330125,77561652,36616,78662119,34142,274869,1342612,156903400,5271,127159077,1951,2055,7364,388270645,29
376697,75830479,42917768,30423,45030112,28384,179829,876834,94342821,18426,69709478,2602,2884,1358,267010302,29
447837,116734702,76056456,39593,77629311,35574,172674,1023747,153499242,6930,125574684,1952,3086,6682,384830061,29
412796,115170977,77358217,38657,78612596,35618,278868,1264727,156250262,5299,126343403,1951,2881,8917,388560694,29
345491,73079576,44953945,25181,43546767,23385,89040,768348,89771881,9365,76450262,1958,1508,1111,286210262,29
1222846,136690589,106358502,47408,104766966,61192,1153178,2675651,199280511,28007,139706861,3872,8290,43062,469925258,29
551316,70879669,43225740,27882,45011466,27486,173654,866578,94194307,15679,62819445,2994,5128,28091,249438436,29
703744,68515787,69001047,31585,69455262,30570,548395,1972578,131029400,14302,90491323,3491,5688,17090,285497573,29
401063,114351104,78526503,37555,79255965,34762,83199,765587,153835302,6422,125340642,1952,3285,8416,385205553,29
837153,73517219,73163806,35949,73518789,35214,391751,1813231,136830808,16196,96726088,3686,6164,23531,310890818,29
444263,75947390,45518109,27308,43952000,27634,101304,748000,91267200,10886,71764108,1957,3228,4162,275382302,29
196408,71111669,44069668,23091,42759920,24586,87974,843437,88479572,9028,73240409,1956,2292,1539,280447204,29
436080,115279352,78130492,45918,79507911,39438,131307,878779,154937506,5501,126722588,2087,3256,9006,383612209,29
805739,72030895,71998894,30842,71264516,31888,708748,2006564,130257697,16450,86639813,3488,6178,22903,282027332,29
3989157,239627623,178473553,3945845,178556822,3949124,908599,8956708,477395215,72381,256218159,2574,5898,7559,925870015,30
12020036,407647495,229150577,7217325,237108376,7310971,3241184,24502421,784520488,397505,421577573,3652,15401,5978,1407177614,30
5417955,733163553,466980456,4804774,467369620,4800247,1605445,13050258,1204299835,226848,758589702,2568,113153,44448,2342989427,30
4887593,28546832,55953778,2938623,45964339,3196828,1076588,8866790,181016000,22894,29365581,1820,1284,630,192211526,30
14023541,796857863,487829781,5573147,489053730,5593967,4392225,27728462,1395381939,751280,812502943,3983,112236,33848,2619066011,30
4771473,764477642,439524386,4953020,452414330,4972174,1772017,12587560,1226321767,198560,773182928,3645,112290,26167,2373733363,30
5968046,223466454,150450552,4098085,151261210,4108905,940344,11919887,630230934,153512,224453972,1698,121418,314183,755011769,30
6942388,296473259,171606982,3555404,163040862,3505765,3157520,14612170,523396143,141357,273180242,5997,20292,9679,999462876,30
4391504,255900961,174612651,3824019,174880128,3815838,1371812,9855448,698489633,190985,269704855,4041,109127,126042,929429913,30
8849173,247229252,183915410,5051548,183874214,5049866,754397,14965327,501433613,25773,249079634,2278,10412,26088,972536112,30
10680913,253420109,158487313,2197693,158442471,2199265,3149178,17528402,504064756,353493,262795549,7824,8630,6098,950313680,30
14469931,216601030,206136372,2575122,202157495,2634462,4684405,25212593,579046420,1355923,219551507,3404,15631,22421,973287631,30
4443248,747237447,427948052,4780378,439846178,4803152,1819934,11840595,1184967426,201512,739812233,3449,110197,44690,2314875220,30
4150235,230994710,164525806,3930687,165062653,3935808,1213393,9051777,487305962,74533,249832026,3654,8799,5741,884407530,30
10229392,336607713,192622149,3298535,192972546,3374418,5338743,21678969,595295398,495234,346370943,6388,6218,8313,1186403071,30
12900374,264657156,177691436,3794286,180289715,3861816,3822339,24600991,565321131,488298,277442753,3404,7760,5004,1003353872,30
12237276,267332528,195918619,3399919,197737785,3438880,7919896,26709585,680802737,3627281,262652395,6668,10702,22820,1164645508,30
7218738,753596012,511331785,2131963,511371236,2131912,182278,15478492,1211926550,130690,773792005,356,107614,55245,2741197293,30
3795691,707220796,448630967,4812349,448653311,4812740,728360,9994346,1194017200,162038,724581185,2569,112104,31792,2245816180,30
4784318,273274211,190022402,3995898,190317796,4001539,1349253,10220508,730492655,210488,284993247,2572,109356,9345,1031335825,30
226590,14427703,52648178,6386543,52609609,6416393,28019,1643129,477600978,12425,11573144,129,4253,4006,210644541,31
58054,16073538,5657646,77113,5831615,76658,45030,619219,112638256,5800,14960489,129,718,442,55443628,31
297031,448748447,313137834,7320629,313454690,7295655,43404,3135602,970643770,23892,452864716,136,6672,3019,2066178951,31
166302,14546172,58596509,7202950,58478228,7197604,29178,1628036,492941194,12569,11517411,133,2997,1108,213482603,31
191449,15370045,56205734,6461907,56032618,6434506,47110,1563735,475429593,11938,11707078,1111,4080,2028,281840847,31
140882,12633460,57634861,6953763,57329814,6959412,47853,1863694,509447503,13050,11595939,133,3079,1309,265083468,31
140828,13856715,57540642,7118934,57499437,7095366,26755,1701660,501371825,13057,11530520,134,3007,1652,201510149,31
210779,14648497,59164439,7294568,59047789,7329102,52951,1788513,487934330,13087,11602805,126,3004,1545,214871012,31
173479,13040419,56871986,7082066,56780065,7055070,27332,1821289,542272103,15807,12092469,133,4166,2577,270312080,31
183945,14418080,46241973,6489188,46247406,6382783,88078,2035803,531492940,16013,12222779,135,3723,1616,159313097,31
83919,36247822,16875865,99001,16836925,99112,15932,478484,133054301,4777,37291407,128,1793,1590,148737234,31
179368,14043059,58502824,7070954,58303451,7049723,40330,1845604,540284761,16197,12226225,133,4627,2641,212539266,31
141290,13787851,57508878,7051561,57348905,7077855,49548,1924503,508280142,13310,11491622,134,3398,1677,214297106,31
1545922,12208498,34207707,78115,34093144,70802,883866,3752730,104906013,34878,54145540,6147,11248,47173,82164431,31
187005,5100029,5080116,33274,5032290,32187,11830,286601,46420191,2819,9390376,134,4885,3783,35719815,31
177299,13928708,45816991,6432305,45475353,6469800,25810,1838686,544288816,15542,13143379,130,4458,2593,215894091,31
173931,14436630,47564105,6573832,46941281,6534064,188525,2069087,532251871,15808,12235428,133,4050,1677,228077149,31
157260,14156952,46734868,7106211,46888548,7073705,46492,1895653,520375790,15280,12090518,135,3320,1289,155661048,31
139529,12614507,58681949,7086539,58223443,7105825,51307,1891632,529722233,14803,12021734,127,3676,1371,269541275,31
259229,8999373,4995057,51008,5079367,51427,12371,294339,49619331,3088,12422408,134,2480,5993,40846979,31
