@relation problema
@attribute 'L1-dcache-loads' real
@attribute 'L1-dcache-load-misses' real
@attribute 'branch-instructions' real
@attribute 'branch-load-misses' real
@attribute 'branch-loads' real
@attribute 'branch-misses' real
@attribute 'cache-misses' real
@attribute 'cache-references' real
@attribute 'cpu-cycles' real
@attribute 'dTLB-load-misses' real
@attribute 'dTLB-loads' real
@attribute 'iTLB-loads' real
@attribute 'iTLB-load-misses' real
@attribute 'instructions' real
@attribute 'page-faults' real
@attribute 'power/energy-pkg/' real
@attribute 'power/energy-cores/' real
@attribute 'duration_time' real
@attribute 'user_time' real
@attribute 'system_time' real
@attribute 'perf_time' real
@attribute 'class' {0,1,2,3,4,5,6,7,8,9,10,11,12,13,14,15,16,17,18,19,20,21,22,23,24,25,26,27,28,29,30,31}
@data
254456375,322374,158199635,1024511,157313364,1026191,138032,921215,508981690,918113,251210622,100,423576,781908147,130,3.56,2.93,158427883,136702000,20954000,207313578,0
254747964,264396,156446704,732419,156473243,728930,102117,774855,492762708,1284057,253214625,46,10948,774047591,127,3.43,2.84,148851749,122399000,26085000,169498113,0
259206484,440735,160450659,701045,158201656,697753,133766,832437,489672000,1193216,253334745,42,12575,786007237,715,3.42,2.83,147335497,121327000,25856000,167379283,0
256216770,285912,156867794,710867,156797240,712298,108427,814374,517925970,1326104,256390413,7,310571,780022358,128,3.64,3.03,154486636,123068000,31017000,174599331,0
252954746,311045,155953416,700208,155733869,695085,98200,751535,514105518,1125136,254664369,24,291418,775162007,127,3.65,3.05,150483526,121343000,28843000,170109525,0
254181328,319676,156467500,739092,156036402,739792,113246,825146,517239043,1405950,254776118,66,256001,777331015,128,3.61,2.99,155058675,124648000,30156000,175646803,0
252326932,321844,156483826,910816,156391005,908521,105348,813689,516315807,1042567,253068264,24,531276,779848782,128,3.61,2.99,155056463,134746000,19962000,175939090,0
253163663,277517,156663236,997990,156249441,997838,109841,791676,514482620,1302566,252073082,25,467578,777825011,129,3.66,3.04,154485200,126389000,27865000,175472749,0
70517292,209983,46192993,218568,47096002,214947,49243,290457,112109194,17039,71883332,30,4136,249480920,135,0.8,0.66,36002931,34783000,993000,56743634,0
97493776,233667,63913953,459843,63811071,457739,80323,547783,303442621,1413714,97551676,858,313087,335435432,149,2.13,1.76,91967493,62491000,29229000,112112579,0
255941648,331818,158497435,943058,157994235,932806,105214,811149,526326548,1235845,256156024,359,501509,789252955,129,3.72,3.09,157555943,132446000,24895000,177428046,0
253277390,308902,157086714,901883,156991363,900712,101363,772723,505516505,1170001,254430347,147,217177,781046128,130,3.53,2.93,151515763,123156000,28035000,172246225,0
252182300,296072,156337056,912521,155961067,910245,114069,812847,517182379,1301633,252162628,5,465191,777204362,129,3.65,3.03,154917032,119718000,34917000,176868424,0
34045397,257970,19923022,220035,20998040,192413,58406,250031,65560425,23840,40947927,176,6277,115047948,593,0.45,0.36,21570058,19297000,1929000,42720220,0
70296519,193245,44279913,185705,44915466,200935,65273,330864,108625947,25068,73282165,47,3056,251064469,330,0.8,0.66,32124788,27898000,3985000,52088332,0
70535222,194361,46547716,207778,47052025,210182,50375,298259,112529766,18062,72539464,163,4234,249831800,133,0.81,0.68,32631693,32330000,0,52850744,0
66165540,202312,43835564,208937,44345149,207468,55019,313892,105811934,16838,67807242,1137,4248,233582856,135,0.74,0.6,33837691,32553000,986000,54081348,0
69155181,191975,44012279,226785,44444501,224803,53139,328255,108706634,20363,69175080,2247,4930,237013026,133,0.78,0.64,34936690,32658000,2041000,54631508,0
252825673,320281,156092611,716539,156120384,715868,112277,781506,517406363,1217853,254861679,3,297766,773450933,128,3.66,3.06,151906532,116812000,34647000,173533141,0
58766330,177641,57527390,215602,57230631,213545,49433,306710,125484778,22551,60713251,27,6809,294629169,131,0.91,0.75,39441423,38081000,1002000,59705080,0
151978426,365512,36001817,2181533,35844115,2154755,173771,1484322,1110825974,46167,151426467,269,15367,285508797,133,7.94,6.65,327419081,325893000,1002000,377975363,1
35562909,124342,4949248,157870,4895546,167224,49257,418582,262017987,12082,35654909,93,4211,198827976,63,1.79,1.48,76159403,74973000,999000,96597381,1
37911415,133258,10485147,126150,10250524,118334,56076,422660,263834039,18465,37896805,50,4584,256400333,128,1.76,1.45,77891542,77653000,0,97653274,1
26744627,131370,7483355,142652,7109355,128115,41996,303374,158455389,11687,25978691,20,3152,143951415,129,1.09,0.89,49730691,48524000,990000,70181923,1
2861885,155757,7138470,134243,6941524,131911,63611,479967,302618330,17226,2807195,57,4739,239936908,133,2.08,1.71,91980897,91699000,0,113032646,1
326600141,487935,87715591,498017,87984877,506277,244278,2000605,1507721050,59103,326384068,79,19762,977076715,133,10.63,8.86,445406436,444183000,1000000,464688809,1
23062808,123315,3318336,92855,3338914,92416,42435,314588,143841169,10917,22933779,0,1979,100365445,131,1.01,0.83,44803178,41630000,2904000,65447543,1
4765943,320127,112383072,328238,112349930,318567,159194,1291293,986359466,45615,4859867,45,12505,1087647458,131,6.47,5.31,289357679,288062000,996000,309548249,1
224030136,407682,123759438,1222372,123725495,1220842,181716,1410997,1095415116,38497,223827570,3,17544,1193872190,134,7.15,5.86,324638637,323292000,1000000,345133759,1
36349913,212300,7127438,237547,7119558,226170,72937,495488,319161769,14245,36195481,1,6944,159317655,191,2.16,1.78,96110476,94242000,1691000,116012131,1
874154407,9154138,321230086,3447565,317700228,3449896,3604507,13582788,7571321990,1590960,873108798,31084,570203,2446047401,17443,52.23,43.87,2095696560,2092938000,1998000,2115660645,1
70584494,295206,16388460,289224,16419706,285475,138138,1136338,808770325,35420,70649251,111,10056,193835337,131,5.78,4.82,241058288,239892000,999000,262730216,1
211720862,292332,152819459,816541,152890443,735211,139265,1147787,842454627,38060,212775799,200,13129,940171808,134,5.91,4.91,247433323,246172000,1000000,268535680,1
25552689,172341,3773754,146490,3762065,146506,68891,515931,324678942,14873,25376565,23,4434,286487546,136,2.36,1.96,99070571,97919000,999000,119276989,1
382376067,597426,122478998,579585,122496694,581005,283823,2365273,1799843228,65425,382283763,174,22399,2449815777,131,11.87,9.76,532790969,531485000,999000,553339700,1
772152889,2002161,246217530,2004555,246289829,2022889,987765,8441008,7083605718,250331,772757173,1101,94455,2033738638,158,49.91,41.66,2077022602,2076711000,0,2097270414,1
20239155,123710,2700655,101968,2649961,91380,47930,311686,162752316,11654,20373528,10,3246,51760014,132,1.14,0.94,51426569,49174000,2007000,72668822,1
34734649,175763,3606142,135363,3620783,134675,66147,497630,282124518,16645,34313162,0,3668,215132854,129,1.9,1.55,86477799,84182000,2004000,107347094,1
29881424,149506,4914931,205301,4910940,203184,67006,492025,274821336,15278,30160520,0,3448,68377010,132,1.96,1.62,83904977,81660000,1991000,104692988,1
25114792,95265,3430343,91618,3442302,91606,42668,282808,123779445,11711,24922794,0,2109,131976620,131,0.82,0.66,40466486,39112000,1002000,61254906,1
322762079,874025,168707851,1424438,171504497,1300971,186932,979426,494262238,71384,310396296,46,11080,878920625,908,3.46,2.86,153508984,148768000,3993000,202159794,2
468402850,699564,239802892,1606596,239166446,1634792,173507,1259083,740384702,56517,466535686,206,17322,1354369182,1001,5.2,4.33,220852462,218546000,2005000,241955379,2
787034325,6751758,412931862,3682746,411680587,3656733,695481,3821623,1666071615,644474,786519314,1507,53712,2378457022,2867,11.65,9.72,487482245,477210000,10004000,508005252,2
206290937,949109,98457299,1771411,100164408,1801240,239960,1327446,382656919,123308,209657050,4613,36451,583036266,1646,2.54,2.16,97072844,95586000,1006000,114897992,2
320108632,750075,167419693,1443453,166625410,1510233,167170,877712,491151854,80960,322824841,83,8735,883589311,909,3.57,2.98,144525949,139215000,5007000,165289136,2
207002840,502728,111231314,1477936,110756868,1534528,103138,629560,361336070,30505,207631918,27,8800,641403514,521,2.58,2.14,109504670,106241000,3006000,130007768,2
450187777,562668,233462212,1590716,232686614,1532593,172237,1101483,718634459,54430,452424533,120,12675,1303836306,518,5.17,4.32,213649802,211400000,2003000,233491691,2
472309653,1112073,242724773,1678192,239324158,1726865,223936,1344613,742695287,72468,473735548,113,18654,1377074840,1905,5.3,4.42,221341916,219140000,2001000,241951338,2
473115655,682735,242310002,1586847,240861330,1631677,175518,1237042,741557337,60954,468320781,138,15865,1362829290,1001,5.39,4.5,221820844,219484000,2004000,242765726,2
338742644,869181,168350000,1501811,164826969,1531041,186229,1037389,561263653,66418,329779878,48,10220,989070130,915,4.05,3.38,167711956,164391000,3007000,188018699,2
280095041,997115,135116978,1573076,137215082,1441596,143069,955343,482795016,57416,278997741,2158,14303,805208761,1430,3.5,2.93,141169689,136852000,3995000,160752884,2
575348846,1473195,264603512,2476002,264750226,2550992,279354,1610636,916532571,97560,569991618,5559,26064,1634660110,2333,6.54,5.48,266760848,260573000,5990000,286796022,2
499940630,607117,254903763,1509005,252832337,1605058,164914,1233812,786326936,60941,496089666,924,15683,1452298645,520,5.74,4.82,229353009,225888000,2998000,249628641,2
323193642,906507,165883613,1601000,165747734,1499159,174396,892876,496026786,69483,322157018,308,11084,896269667,956,3.53,2.95,148266812,143946000,3998000,169164329,2
317802048,484936,166645845,1470136,164982569,1542847,129566,822452,489903439,50034,320890180,231,9712,882111837,518,3.61,3.02,144828786,143432000,1003000,165696472,2
339932529,897108,168316681,1466972,164403053,1520319,186079,1011535,566889160,56030,329425555,155,9951,995032012,915,4.14,3.46,169021632,165696000,2994000,188968777,2
333483081,912009,166473852,1506110,163752932,1543403,197605,1058698,565718230,64193,327331205,5,11132,981087898,915,4.13,3.45,168999413,168674000,0,189983089,2
603588919,807972,269057932,1711699,274055031,1693963,191789,1549768,1067663155,78832,606264801,19703,20134,1705555586,783,7.72,6.45,316332311,313978000,1999000,336758658,2
456135529,592468,232294828,1673155,232504167,1585083,159868,1131790,725958820,55424,460195842,338,14066,1323236754,522,5.31,4.44,217182317,214783000,1988000,237109039,2
201035590,788247,94467395,1556490,91833298,1470055,151739,720873,335980755,69189,197300371,3,5504,565882875,914,2.46,2.06,98888243,98572000,0,121160342,2
465620832,5285006,261652081,2891465,261105406,2926259,860515,4860336,1096881251,1032132,461421500,4637,52815,1443026277,3385,7.65,6.37,321828746,309304000,11934000,374611329,3
499616180,5267583,281293142,3141580,280111819,3157201,762206,4801304,1171078983,1028363,497888347,598,44191,1564158020,2479,8.22,6.82,346672614,342357000,4004000,367083458,3
544311675,6193763,301732634,3017074,300663379,3002206,860175,5456983,1222400342,998328,544662803,1192,50636,1641903561,2870,8.58,7.13,362629552,352391000,9982000,382510548,3
424404277,5150851,239847666,2865286,239590920,2869245,715782,4405183,1022306530,974606,425870187,214,48150,1306926757,2477,7.14,5.95,299236285,289019000,9966000,319616918,3
559288571,6064009,326967069,3497277,327193001,3501359,844444,5761963,1573147063,3192634,559788140,2065,542489,1744164396,2477,11.11,9.24,460354896,403954000,55993000,481722646,3
650659166,5331172,374193253,3157154,373907028,3141930,798908,4962787,1315683447,1017784,650557684,182,51341,1961498058,2669,9.22,7.67,387455214,379079000,8001000,407616907,3
767470703,12705024,460895197,5233612,459650621,5242402,3480435,10087052,2132718624,5383758,768431376,36566,1639440,2400502890,19541,13.6,11.48,511845157,439363000,72059000,532675524,3
571581425,6244401,333078408,3968842,334123494,4073106,1219581,6289321,1682464480,3438678,574356617,8817,1040783,1778954591,3409,11.56,9.61,487191311,432984000,53998000,507680687,3
701646960,5497049,408912124,4095341,408518471,4079303,834437,5537786,1823410570,3415230,702667382,767,1050062,2140342578,2473,12.75,10.61,536800148,481457000,55052000,558029736,3
712243052,5456775,412510020,3651744,412862092,3655675,869514,5490954,1714978929,3982080,712034921,1091,281498,2153585375,2667,11.95,9.94,505933242,449676000,55959000,526157419,3
656518559,5349685,377155944,3143113,377191806,3140401,815259,5040466,1331216325,1022888,655849272,815,73238,1974518923,2668,9.4,7.83,394369074,389081000,5001000,415148906,3
447638569,5164052,256079566,2920730,255762248,2946365,761924,4626780,1131556098,985249,448042470,781,49138,1396710465,2481,7.95,6.62,332776201,325494000,6989000,354166641,3
436149543,5152041,243815035,2958952,247043869,2906743,796522,4295937,1036123835,945246,446330042,2508,47167,1351820350,2869,7.27,6.06,304111260,298858000,4997000,323660796,3
695903425,5478785,404233976,4070904,404323101,4059217,834984,5430180,1718709446,3392523,697411496,690,968210,2133206584,2472,12.14,10.11,508481115,454198000,54023000,528704068,3
520331810,6158199,290283206,3031379,290169990,3026275,1094177,5313074,1226334212,1145680,526482408,3380,60249,1581709399,3649,8.66,7.22,360148608,348873000,10996000,380855725,3
505724349,5325723,290029325,3438903,290022087,3438573,864595,5113966,1475919014,4016281,506042505,1207,617943,1582400652,2868,10.31,8.59,432673490,368382000,64066000,453238105,3
711856090,5453909,411457783,3718656,410616432,3698871,866312,5508188,1779679609,3829632,712827412,960,399774,2163656359,2471,12.56,10.46,525440708,460133000,65018000,546358049,3
501688437,5466184,290390004,3379463,293518389,3375266,944615,5254659,1488701393,3632203,501691519,1499,444308,1569555897,3259,10.38,8.63,438397964,381087000,57013000,458129290,3
540824794,5208467,305499366,3458824,303244221,3464507,842193,4859314,1501374192,4060614,543431719,3760,422171,1686964560,2871,10.72,8.91,445402353,379117000,66020000,466100323,3
510255058,5465234,291864508,3432294,292004309,3417996,802828,4968054,1448029838,3705502,510980368,1672,451421,1580129306,2670,10.17,8.47,427937737,355689000,71937000,448640959,3
362815049,7871394,196376097,2116198,196172519,2157356,2996608,6205564,1042695571,1840915,355623449,98,594869,1137741352,18457,7.21,5.95,306374643,264960000,40839000,360986547,4
371743818,7390441,194209931,1534694,194879168,1537791,2516494,5932245,1026451931,2354300,373678633,1910,71492,1143978381,8727,7.14,5.89,304601038,283227000,21016000,325647295,4
550576272,4978705,305372563,1342501,304194287,1424309,1777232,4735890,1126170726,1494797,551755557,95,58038,1637994803,6565,7.89,6.54,334383402,318867000,14993000,355908325,4
659420769,5966879,293742717,1604608,293148253,1575591,1710641,5908102,1447836783,1891136,653597320,314,47289,1932882060,3464,10.11,8.39,429653773,419287000,10006000,450998118,4
665115997,7653646,362722657,1770959,362012424,1819217,2939922,6945835,1550271600,2010517,672537659,769,85446,1986668099,8581,10.79,8.93,458819513,436471000,22023000,478453237,4
702598471,8721365,357008778,1424150,356813738,1428209,3403622,7659503,1801514151,2535475,701357830,1320,128108,2171151076,13170,12.65,10.5,531575416,502335000,29019000,552012361,4
693141932,10465647,368535140,2225143,369093273,2286570,4016181,8554320,1681638477,2486348,679535595,13023,353072,2056035308,18260,10.94,9.14,438625825,413357000,25021000,461594794,4
387109349,5927526,209187498,1180915,208551502,1177164,2030988,5055266,982960027,1468941,377111831,2148,84085,1199699417,8874,6.9,5.71,292792250,268466000,24041000,312501979,4
481286534,4672964,226423508,1117196,226288342,1124931,1493357,4594778,1097671837,1438659,479553005,2082,49108,1428301344,2875,7.78,6.46,324418552,317085000,7001000,344679837,4
289405546,5399537,159256313,1418884,159158677,1409377,1775312,4676096,769085646,1435413,280900514,186791,100977,901369183,6343,5.4,4.46,228716357,209435000,18948000,248979228,4
507415233,8651989,284725386,1742644,282795322,1723146,3050773,7505136,1190700460,2238166,509447869,278,49329,1519926656,6231,8.27,6.85,347788709,332439000,15019000,367892893,4
351232951,6096504,185301179,941316,184763787,943655,1803840,5595588,939803321,1723134,347464320,1546,40447,1075227264,3452,6.51,5.38,279072717,267238000,10968000,300702149,4
528651217,7592150,295740213,1620232,294435136,1687257,2603646,6571138,1212892614,2213566,529679749,30,61972,1570794620,7060,8.47,7.03,354505411,337093000,17004000,375429899,4
561861173,5402089,308089736,1387630,306962342,1411130,1891079,5031893,1159211976,1450157,556625930,880,74919,1659384878,7806,8.26,6.84,345778592,321433000,23957000,367136534,4
625693330,5437875,346029977,1399355,343560280,1403557,2002073,5258133,1289224601,1382222,630284966,3023,85149,1874822328,7573,9.29,7.73,378087476,359689000,18034000,397809170,4
284845012,4849129,157889874,1060730,157373281,1074778,1664978,4210596,753353590,1478000,286917042,478,50608,894479051,6342,5.26,4.36,220427888,203142000,17011000,240506249,4
306018522,5976090,165722581,1435038,165738881,1333321,2194029,4924663,882755012,2056785,306498779,320,59426,951085187,6772,6.17,5.09,258812085,242434000,16028000,280056304,4
655931385,7570994,364617173,1907087,366480067,1902176,2734408,6550371,1512127099,2139592,646524485,3263,85973,1946979280,8807,10.62,8.8,444775612,426414000,18017000,465255020,4
494952481,5151142,229975666,1257693,230100263,1243643,1551035,4893667,1130115271,1432980,489809713,503,44316,1479461096,2881,8.1,6.74,332446303,325111000,7002000,353098082,4
307844619,5804399,167224407,1126680,166787276,1073739,2172845,5038436,845495395,1686204,300170702,137,65187,954969296,7350,5.91,4.89,246129981,229678000,16047000,266691886,4
575648215,8486781,306893848,1780460,307131113,1806263,3083197,7285402,1477008793,2072993,581617952,7795,132361,1812533826,12767,10.5,8.74,437434563,413759000,22986000,490637148,5
596380101,8436091,334072424,1784595,337199471,1787730,3112505,7741827,1373074774,2234503,612624798,714,69067,1803338994,8282,9.66,7.99,405229448,383930000,20996000,426658426,5
451296717,10304488,250499913,2064455,244950045,2016331,3824317,8165401,1357547559,3189026,442216235,2519,89382,1431876826,13419,9.24,7.59,401520923,374245000,27017000,422112101,5
806355265,8876195,447867314,2096999,445032372,2130059,3208848,7879407,1799922338,2147593,801325300,8266,135024,2456330284,12759,12.76,10.6,526975514,504626000,22027000,547797897,5
597058162,8862147,336680692,1738848,336546342,1751744,3700035,7779811,1395024046,2787792,593529373,232,77205,1797069126,9108,9.67,7.98,414899782,391615000,22977000,435475935,5
381776822,8900290,210850560,2085951,209596726,2092304,3245574,6975646,1161025070,2740414,375739651,90,77592,1203259707,9704,7.95,6.53,345045679,313675000,31066000,366005074,5
428212135,8878201,228873285,2023916,229023044,1949785,3352529,7237739,1217174898,2716367,418375484,212,60706,1336080627,8145,8.35,6.87,358536726,337196000,21012000,380751017,5
374759363,8792409,204390470,1846348,201626832,1869139,3250568,7053234,1153859115,2947709,370812073,5219,76808,1182850951,7700,7.9,6.5,334169503,317762000,15937000,355108728,5
606040349,7821453,337767536,1797684,337086834,1958642,2881079,6994011,1388278142,2315001,607685276,519,1149273,1841155376,8325,9.78,8.07,409178085,386776000,21987000,429838819,5
604352911,9174842,326573400,1825411,326050449,1888504,3230825,7682816,1571665675,2106690,606172786,7087,135726,1908878283,14530,11.14,9.22,464244014,431856000,31989000,485246070,5
343782841,7129018,190767111,1364388,191982219,1424138,2652737,6323226,957601646,2442023,345260011,693,57686,1092123912,6819,6.68,5.51,282997942,268454000,14023000,304517980,5
336931234,8479503,181773668,1657687,183059993,1590863,3071622,7026489,984832293,2312363,338261006,463,49676,1087242616,6427,6.88,5.65,292171910,280897000,10995000,313289968,5
591385157,8292105,331722851,1941230,332019934,1869754,3310098,7341325,1392925302,2604054,598244646,1286,85900,1800890960,8473,9.87,8.17,410247469,389722000,20037000,430749549,5
364543253,8288561,202033398,2113684,198988703,2067021,3004047,6572293,1098380201,2691786,366874524,662,65580,1158706363,7166,7.66,6.31,323477321,309077000,14003000,344339816,5
476716929,10123790,266666218,1633768,267189569,1632734,3932761,8474480,1425952077,3092177,474967312,1188,120252,1527026915,12587,10.06,8.31,420574319,390150000,30011000,441856272,5
634465744,13011880,332012324,1969480,328708687,1945466,5441499,10649746,1796328353,3120177,637140489,4413,141808,2013375493,14508,12.67,10.47,526606379,496257000,29955000,547264246,5
659809298,8973540,370611648,2039461,370731197,2052217,3327796,7668013,1740126169,2387017,658242895,5383,281680,2134174772,14818,12.27,10.19,509851500,475464000,34033000,530992269,5
488505833,10016902,264977583,1645870,264938989,1693634,4134554,8746211,1391193210,2699084,485806737,956,97504,1567064242,10575,9.87,8.17,406892427,384426000,22024000,427933115,5
478890864,8671056,260075988,1608423,258435255,1706610,3451848,7310157,1310583407,2308672,480368347,1033,121845,1528635726,11892,9.26,7.67,382756736,356415000,26030000,402796931,5
484512478,5984822,244703865,1177675,245708247,1196703,1863968,5622770,1197392763,2020157,488221337,4760,57953,1477959973,3652,8.34,6.92,349842490,339542000,10016000,369889326,5
1386872020,3072315,661699603,5348827,663660067,5322207,651588,3317323,1993218685,445416,1392369270,244,154369,3867855683,3254,14.43,12.07,587409202,573799000,12995000,640120799,6
987984667,1330534,529720513,3404518,527084477,3405494,366542,2225251,1479516621,110077,982327804,460,30759,2830961511,1558,10.6,8.84,437405578,435157000,2000000,458114630,6
339421282,2048845,159957268,1756791,156184145,1735811,269910,1145319,513553422,105359,334933166,202,12596,963695489,1696,3.71,3.11,150263618,142979000,6950000,170851586,6
1124210626,15724913,622621925,10069455,623111843,10090494,4585828,14667202,3297354258,3882167,1122240937,7206,136320,3483244180,9845,22.68,18.78,969031426,947649000,21014000,990301785,6
1403307891,15204274,769546546,12207706,773157500,12167151,4483563,14426499,3990435329,3850605,1410264645,2507,148699,4327110636,9818,27.81,23.06,1167990732,1152589000,15007000,1188843379,6
3243774215,11332192,1741898572,4486050,1742229401,4466673,1201775,8191764,6218491471,2275883,3246804468,816,138556,9802771322,3841,43.69,36.43,1827538078,1814202000,13001000,1848623443,6
1357706601,4467804,735999917,5815505,739988996,5842456,672234,4230851,2275804596,255917,1370048444,14768,63918,3923144924,4430,16.42,13.75,659469051,651118000,7989000,679622446,6
1079110937,8459407,509237573,3792179,509167268,3749311,2168576,7113098,2281788845,1676241,1075935454,103009,112914,3198993416,10409,16.1,13.38,674781823,656379000,18010000,696015178,6
1811456990,8910772,800477009,12027998,798934622,12089870,3130323,8487635,3528486255,2055535,1808107931,28869,1015907,5709784343,41426,25.01,20.85,1038601806,988321000,50016000,1059626472,6
2858820618,11087221,1502582647,3914602,1504147397,3919393,1170086,7833130,5733229087,2276415,2864562487,1370,120800,8758266399,3844,40.3,33.61,1682527147,1676068000,6000000,1704061590,6
3244849467,11463334,1738937135,4635173,1740936477,4635320,1220921,8598630,6256829664,2324253,3250911710,5837,167135,9806431644,3839,44.37,37.08,1834773909,1823157000,11000000,1855192347,6
1002237015,6774371,484656563,7415562,482518874,7363690,1945356,6754421,2187271841,1140325,994532665,2478,82808,2963893316,7648,15.42,12.86,638842042,617546000,21018000,659282830,6
1014740605,17473428,539035739,2836699,540319709,2844156,680598,3276853,1900514503,2275541,1008738373,4192,71533,2976752594,4431,13.82,11.56,555704531,543434000,11987000,574709082,6
636629823,2069253,371075796,3391476,370989416,3362422,446955,2566665,1200261481,132380,638234009,4055,33080,2069668769,1888,8.78,7.33,358587217,353200000,5002000,379448558,6
746677270,3026235,363451684,4489709,364921722,4522709,674010,2675182,1354450153,268244,739420007,600,53347,2144479843,7289,9.91,8.29,396764398,378445000,18021000,418394956,6
1504315431,1815034,857358781,6411738,860005739,6383235,526895,3985530,3008708163,1623125,1507806168,664,57072,4525269252,1106,21.06,17.54,884654247,883349000,1000000,904807934,6
1673828603,27991584,899356666,4463066,898528807,4494264,837197,4777063,3042209383,4159480,1678003961,5200,84213,4933799361,4579,21.81,18.24,897055307,889780000,6990000,917818808,6
690234376,2948771,372764873,3012737,364166686,3091295,903186,3077906,1310049149,414535,677235603,2746,52051,2105747310,9481,9.28,7.73,387602044,367230000,20012000,408581504,6
1976195680,26901634,1075020438,9492470,1075446636,9482993,2527925,11527948,4430815104,5718858,1975042721,16274,144843,5953498426,8553,31.85,26.67,1297124387,1282783000,13997000,1318823279,6
1103926934,7772972,625723841,4206739,627642048,4201551,1522036,7435238,2132585056,1598993,1108017807,22677,73797,3245646003,4426,15.25,12.74,627482636,616152000,11002000,648341564,6
3306388420,7399659,947599452,1193483,945766365,1184608,488111,5034069,3346663631,123426,3302036784,185,42636,8269538974,230,24.65,20.68,991566940,988949000,1999000,1045507460,7
9097004016,34062980,3083482939,5232107,3083367926,5056652,8178641,31389014,14028818301,3482638,9107298771,35943,827122,28020399581,100048,101.68,85.38,4078000805,3911423000,165975000,4098738157,7
7187380987,32183812,2566906609,3430932,2565419573,3409380,7310532,25520838,10574523419,2296892,7181305935,709,580125,22262710730,98333,77.13,64.71,3097370143,2934788000,161988000,3118152615,7
2017183560,7262021,1341146692,877253,1339896276,927332,428753,4344805,2831036417,105822,2008827308,404,36247,5921576018,322,20.23,16.93,830854904,829397000,999000,852121707,7
3152706967,17056690,646421417,1717708,649965087,1708255,5950923,13046105,4447983363,2152227,3148867632,1203,358128,10149771680,97894,32.18,26.96,1308806820,1150471000,157927000,1330552500,7
9080445685,32415780,3067178801,4511961,3067915508,4486293,7995585,29535416,13534570057,2479172,9079996716,3876,629968,27937546457,98332,98.92,83.02,3963950623,3795391000,167973000,3984326454,7
5331961258,27998485,1232781836,3281228,1235513158,3334341,7227329,20632713,6376022865,2899261,5326690817,1978,404541,14665473221,97889,47.78,40.03,1863860751,1656509000,206938000,1881233462,7
2002327133,7062908,447697880,844423,447857098,841459,340201,3486894,2224874615,85357,2001691798,570,30112,5557455138,324,16.45,13.84,654922508,653588000,1000000,675313035,7
4713331225,29750850,1715297583,2449783,1715855612,2456322,7071997,21312432,6783240071,2660044,4721834838,2298,475089,14343292168,97885,50.58,42.29,1989534386,1770226000,218904000,2011867958,7
2702202329,7135405,549602935,875301,549360888,871321,356029,3694590,2400659578,90032,2699916347,535,32092,5560766430,232,17.8,14.96,707674965,705408000,1998000,728598675,7
4523585568,22589140,1401183236,2188738,1401661296,2211336,6572779,15341702,6001684847,2463048,4522035002,1755,740107,13138286600,97889,45.05,37.79,1755215894,1540796000,213971000,1776245371,7
4622001133,28196870,802498344,1974928,805171079,1965351,6812207,14720845,5220124711,2178205,4608319921,1638,494843,11726508839,97888,38.79,32.48,1532839503,1320348000,212056000,1554439518,7
4059970931,51212915,1166967008,1527859,1164537488,1519365,679235,28471704,4556519734,202920,4055266510,807,60582,9428509193,527,34.01,28.67,1336798927,1335378000,1000000,1357059657,7
9507840490,30091879,3155757800,3958659,3156017096,3934051,1852627,18924935,13069241278,527889,9508758290,2233,172133,27880663498,725,96.44,81.17,3831278557,3827159000,2998000,3852249037,7
5225732939,23282557,1805498691,2329161,1804074928,2327666,6930031,16296545,6768255139,2495043,5215132109,2204,430062,14147617150,97890,49.96,41.93,1984016540,1768692000,214962000,2004093310,7
7191049388,31925989,2575189859,3479979,2573154004,3477420,7510186,25639190,10368427201,2253365,7190324346,3169,734348,21992317095,99217,77.34,65.09,3037755285,2867142000,169949000,3058577269,7
9085994872,32368693,3067651292,4393888,3067100443,4375410,8159085,29720726,13499394215,2428259,9084856197,4088,811323,27948804394,98350,99.71,83.79,3953098899,3784431000,167974000,3973646446,7
2000882141,7084263,457438633,900418,457803802,910951,345593,3549711,2299353401,93294,2000921543,537,31477,5559926191,328,17.15,14.42,678502580,676179000,2000000,698735007,7
9084365415,33653924,3068130011,4482160,3066441295,4486002,8047611,29450311,13491634139,2426823,9084543133,4433,667017,27948544495,98331,99.75,83.82,3950033243,3800373000,149014000,3970721557,7
5227940365,22483275,1806467661,2414517,1806080269,2411572,6838132,16433514,6766878882,2802465,5215839592,2045,473349,14152749078,97889,50.15,42.09,1982951220,1765797000,216852000,2004076310,7
1935249520,9640272,769545050,11571289,768506412,11548080,2350185,10684021,3398271527,293491,1929113169,3672,82935,5505725032,6390,23.92,19.92,1008940715,995262000,13003000,1059886471,8
806913226,6979219,291812621,8468926,291619500,8445023,1355383,6083477,1367649349,865885,806237055,114,1514184,2164385343,4427,9.71,8.09,404657481,394353000,10008000,425348383,8
896790644,9144111,327001139,8887161,326612778,8882567,1645167,7692912,1457716954,779502,896193969,4354,447694,2408864271,6266,10.39,8.66,431359917,419096000,12002000,452263683,8
552348225,9121375,249918637,7708789,249280829,7692679,2153552,7775680,1544215216,6172997,553026956,999,669848,1709406064,5644,10.76,8.92,455641918,399224000,56031000,475148213,8
615202031,7612418,245696294,6805960,244492851,6801912,1610599,6366439,1180291225,377528,618480377,113,884870,1673556795,6777,8.31,6.9,349997241,335536000,14022000,370474549,8
553857494,11250675,227485610,6790221,227670772,6758204,3363842,9770576,1224520083,2170508,557794702,2710,202906,1409205827,8142,8.52,7.02,363086092,351704000,11022000,383663447,8
2138555400,14692869,893611730,9304055,895984888,9350323,4211097,13979460,4000390864,1602817,2134527058,40148,571201,6270774194,20517,26.99,22.74,1054787787,1043423000,10993000,1075173869,8
1292611565,20473973,623764175,8622479,623618316,8632804,3154262,12970267,2502925771,2841731,1289911458,835,1303832,3752095495,6770,18.22,15.2,737285790,672832000,63984000,757456735,8
508458671,17582977,220891407,6443654,220912233,6454496,3768641,12946274,1122094178,882463,512484081,3523,118541,1562498914,4626,7.98,6.6,332766673,324494000,8012000,353860592,8
1710031897,27770953,883066585,9498067,877957454,9497308,8959446,21723260,3800435757,4291118,1702558259,1233,628815,5647684246,90614,27.86,23.29,1116781506,941405000,175075000,1137543683,8
677388673,18006059,284943772,8980502,284605539,8941553,3161813,12786660,1725047852,2966974,683507580,2896,1245842,2130552836,4811,12.23,10.17,509480686,442155000,67023000,529348901,8
1273635540,7686587,520615279,8522827,518674324,8517054,1825348,8004522,2288638909,297999,1267572178,523,66609,3750659395,6584,16.86,14.11,673746973,660296000,13005000,694941590,8
705895922,7264487,352218605,5667331,351359453,5646370,1562587,6286071,1278187727,1114729,707364894,370,2153516,2152327318,6387,9.38,7.83,378040724,364704000,12989000,398828518,8
1023666474,7617201,437839399,8336796,436179607,8262286,1732234,7679177,2012669012,269453,1017517206,455,47703,2998723814,4623,14.2,11.82,593718045,579395000,14009000,613689186,8
354847827,6534032,162824936,6675043,161796955,6651629,1329967,5316103,804014944,393577,354289223,24,772029,1027659889,4428,5.72,4.76,238983858,230714000,7990000,260034052,8
1036554875,7961988,531973289,6098550,532030586,6101243,1539306,7366862,2085824718,2639207,1036222442,2710,441175,2955356279,6380,14.79,12.33,615238643,545814000,68976000,635705579,8
5011221470,7534712,2379384027,11846048,2379581794,11836214,2236034,15651012,10164630811,465157,5011383888,4708,159900,15112925948,3267,74.01,62.16,2984391745,2976663000,6999000,3004751080,8
893118203,8142241,346033850,7806609,345460681,7858283,1532319,7081733,1692830220,217636,900104544,655,56734,2518095246,4627,12.05,10.04,499407012,483048000,16001000,519550502,8
543785632,7134952,210928043,7280289,208952244,7306438,1381964,5917127,1071807567,833424,544195653,275,171790,1453576172,4619,7.7,6.41,317795123,303606000,13936000,338615303,8
1319821264,11239713,484242468,7017752,483095411,6955002,2667461,10524870,2229584528,280232,1317090242,1010,50667,3392806432,5996,15.96,13.31,657219346,643883000,12997000,677334910,8
156226505,184579,81010869,101594,78587963,109280,87476,453905,205093671,28433,150178102,87,6585,399117005,416,1.54,1.3,61650716,61060000,0,111746078,9
148106154,216657,75399314,105813,75005437,107539,69957,418614,189615119,22824,149446805,1,4741,386583411,372,1.35,1.12,58658593,56408000,1979000,79461664,9
69118868,271990,36785694,100081,37447780,101795,71329,286190,87501847,21170,75138884,41,6075,200742268,609,0.61,0.51,25248189,23854000,993000,46329671,9
148026823,242861,74975057,109894,74958790,110016,70031,412530,186162679,17986,149722651,0,4715,384383899,372,1.32,1.09,57854438,56528000,1009000,78172187,9
155304440,230726,84017720,106667,86158869,116068,74498,432487,196444047,20773,157295197,48,6260,397626208,378,1.37,1.13,61075528,57816000,2939000,80971782,9
152671747,205379,78044450,104170,76528486,109308,70865,412201,191018215,42035,150230842,31,5218,391695241,1352,1.33,1.09,59795592,57529000,1983000,80469553,9
56027068,241498,23071651,67189,21830396,70708,75664,298054,61529037,15596,56543665,10,2009,152604229,621,0.44,0.36,18246536,13963000,3989000,39644625,9
32472210,123623,17722917,69354,17053617,69975,62541,263900,40459106,15685,31919019,0,629,97105280,407,0.3,0.24,14219770,11180000,2795000,34919796,9
182724577,561010,71481345,149620,70759156,155497,249180,789245,283429140,84406,168231828,306,26402,505057129,2140,2.01,1.64,86969821,82677000,4033000,107582412,9
294728774,578848,140255273,253128,139781913,255085,207482,991919,464775045,53884,294595016,10080,26965,825086322,1650,3.34,2.78,139075358,133736000,5027000,159596627,9
148695700,215023,75286342,116654,74928826,116918,72899,433064,188481172,22618,149577929,0,5176,387085693,371,1.3,1.07,58587731,56303000,1975000,79210492,9
52618417,193306,25074580,70199,24452070,62912,48685,241307,61421988,20117,54561938,37,4496,145541707,623,0.43,0.34,20566424,18184000,2020000,40343024,9
156002807,239745,78392525,113381,76846203,110703,95025,448782,202925963,24592,159895202,63,6828,413869088,619,1.44,1.19,62472474,61229000,1003000,82790973,9
249063565,231314,86377104,165360,85893548,166387,87995,660993,382739447,34061,249489070,328,6691,681276865,177,2.68,2.22,115403853,114115000,1001000,136195483,9
19861062,148987,10551933,76818,10969759,82596,71831,244588,35821653,14333,21863267,92,1183,62230078,401,0.25,0.2,12213208,10950000,995000,33006136,9
132782362,1089422,69056698,181697,72070222,175601,456343,999935,326103964,149446,136351774,131,31368,401542758,6479,2.33,1.94,95301347,85003000,10000000,115502185,9
69115712,276517,37837795,99661,38752437,104467,114723,419634,96442920,30826,77499649,0,6390,202039067,860,0.69,0.58,27777861,24304000,2916000,48913402,9
147129240,176133,75381913,110643,74565746,110471,79823,425233,187017354,27452,145395684,0,3916,391833162,380,1.33,1.1,58824874,56523000,1983000,78370109,9
19365498,167669,8918416,87302,9334747,72849,57400,190749,30926113,10441,21736610,34,1709,62648814,408,0.22,0.18,10218697,7994000,1998000,30142547,9
91848901,463536,46489192,129275,45999071,129154,158667,469987,121282686,21686,98774055,13,5883,267656951,1376,0.86,0.7,40129294,36847000,2987000,61388824,9
360525444,1716875,179907166,1052145,178295902,1067011,420284,1937799,714544443,262711,357827028,5266,30670,1096110302,2023,5.1,4.27,209814167,204190000,5004000,262967948,10
361652260,2824322,200919022,744274,201511752,744870,1042210,3078137,826001237,707345,359818807,7556,44280,1177514071,3244,5.89,4.92,241815622,234504000,7015000,261863496,10
447287323,3147006,235502103,897860,236082367,905489,1183402,3424434,992653450,749664,446391651,1933,58607,1357929735,3521,7.04,5.86,293954284,285723000,7992000,313981329,10
372659574,3063247,189180497,788270,190330143,790656,1233867,3556944,841860647,669911,378806724,9822,52868,1157001052,4304,5.91,4.91,250218621,236810000,12989000,271602042,10
392648253,2407525,195897210,850225,196464804,838237,810568,2731581,821964795,415223,394622848,12157,45217,1206242170,3715,5.81,4.83,243828058,238415000,5008000,263952286,10
377948659,3488735,192018018,791678,192456537,798786,1214853,3334659,855254618,652338,379914381,6715,51509,1162428565,4303,6.04,5.02,253041323,244832000,7994000,273216032,10
369503591,3091932,186766143,835248,187645082,819961,1166952,3290718,833206062,736633,366602718,6107,43305,1132119344,3544,5.86,4.87,247169951,238752000,7991000,267360595,10
469446817,4621686,245844734,948031,244896075,957547,1511147,4414916,1032187901,784965,465044106,8115,78487,1459711826,7293,7.43,6.18,305585671,292268000,12967000,325667532,10
384647091,3119353,204129087,862583,204068127,854621,1274025,3439890,873901869,771139,382593857,12869,47037,1201098886,3591,6.27,5.24,255910715,245646000,9985000,275182159,10
422690072,3611477,209364003,898744,209698443,905695,1419363,3717444,964936033,801826,418779219,6777,61269,1284639600,5870,6.8,5.65,286928346,272722000,13985000,307117546,10
582974714,1690127,305180611,1550635,302410740,1538827,504078,2490803,1046482698,252925,580397394,6667,35408,1745651244,2081,7.55,6.31,311597226,303327000,7956000,333285143,10
962124568,3475532,477658449,1608867,479658202,1622593,1334962,4721938,1986329207,799022,963095497,6386,70655,2880253689,3516,14.27,11.93,585399366,575042000,10000000,606409205,10
637286154,3515647,338836540,1505708,340769193,1511386,1348536,4369915,1273913727,771156,630841914,7383,68547,1899810098,5793,9.38,7.85,375009204,364484000,10013000,397816325,10
587917115,1777098,308025001,1601828,309522162,1597586,468808,2434605,1078471777,321117,589088833,2879,39154,1759736047,2214,7.78,6.5,319576691,310243000,8978000,340203956,10
325206718,1547329,179814018,1269796,177854147,1270985,430786,1985435,669522122,307558,319643315,34433,28949,1007129801,1989,4.85,4.05,199543770,190166000,9007000,220455905,10
1230241784,7545781,632391367,2020152,629954855,2023866,3192852,9113377,2822066063,1614159,1224095631,9222,127472,3868882708,9768,20.33,17.0,829603065,812355000,17007000,850788254,10
312806056,1953486,157714722,653697,158007455,657544,477322,2081052,606339895,303260,310431523,7590,28618,951310299,2022,4.39,3.66,182793843,177485000,4985000,203377956,10
367596547,1789945,179573301,1651544,179317959,1664001,571815,2262929,773390758,304719,367052562,11105,742708,1127579760,2069,5.65,4.73,226238030,221860000,3997000,247266328,10
583245514,3721341,309021134,1284798,307277086,1267093,1365398,4063364,1165610604,749814,573992360,9686,71309,1736525963,5985,8.33,6.94,344653697,332343000,12012000,365090637,10
529171772,3045589,284247212,1216022,285240324,1218428,1166764,3540390,1025096658,733492,523624391,9137,47695,1570735679,3278,7.34,6.11,305087936,291793000,13035000,326251724,10
2145873174,14545118,940553607,7014831,942574452,7011966,647629,5879946,4599664306,154282,2148211117,1122,62984,6407429737,174,32.43,27.1,1350086240,1347403000,1999000,1402747168,11
770785108,12950732,256009483,6144183,258563965,6100783,194059,1771752,1207330032,47987,773303857,239,16871,2081560573,168,8.64,7.24,354891319,353655000,999000,375225199,11
646614789,12828660,239205690,6310459,240340683,6289251,206016,1815114,1225953696,46527,649516152,78,16556,1858628437,207,8.81,7.35,363081632,361687000,999000,383480001,11
6402634945,19543213,2834893384,15327545,2836470709,15309123,1910628,17300991,13807926787,444478,6405379676,1236,192947,19129688440,180,97.22,81.18,4046548117,4043660000,1999000,4067410537,11
1350636548,20422771,572219472,7548155,574510715,7600456,2849590,7657691,2669601642,1278237,1343780239,33680,542958,4297527146,17278,17.54,14.84,669099665,666784000,1999000,689463643,11
4655502095,26391194,2288201461,8377562,2289804881,8371933,1249696,13106663,8980891554,297232,4662367855,7013,121118,14583745246,225,65.79,55.33,2632523566,2630037000,2000000,2652977298,11
516435138,22843950,148484777,10316006,149060055,10263363,192746,2372711,1201227000,222718,521147948,225,17063,1724687525,184,8.57,7.16,355816134,354577000,998000,375579495,11
4646242829,26508839,2285289403,8331201,2286241250,8331005,1228697,12757688,8825836876,333293,4646867140,21102,118257,14481717888,214,64.53,54.22,2589613485,2587085000,2000000,2609660050,11
523877887,7935675,131291073,5955613,132946458,5901401,149519,1228977,851654995,38549,526099615,191,11448,1361807340,190,6.13,5.12,253528256,252310000,1001000,273240740,11
638039044,12850303,235802569,6254516,237319186,6249654,200761,1767619,1198355837,50997,639080634,219,15753,1833968049,213,8.55,7.15,354218306,352942000,999000,373770678,11
1023821436,23896079,444251873,11146584,444244781,11131252,324694,5239802,2162062099,125575,1027386867,750,31075,3153105097,223,15.44,12.91,636340737,634020000,2000000,655931840,11
441061751,6524637,166406177,6004239,168436451,5979547,176397,1381829,984704972,39094,444809899,254,14110,1277733434,183,6.92,5.76,291346461,289979000,999000,312066705,11
729462848,12639034,239057908,6207010,240487848,6189836,215856,1903856,1297635256,56690,730111733,352,17655,2243339831,211,9.63,8.08,383754973,380507000,2996000,402291968,11
472449163,12645227,138203857,6127296,139092093,6072219,160181,1374745,897236466,49707,474245292,298,12410,1320955010,210,6.46,5.39,267219134,264929000,1999000,289283630,11
676375317,12978265,235647323,6274428,237316575,6259870,211011,1822901,1271875669,58529,677958201,298,17272,1868213724,211,9.36,7.83,376632298,376468000,0,396946415,11
2148779478,14585861,942450483,7125647,944312099,7132173,670760,6256967,4676948712,167466,2152423253,1093,89663,6425979534,224,33.15,27.7,1367070094,1364687000,1999000,1386883605,11
1629339470,8336349,610016183,6604743,611523135,6597846,411233,3577425,2803309753,127718,1632566160,3626,37342,4654109861,156,20.22,16.94,822801056,822521000,0,842915864,11
726034596,8076374,256709876,6104201,258375993,6100736,194292,1617161,1161982672,56689,726281379,257,16120,2083230177,192,8.67,7.28,341160956,336898000,3998000,362156082,11
3084018686,57926634,1580221164,36401146,1580487241,36390095,1074942,41199836,7676946906,7375485,3084943724,1620,100659,9283728343,260,53.99,45.03,2248082723,2246584000,999000,2268101439,11
1108964671,13535728,531085874,6520998,532308470,6528157,374681,3523744,2495097281,98348,1111806204,7831,32374,3132682780,221,18.03,15.05,731932689,730658000,999000,751853788,11
675706096,1210194,372470190,993184,366720924,951934,292601,1792083,996699768,109092,668582351,8537,27440,1971910673,1938,7.07,5.89,299304469,295741000,3007000,351982768,12
848218901,19889257,451904362,1601001,450866303,1601518,1035228,5063975,1700960285,3331180,845716849,2671,106135,2511591622,6383,11.97,9.97,500779152,490400000,10008000,521362305,12
661095220,1472847,364707048,967778,367946006,991852,240013,1633382,1001497923,92170,667813650,4342,27748,1947091852,1940,7.16,6.0,292982748,282579000,9949000,313418460,12
815454984,1063335,427152440,755725,426077792,757680,310821,2262262,1557419053,95102,813016863,1297,27508,2503297440,1041,10.82,8.99,460865887,457440000,3002000,481814091,12
1743811419,21685828,892970261,4309901,892729405,4310055,1157353,5387708,3493729848,2964731,1746477498,903,104764,5207376499,5695,24.67,20.58,1025476647,1014104000,11001000,1046061666,12
323182131,630541,157791573,400180,157483862,387720,155241,891891,477634573,64916,319109653,149,12489,955505648,919,3.45,2.87,142415273,138986000,3021000,163073161,12
373847162,1073659,222507973,445336,224824537,446003,158015,989260,607817554,66123,372818270,345,18835,1209438663,914,4.42,3.7,178460714,175135000,3002000,198491655,12
1483364387,24309935,768927638,3984426,768964692,3976051,2166031,6741073,3104144451,4398572,1480351687,4274,180576,4438832011,13317,21.96,18.29,912758743,883344000,28978000,933542821,12
549197615,611080,289576280,868616,286497305,849198,190082,1223429,770571563,70533,544356798,454,14960,1575917997,520,5.69,4.77,225479519,223148000,2001000,246405904,12
430483164,1870025,196619133,384500,192721948,391469,321331,1430310,672402501,127920,427098571,7852,29998,1311767005,3748,4.93,4.11,201112216,190792000,9989000,221768557,12
346166254,1139389,284371924,1682945,286496006,1654372,184127,1338373,680863848,113641,350512722,100,25347,1211709589,2295,4.84,4.01,203131410,199792000,2996000,223903941,12
677439976,1421620,372391424,948137,375501975,974450,259138,1675512,1024572965,95945,686695616,7906,28374,1998955595,1938,7.56,6.33,300113248,294717000,4995000,320243028,12
446401844,2377338,231894010,501349,234366939,503450,289489,1420874,707174671,126184,456680309,5835,32050,1357221368,3751,5.23,4.39,206833564,203399000,3005000,227206780,12
570673350,1335926,301156415,889121,302144736,923516,239368,1465068,861338375,90521,576831947,2553,32472,1650286491,1930,6.27,5.25,250301712,247868000,1998000,270522099,12
458471023,2254886,237547081,487964,233085413,503243,338133,1514730,719509535,160099,453122151,5922,31223,1391395651,3751,5.26,4.39,214119108,205772000,8030000,234705441,12
612540378,1070905,343524183,964836,344749757,961777,212097,1376193,885154075,79852,605982304,249,23439,1787024850,910,6.54,5.48,260227398,256855000,2998000,280400406,12
546305097,926362,292045701,893150,288922480,872590,225240,1250459,776934507,81644,542017133,216,17828,1565969125,911,5.72,4.77,232328282,227980000,4017000,253083702,12
454016487,2268926,237077898,483083,231373115,496150,322311,1513576,709351414,131750,445702069,6722,28462,1368968727,3749,5.25,4.38,212347461,196024000,16001000,233665988,12
548933637,769533,305405089,804489,306007155,809827,184041,1340881,829229422,78376,547612411,2925,22255,1604973794,1035,6.11,5.12,243363181,238033000,5000000,263206537,12
843725056,16977240,447130632,1586018,447416336,1585869,851087,3182931,1662895032,1205274,846444755,5374,104605,2497198009,4829,11.91,9.96,490940822,479629000,10968000,511101300,12
58498987,184716,32075952,93019,31174479,89196,77811,330827,107870361,24602,58870523,186,3159,186471281,523,0.75,0.59,38786295,36084000,2061000,87781093,13
104786835,142184,58807983,103924,58954670,92226,45239,310906,163060380,12267,104881477,36,3776,309117979,128,1.16,0.96,51277882,50046000,1000000,72126078,13
156095046,451488,76902837,143749,76383910,143794,91363,452195,218826306,28126,154065953,6,4382,426360775,519,1.54,1.27,68209169,66816000,1012000,88047602,13
100482945,131225,55485801,106611,55237404,107160,52016,373687,182328380,14102,99585965,331,3187,318980995,134,1.33,1.1,57772925,57632000,0,77206603,13
111277810,130255,60681884,108540,60315212,108019,50844,356307,169190933,13290,111244309,5222,4351,322640191,128,1.23,1.01,53753535,53615000,0,73969024,13
109309144,168127,60407135,105173,60258263,105192,49974,342485,174229123,9940,111533827,1347,3883,322862437,129,1.27,1.05,54414712,53209000,1003000,73802642,13
57581834,77771,31720815,78586,31156551,77955,38447,259467,99446605,17249,56157860,0,1570,180257316,133,0.73,0.61,29999712,26699000,2966000,49679038,13
109828396,277958,85545391,126841,85688757,130603,73111,441036,193397758,23392,108529664,74,7729,358053268,589,1.36,1.12,60632535,59404000,1006000,80620186,13
110903503,126322,60477282,104463,60129800,106959,50310,340412,169812103,13855,111666342,7646,4067,323994749,128,1.22,1.0,53464761,52280000,1005000,74419959,13
109797176,142701,60390777,104842,60300647,104871,49279,330736,171218088,11381,111778753,5363,3777,324113937,127,1.25,1.03,53239213,51993000,999000,73572089,13
154558861,463913,75993406,141383,76524218,147964,87637,448469,218204982,27477,155570754,34,4637,426994596,519,1.55,1.28,67386882,65107000,2003000,88054288,13
178737888,443818,87643791,165440,84972885,170533,104317,574129,269581935,30201,173907009,1,4275,526359146,523,1.92,1.58,83694910,82529000,1006000,103368940,13
111726906,164647,61147753,106558,60583135,106521,86531,383616,174248317,27838,112633066,1212,3884,328365412,519,1.23,1.02,54386657,52164000,2006000,74699356,13
62449489,138058,32023586,82575,32234834,81045,59465,298112,110174138,21796,63144619,8712,3342,195187643,328,0.76,0.62,35372610,31034000,4004000,54948144,13
109103920,155365,59984768,96279,60391216,93880,44951,324173,172881452,13924,111485771,7056,4057,323686846,129,1.27,1.07,50124933,48926000,998000,69981317,13
63735377,156704,32997621,85604,32729468,79827,70614,315924,107791047,26398,62119866,4477,3426,194593694,523,0.77,0.63,35008278,33821000,1024000,55090768,13
226898349,310240,114544817,173017,114403539,181639,87831,595097,345426693,26310,229238266,204,5909,664240138,327,2.49,2.08,101793356,101529000,0,122863665,13
111597641,146989,61033743,104819,60857534,105018,50711,360831,183708044,11959,112220690,5743,3162,327795820,128,1.33,1.1,57224747,54923000,1961000,78703421,13
155072476,444621,76373083,141981,76487746,148760,89440,447933,218292857,30907,154531980,28,4903,425858662,519,1.57,1.3,67325885,65027000,2000000,87391230,13
60683947,149270,32761560,87448,32974354,81913,40026,285506,106581885,10014,61737470,7494,3355,190527386,133,0.76,0.62,34853071,32572000,1974000,55172419,13
1834726128,2799268,795874377,9751544,799034115,9565514,595703,4692166,3412579935,203105,1839677617,436,81900,5325089529,3657,23.78,19.82,1005876065,996252000,9002000,1058035419,14
2382539991,5017092,1061094574,19686763,1066730902,19695967,1108757,7846993,4420698208,373553,2397652400,39579,135485,6936710104,5899,30.87,25.86,1266178823,1259900000,5999000,1286524403,14
3184469921,24205878,1387307462,23626553,1387467208,23442182,3137811,12069683,6159015477,3565025,3188363329,16868,486450,9160315999,21613,42.25,35.34,1730807405,1714863000,13998000,1750748193,14
915877636,745229,394137680,14363849,394130151,14364467,324144,2792596,2173454771,182529,916028992,807,41481,2492001276,135,15.36,12.81,641660141,641408000,0,662318631,14
188158277,200005,89866595,850800,89942531,844034,81494,601985,416273766,19020,188421160,1174,7859,550695302,137,3.04,2.55,121968770,121789000,0,141419847,14
999047471,850082,407127427,14723496,408985450,14780393,422375,3375127,2313687732,169400,1003223798,2065,33332,2745593718,290,16.27,13.6,673533321,671256000,2000000,693174132,14
1659087421,2589443,722206257,16083519,718772989,16512705,578991,4250085,2962239391,179322,1647127139,20985,61113,4734809731,3618,21.17,17.71,870475593,866027000,4000000,890910222,14
2264586653,14910322,943557194,22608396,944754627,22526899,966957,6961545,4504964891,2909587,2274493365,4147,94871,6433976240,6285,32.33,26.98,1323169244,1306829000,15997000,1343839984,14
2337963383,9335331,998793667,6691736,999618732,6658768,1364306,7419417,4958761815,382287,2339506799,1076,87651,6415763740,4235,35.8,29.97,1454935909,1445525000,8997000,1475084890,14
876938309,742916,378120802,13730865,378198239,13755305,320632,2712669,2094061437,147649,876817457,1037,30082,2335162970,136,14.91,12.46,617706026,616410000,1000000,638213741,14
3871229211,31310704,1639417391,23035870,1636956773,23361903,1468192,9831617,7007603576,7357772,3861099455,2636,146797,11250944257,8305,50.99,42.64,2057186286,2042494000,13996000,2077680153,14
3062259280,29795556,1295207816,25352157,1294735656,24868217,1415725,9736027,6184368268,7586827,3062793239,1282,117118,8842561863,8301,44.67,37.33,1812479895,1800038000,12000000,1833054281,14
2388276794,18265384,985292723,24116674,985971463,24139562,1038393,7708253,4760343129,2450869,2377580178,1557,121825,6812172709,8299,33.95,28.39,1396589624,1381369000,15004000,1417096247,14
890055479,733752,383938197,14107106,383730629,14128898,321491,2701258,2139564789,152111,890824441,905,30118,2373270797,138,15.55,13.01,625993249,625640000,0,646172752,14
1053867494,3257249,919608876,10150210,915971285,10133522,514429,3350176,2331321944,163228,1056428012,614,40050,3875753579,2182,16.37,13.64,685894859,678682000,7007000,706494553,14
1039782129,3727905,911490583,8876553,910769292,8810471,628015,3475387,2265789555,247945,1036230507,2089,50445,3768329402,4230,16.26,13.55,662667045,655376000,7004000,682756632,14
3489528274,19959176,1506826336,21478901,1506463310,21338212,1358063,8918337,6327511430,3579689,3486311253,1728,129582,10198968009,8300,46.22,38.66,1857458584,1842957000,13992000,1877475721,14
3490317597,20245436,1507339126,21302731,1509390104,21230826,1389065,9072745,6332872671,3533550,3492794194,1633,124878,10209708848,8301,46.34,38.78,1855736590,1843426000,12002000,1876203945,14
381597566,1324035,180207539,342081,179357887,338345,709851,2372908,845367484,223279,377751615,1239,38263,1111221943,8516,6.11,5.1,246705887,234390000,12020000,267422622,14
1894598853,4381593,823245711,9703549,824388608,9678773,789076,5398721,3819398134,294813,1900089884,6087,137046,5491461666,7162,26.96,22.51,1117223989,1105962000,10999000,1137407402,14
329994562,798106,181609493,1758180,179956188,1744806,195936,1129806,570372196,61912,323092061,3033,14453,983143334,523,4.01,3.32,175638855,170976000,3999000,227020324,15
383715957,6748582,257662929,2954915,256711109,2942069,1232706,5751035,1058812405,1433609,383510890,2702,57935,1322027352,3257,7.32,6.06,315697619,305336000,10011000,336754364,15
328717871,637084,180691750,1721341,179936401,1709065,159516,1002313,560243902,52122,324531658,236,12046,979529847,524,3.95,3.28,168060770,162655000,5020000,189501999,15
388737131,2150878,207626721,1960495,213372775,1971938,616098,2064241,752407777,330716,403035814,14360,69943,1189609764,3038,4.97,4.17,199581513,194257000,5006000,218386960,15
352087517,818731,177089248,1722810,181124383,1680036,166063,1055422,594025219,54772,356357354,2431,15787,1050862035,1042,4.2,3.5,176776193,173573000,3009000,197152184,15
206063931,612554,73025374,1568470,72474455,1629934,132142,689734,316898081,41335,204178953,2026,5518,512563369,516,2.27,1.88,96784257,92461000,4020000,118111775,15
345635520,982521,173791672,1738114,172766701,1717692,192836,1085382,577751615,68359,338584525,1751,14718,1023325075,916,4.09,3.4,172995155,168641000,3991000,194821621,15
353712559,1268972,186094261,1766431,186161915,1756321,224137,1254676,612558272,75523,358374061,15940,20797,1068517770,1942,4.33,3.61,182390518,177113000,5003000,203050814,15
636176252,788130,363185844,2177624,359496838,2187064,230890,1481751,965680515,74078,630277260,292,21266,1835055263,519,6.83,5.69,286719299,284414000,2002000,307949879,15
802602232,1955098,421597142,2049083,421505484,2069205,453599,2721206,1604644144,138991,799771144,518,33257,2424951008,1695,11.21,9.32,473791523,466442000,6976000,495771809,15
662743878,770496,357204179,2247957,354380380,2237009,222417,1490089,961279172,77882,658450691,370,21383,1872950939,518,7.01,5.87,281214488,276912000,3998000,302160934,15
252710307,595370,148960048,1757615,151261928,1698264,144672,880569,475685932,56791,249682674,483,14338,819717467,519,3.34,2.77,143081831,141799000,1005000,162704064,15
343173024,824511,185142223,1787787,187875650,1760043,164497,1059697,601671487,54524,350878141,2128,17273,1027863764,1039,4.28,3.57,176128747,174892000,1005000,196513663,15
371645958,883003,201935121,1782243,195342071,1750811,273888,1285017,640114670,128839,361986531,4923,22135,1108758787,2214,4.64,3.89,187296569,182004000,5000000,207609042,15
322106782,661014,179634703,1715877,176604975,1710419,158219,985994,561211411,51036,316389451,10832,13679,956043810,525,4.06,3.38,166840726,159649000,6941000,188559404,15
585346727,1160167,324767066,2179631,327505611,2142544,242447,1492475,894264257,73621,588593613,494,20466,1670328870,910,6.35,5.29,266009167,263658000,1989000,286610844,15
359241653,778720,177257492,1739792,181703703,1678539,163816,1078028,594032574,73948,363477304,13582,16636,1050864223,1042,4.4,3.69,175336043,171974000,2999000,196370237,15
817767450,1030528,432037396,1998237,430122507,1982992,306622,2166719,1572066891,80375,817248652,343,25665,2498367538,524,11.08,9.24,464522546,463134000,1000000,485635459,15
637539949,771182,362880448,2183139,358830813,2200288,227129,1486049,964797374,76235,630196088,650,20404,1835046725,519,6.89,5.75,285336794,284143000,1000000,304578129,15
334546944,965926,184604318,1728275,183690233,1712428,187790,1078003,567206312,84441,331182534,2174,15773,994604546,914,4.2,3.52,167823183,162521000,4954000,188547437,15
4031439703,1902143,1316785073,3006267,1316485560,3002085,835951,6782016,5437795899,241901,4023203114,356,77294,10681995890,2089,38.66,32.32,1603246464,1596647000,5998000,1657365218,16
2140056021,2524264,569196559,25553821,571043520,25578356,886920,5990848,3461356876,316561,2138972817,18037,109617,5173158055,3833,25.02,21.04,987329759,977004000,9989000,1008389835,16
1336799754,8500736,393281473,5411782,394042955,5517856,1158758,8632987,1566857871,668774,1329722235,79701,198213,3689760338,8197,11.74,9.74,493761909,330829000,8020000,515243397,16
4740296325,22731994,1408966352,6888775,1410843854,6849464,7246968,16542757,6835659290,2820500,4730479119,682,449851,14374790045,98769,49.43,41.28,2008239363,1789855000,217982000,2029567326,16
5579092485,2507077,2140793463,3660483,2136386288,3619874,1165236,9559383,7869872863,331039,5573609621,2219,110799,15729901528,1191,58.05,48.69,2315220449,2310797000,3999000,2335869349,16
2331550905,1270832,513796063,2496245,513914647,2483522,548630,3476591,2608585971,166591,2321375515,865,39689,4376522620,2081,18.58,15.55,764553779,759219000,5001000,785257707,16
4741811614,1993382,1721032938,2699090,1721029236,2705216,942256,7379526,5840200020,266854,4731520825,1066,83331,13108954747,2083,42.66,35.86,1712299155,1709889000,2001000,1733692434,16
2223244302,1011821,512927558,2779293,512663511,2756945,540749,3312991,2456287217,159737,2214308998,544,36467,5362919767,2087,17.88,15.0,724220876,716972000,6989000,744030703,16
2021791866,820082,510542687,2128336,510083182,2137308,443091,3096721,2334343491,139029,2016762406,585,31758,5562854229,1109,17.26,14.49,687494920,682981000,3999000,708701189,16
4532843886,2199839,1618690762,3277083,1618812306,3258581,1011950,7753642,6195396060,283449,4529870057,1638,88696,13292941162,2116,45.13,37.92,1816985373,1811154000,4997000,1837526167,16
2530502016,1357967,513892077,2481725,514277590,2477347,550924,3715195,2630892894,202334,2515702262,532,43647,4571641169,2085,18.85,15.79,771336633,764090000,7000000,791418900,16
3019354028,14100324,917865375,1586688,917152960,1575817,1541710,6637602,4115661646,359816,3018049584,1615,65245,8769890658,2081,30.71,25.63,1212782198,1208153000,3997000,1233328288,16
4149325120,2253716,1322918899,2743848,1322360884,2748280,1143752,7040602,5483370758,359788,4143626000,784,91524,11529543504,5992,40.72,34.17,1611143219,1600764000,10004000,1633303679,16
3726018822,1696258,1515526845,3047840,1514874070,3040150,815152,5744242,4339459599,354185,3713254579,978,75497,9773658514,2664,32.14,27.08,1267533561,1262250000,5000000,1288045794,16
3531670543,1772037,1015820001,2908787,1015617039,2898144,737596,5490845,4271207685,247033,3525825838,813,68200,8782896559,2087,31.62,26.51,1257228907,1250771000,6003000,1278586964,16
2026527803,1345486,515644277,2228943,515946267,2242722,546017,3346255,2361550482,248139,2020176246,657,51507,5282911806,4040,17.52,14.71,691575400,682250000,9003000,711995413,16
2522177624,1505935,1113322011,2640304,1113734625,2626972,582560,4210164,3175182472,237401,2515464887,751,60455,6669423796,2664,23.11,19.38,934238088,927859000,5999000,955505750,16
7525722780,3333392,2957937280,28959531,2957809304,28939332,1573161,13169946,10712911366,392433,7527984697,2161,142095,21617697368,1108,78.75,66.18,3146887965,3142236000,3999000,3167665032,16
2124226688,1157458,512845502,2006282,512785741,1989376,484220,3115667,2169093780,173001,2114769295,623,38870,4978759026,2082,15.94,13.38,639683258,634358000,4994000,659537488,16
3634564325,2002766,1457543661,25354027,1456277764,25297921,911014,6964980,5464338905,277725,3627316023,1196,114837,10150750044,2803,40.09,33.68,1600364027,1588811000,10998000,1620414022,16
1520212020,934972,310082732,1651305,309664010,1653660,429537,2844532,2117648606,144983,1515873232,303,61591,4056666914,4037,14.46,11.99,624889678,618283000,6002000,678065549,17
6166998282,4900088,2145216884,5459234,2141864796,5209533,1721805,13385878,9833989501,550665,6155417704,20524,227422,19717456940,4361,69.55,58.18,2863119547,2856863000,5999000,2882954148,17
1825954995,780316,208001215,1712764,208908802,1710055,436024,3073989,2333170532,127976,1815373149,242,31901,4561862063,1110,16.51,13.77,688881029,684482000,4002000,711639427,17
1314839139,830538,208441250,1621094,208374614,1624022,359031,2629969,1980196084,114827,1317247396,227,42330,4350645807,2084,14.06,11.7,584928129,582530000,1998000,605482261,17
3025897525,1468196,812720757,2322013,812436747,2320462,712596,5620449,4437261470,187334,3025318697,564,63311,9268463771,1110,31.73,26.56,1300890306,1296590000,3995000,1320947218,17
3934622287,2206306,1219024814,2793618,1218726913,2784585,974699,7400448,5646692228,299707,3928525914,1198,82211,11786817884,2240,41.85,35.16,1648949142,1644623000,3999000,1669022505,17
4538071300,2438213,1418609469,2877815,1418569218,2869431,1091242,8103142,6431725760,329620,4539950253,816,98306,13303949749,4042,47.53,39.87,1884594872,1876121000,8000000,1905171017,17
4546001608,3186066,1424360839,3910034,1425004366,3919079,1526369,12552738,10159172658,417001,4543046517,1204,145803,13928484190,2084,74.54,62.43,2986517570,2982795000,2999000,3006838849,17
1525085514,1590182,211902310,2169869,213068507,2153603,709358,5097249,3882232141,225761,1522744941,808,59247,5678104466,2116,25.81,21.28,1138726076,1132402000,5996000,1159545653,17
3233569720,1974988,1016743172,2544207,1016239844,2547417,859879,6662653,5036683453,288222,3228577406,941,78518,9892731801,2088,35.96,30.07,1475540565,1467152000,8000000,1495605080,17
2727556149,1475329,1012539485,3095548,1011811115,3092910,760876,5555572,4328504644,212544,2723141553,598,68973,8291356415,1542,31.54,26.37,1271203216,1267786000,3001000,1291924430,17
1621788726,1655716,212089601,2196538,213437792,2191095,768270,5466462,4092589495,235773,1619916239,657,66653,2563584533,2081,30.9,26.02,1200346324,1194977000,4999000,1221280103,17
1668393459,1361855,311368083,37669114,311542955,37643816,600967,4254274,3263462715,190706,1669104298,443,76931,4806982387,4035,23.66,19.83,959049052,951770000,6990000,979539366,17
4732498775,2210767,1417093739,3052434,1416959277,3047976,1061031,8719478,6997224765,352499,4729077232,839,98261,14187543026,1104,50.45,42.27,2052329760,2049789000,1998000,2072741134,17
8840761834,5972245,3970241100,7418910,3971281632,7412213,2702212,22504032,18178410593,669232,8839874273,1887,297272,29723754125,3159,129.37,108.06,5319449667,5314183000,5000000,5339051939,17
1315960898,814663,208469809,1624146,208439742,1616425,356644,2522695,1982381376,124746,1317048433,299,44549,4348228937,2079,14.26,11.88,584985356,580579000,4003000,605250885,17
2324168964,1290255,209919195,1900853,211177628,1896700,582781,3760590,2906963673,215481,2313262142,366,45117,5463206960,2081,20.95,17.46,856391060,848936000,6999000,876521976,17
1719862963,1603692,412560804,2318893,412404754,2311145,683458,5571857,4429153466,167416,1720919300,501,61308,8267713516,1108,30.43,25.23,1297527305,1292864000,3999000,1317284085,17
2615952319,1672798,613023030,2263354,614485540,2267884,747844,5491815,4254437590,240212,2618239485,594,93984,8335333418,4038,30.48,25.47,1252682177,1244900000,6999000,1273130560,17
1622554304,1031793,210110158,1807900,210343413,1817490,495563,3582858,2661064967,157560,1622113055,562,38438,4670075944,1104,18.49,15.37,778833313,775454000,3001000,797080014,17
2721758925,14193860,809936497,1309845,809441487,1297622,1486464,7023434,4392509953,384118,2720724918,372,65270,8165678014,2083,31.0,25.71,1297978104,1291323000,5996000,1350283101,18
2317242046,13685855,207673427,720543,207659822,729471,1163085,4343908,2283806552,352344,2312841690,344,35777,5062593597,2086,16.67,13.83,672220671,664728000,6997000,693016890,18
3021620947,7743543,809593107,1182294,809248178,1182019,799062,6087335,4123001830,273649,3016586668,390,59029,8458011065,1107,29.4,24.56,1213771399,1210126000,2997000,1234648219,18
4046009106,24342916,966825577,2329953,967276269,2323938,7503819,17271202,7270851223,3062374,4042960288,720,428194,14658626936,98761,51.11,42.45,2134464287,1917015000,217001000,2155011603,18
1818513558,13825916,508869265,956108,508976136,948470,1244712,5433603,3207056490,360506,1814956055,326,52292,6052157428,2089,22.97,19.07,945658862,941212000,4000000,966320900,18
509131533,13353919,306436330,403363,307017246,386475,1005502,3418037,1126896925,353082,507793965,363,25647,2532222030,2086,8.28,6.81,333258363,325938000,6998000,352893771,18
6714131515,32124074,2123656136,3459563,2123161829,3440717,8851894,25285292,11121533194,2940908,6718296433,3038,649342,20568424952,99783,80.28,67.11,3248806118,3095392000,153019000,3269169400,18
3328420232,7175629,205717333,761407,206848241,766054,498387,4090409,2487001917,226698,3306154629,523,33191,6464507598,1104,18.51,15.59,730745044,728316000,2000000,751633111,18
3123880998,14186486,810568766,1323700,810739099,1316336,1593216,7176846,4450457670,403358,3121032783,1159,69321,8769170945,2082,32.75,27.29,1304495840,1298088000,6000000,1325443862,18
210966297,13133974,29235457,214602,29650885,224554,2527721,7036363,579815549,311097,204221904,61,56590,859636679,4038,4.41,3.57,171927329,164590000,6940000,193230023,18
1918176468,7003618,205260728,556966,206193372,566532,409689,3075201,1802571117,194302,1917616111,410,24814,4149191819,1109,13.2,11.07,531628059,528240000,2995000,551907722,18
3828052296,14570982,1314177315,1661010,1313575917,1674364,1783064,8734362,5716838393,513087,3823676115,1505,83808,11483288726,2083,42.1,35.14,1670494064,1665822000,3999000,1691200740,18
6720127589,31485592,2124054591,3451911,2123517195,3437542,8937531,25296879,11139680373,3012247,6722861531,3106,954338,20572050697,99782,81.12,67.88,3262781568,3096502000,166026000,3282911880,18
2317840693,13643461,207565732,757754,208049430,747277,1221193,4552272,2372452343,386364,2308266720,543,41094,5452797982,2087,18.03,15.05,694704268,690159000,4000000,714915037,18
112859516,6797624,31539471,111945,31101955,117508,119846,1691515,187784698,168686,99694165,19,25734,369065354,2085,1.39,1.15,59240417,54936000,4069000,79408587,18
908162430,6930094,104211999,511197,104287041,511163,331184,2736584,1596583022,227923,910780569,319,40815,3235238778,2079,11.37,9.5,468206573,462878000,4998000,488988008,18
5259146002,15339029,1893031781,2275126,1893026677,2256204,2167070,11390075,7669005427,555901,5259647491,2197,110142,16559560001,2087,57.19,47.84,2252553430,2246857000,4997000,2272191834,18
2998214303,52271901,413352601,1608739,414026548,1609407,3522021,18172013,5363897792,925488,2987523382,1334,136046,10941008471,7938,40.11,32.96,1568958219,1555495000,12995000,1590668121,18
1913745658,13552348,105058264,585452,105963433,589342,1056646,3843043,1914435257,321658,1899293132,637,39780,3635080119,2086,14.51,12.05,566728089,560299000,6003000,587921023,18
2618100853,14044026,609470552,1267109,609981594,1278474,1549868,6862132,4270315142,460762,2616901955,869,90022,8863441612,4035,30.87,25.72,1248837989,1242608000,5998000,1269629930,18
2559067662,31828212,1090484595,20639922,1088220605,20690235,2812662,12563417,4327978063,2460419,2556160696,947,169310,7805009209,24744,30.83,25.77,1270378803,1229698000,39990000,1322727691,19
1804174880,8205833,763146922,4727915,763908384,4747295,2963268,7690559,3157318593,1207257,1797141709,502,196348,5629584795,45675,22.57,18.87,927967221,851696000,75972000,947382149,19
1945343042,5679243,810385915,4633880,810150758,4639865,1794254,5518491,3139325941,688907,1940677428,531,122897,5873617491,20540,22.46,18.78,922444826,879096000,43004000,942997624,19
865376750,6559302,375130412,5286636,376035434,5259143,1562486,4243246,1359930622,646385,868107084,238,88766,2540369512,20540,9.87,8.23,400511785,352196000,48026000,421016897,19
960639650,11840724,370246735,5636872,365938154,5633016,2861532,7296808,1625931729,1253766,954660416,420,181827,2718267569,40944,12.13,10.12,474219393,392821000,80963000,495171287,19
2812906372,7927664,1070949744,7918300,1068473615,7923962,2062565,7223621,4410813709,687755,2804385564,1420,243361,8772978517,20590,32.96,27.67,1299039194,1258659000,39957000,1319963284,19
3320261375,13760753,1268134225,6317898,1268019851,6289731,3348476,9528555,4964380492,1138373,3311444893,1602,312883,9930860936,40989,36.21,30.38,1453061480,1387626000,64982000,1474395159,19
2545877809,7717032,1068237004,5497281,1067694653,5512160,2093458,7168554,4128016191,618019,2540781486,1589,190423,7900643443,20592,29.78,24.95,1208160562,1171846000,36026000,1229390713,19
1626155122,4511710,654759634,4636281,655486235,4643920,1782707,5637315,2827159471,644093,1628335931,752,109585,4944347852,23383,20.65,17.27,829686383,790265000,39013000,849901370,19
972875418,5084173,331858194,5193578,333089897,5156443,1464865,3497516,1395028993,653264,959761962,436,100676,2844173686,20538,10.2,8.53,412517817,363195000,49026000,433795084,19
1014255154,11868660,412137711,7200248,413838727,7148709,3014518,7671377,1880970906,1176534,1005229872,328,202919,2826481286,40939,13.67,11.37,552944873,458751000,93949000,574477342,19
1698227688,12571901,537158609,5133217,536483739,5140620,2914791,6681773,2270138856,1337017,1702662074,758,194293,4519422412,40944,17.04,14.23,671168740,588826000,81975000,692344954,19
1968090419,10072158,799642854,5224600,799794800,5222954,3045125,7479358,3257622232,1167920,1967974611,1376,177745,5688072458,40973,24.14,20.2,955001914,860743000,93862000,976728034,19
1960772609,49525208,794753212,20141895,790418040,20134351,5505312,21388192,3467562435,11040962,1942194354,1212,882696,5759582114,55928,25.03,20.93,1018465055,931132000,87012000,1039155174,19
899102803,6730569,653273905,1390212,654721765,1392821,1688095,4685111,1652077118,627152,904694629,724,105749,3258304893,20540,11.92,9.94,485750794,439374000,46039000,506477861,19
2179456480,99358296,905068802,27907145,904279985,27846244,2790001,42710890,3522712810,27751486,2173465964,1056,173419,5473210901,24740,25.93,21.77,1036890642,995568000,41023000,1057876424,19
1698485771,68544771,749630196,27488853,749115870,27413025,2723694,28033560,3195574172,11839097,1693521196,1338,177669,5036338758,24651,23.41,19.64,939524784,900041000,39001000,961075204,19
2963580450,32710049,1227396336,23142395,1229425202,23048388,2918215,13984633,4742795991,4853234,2963026512,1383,248775,8616471657,24712,34.69,29.11,1392324831,1344067000,48002000,1412147186,19
1420486735,4644626,497055812,4970623,497574994,4976096,1650111,4612743,2097983582,564285,1425135134,894,112686,4479800539,23365,15.17,12.7,616281415,582085000,34004000,636659514,19
1537925039,14903259,715745350,18572685,714447061,18538455,3506370,8606088,2973946344,1579422,1536305610,1156,198663,4965890057,49088,21.63,18.0,881776827,789386000,91928000,904950984,19
140851573,387978,64497815,194088,62970205,201080,77078,459792,203374412,26737,139239760,72,6248,370060047,525,1.49,1.25,61371304,60753000,0,108628654,20
864514,68481,983163,34802,981840,34543,15236,90127,8044094,13135,?,?,?,?,134,0.05,0.04,2045156,887000,887000,21813619,20
500124,58653,1013215,37388,1028630,37327,17159,96962,7234251,11343,1747548,?,?,?,135,0.06,0.05,2266160,2036000,0,21548074,20
788187,78992,1081575,35996,1044105,35935,17399,98224,7134782,8863,739092,?,?,?,136,0.07,0.05,2379849,1093000,1093000,22036384,20
265020477,518385,131889068,268069,129005120,261265,112113,659183,371591886,33488,257166042,141,8985,723010579,520,2.63,2.2,107252769,106046000,1009000,127517070,20
178055692,478954,87099740,156340,85107494,160260,134845,597413,278340110,40775,176437452,1,4895,529905343,916,2.0,1.66,85223186,80968000,3998000,105541293,20
284941009,585486,139669949,297450,140950736,285366,119405,796758,421334062,36002,292006588,887,11308,800499462,1036,2.99,2.49,126765160,121503000,4979000,146721230,20
198877653,4138650,108749628,530441,109163726,560673,1654555,3198538,454033652,825564,211745746,12716,341503,599990670,12107,2.4,2.09,69188631,64833000,1013000,93713432,20
446775158,4218617,231560014,812578,231196171,818013,353118,1628805,906318306,425560,447090406,2775,46453,1355919354,2477,6.51,5.44,269562751,263240000,6005000,290669351,20
235393575,669460,110683081,263445,111205369,265884,107069,703475,347211785,33108,236693176,3222,12669,660901052,1042,2.48,2.06,105595886,102403000,3011000,125343764,20
87898740,184638,47644546,108902,46532099,108793,123632,427110,171878665,43978,86907936,965,3671,276284778,914,1.21,0.99,53724124,51469000,2018000,74359545,20
482332,66460,1060305,35324,1026090,35252,16532,95518,7001863,9616,1335091,?,?,?,130,0.06,0.05,2366338,1060000,1060000,22353081,20
176172741,435034,85647967,180937,84879781,190242,117401,652893,314866327,30174,176642708,783,9376,513108210,785,2.25,1.87,94794062,90462000,3976000,115292072,20
280584245,1104770,140509275,286790,141188021,279363,124937,820231,418085075,57527,279195761,14142,20708,780141169,1938,3.06,2.57,122167240,112999000,8921000,142063270,20
257366093,543364,129388360,260586,126219023,256227,105200,647614,358693777,28119,250882973,181,9199,703816368,519,2.58,2.14,108675606,104351000,4013000,129271510,20
137812011,437909,64474359,193046,64172282,198502,73563,452242,205069772,21745,139019836,79,5705,361074501,524,1.46,1.2,62996445,61673000,994000,82760773,20
104326104,298784,49141329,114667,48853881,113342,64577,364411,153552652,19431,106332001,5,4897,298017307,523,1.11,0.93,45335486,43108000,2005000,65800890,20
1506175,77922,976514,34617,976391,34428,14972,90412,6222961,8299,55178,?,?,?,129,0.05,0.04,2159325,659000,1319000,21036728,20
61194743,259018,34717943,83672,35130368,77488,50228,308071,117511535,19888,63344338,103,6735,198050594,588,0.84,0.7,34451746,33214000,1006000,54509651,20
233438477,379969,118228063,199968,118136124,185365,103177,700862,357903463,41894,233577729,184,10019,682683425,996,2.56,2.13,107753886,103412000,3977000,128889405,20
144392024,180364,68141595,141786,68187353,132865,62709,486849,291050396,15682,144580383,83,5200,432045141,135,1.95,1.59,93408487,91925000,999000,144939644,21
149239683,203087,71790377,138898,71833000,136671,61414,502634,311852240,15226,151065400,2211,4909,459254671,132,2.13,1.77,91299185,89074000,2001000,112290828,21
452076689,3809424,212412761,541285,210612741,540632,348177,1563322,741134358,185363,451786866,1837,21206,1212894843,3061,5.16,4.27,219896853,209692000,9985000,240205995,21
302194312,670867,146655831,242820,146226041,248077,253886,1186254,600733644,91658,301945440,9961,21150,918723269,3112,4.24,3.52,180545838,174265000,5974000,200629557,21
59813655,667356,58744352,111603,62106558,102225,278581,829091,179018104,119518,54921673,66,19006,230482339,4324,1.24,1.02,52002600,47662000,4056000,71720858,21
10816023626,3821230,3834841072,3876151,3834418357,3859719,1655877,14214596,11819088547,371174,10813253640,898,146147,28646097340,140,87.58,73.79,3471861873,3471326000,0,3492495505,21
150223556,210162,71345139,147387,71204303,143097,69849,496733,313595973,11683,151379220,21,5112,456438480,134,2.16,1.78,94871875,93577000,1006000,114758635,21
1704062057,48360670,887632415,3815829,887874221,3807487,1065447,5594655,3829736576,4627753,1705437810,1055,123734,5110050922,5989,26.88,22.41,1119678237,1107418000,12004000,1139486678,21
893927484,3042450,385918534,669714,386162990,675742,484307,2704306,1712554527,167591,893631272,623,41114,2478721315,3055,12.09,10.07,504059869,500691000,2998000,524984306,21
277115166,665657,134412837,226290,134240558,230816,245394,1189764,576631320,132759,274620349,10067,31399,840854778,4141,4.06,3.37,173217653,167847000,5025000,194171828,21
550597217,2311952,241682112,373787,241514297,377752,306370,1644336,849994142,133517,546438344,1971,36555,1513635174,4143,6.15,5.13,253771202,246461000,6984000,273611640,21
2445037836,70280044,1195542423,5186581,1195682250,5184922,1343308,8016816,4812465531,8249728,2444490936,28258,164236,6893816631,7926,35.02,29.25,1417318725,1402858000,13998000,1437337319,21
10148578556,57156324,3335153421,4159246,3335949705,4162725,1767301,15647603,12766328026,440874,10150077072,1907,163112,28794274458,149,95.9,80.62,3743090097,3740249000,1999000,3764137491,21
164831965,139243,73835303,139032,73815470,138112,66405,493648,291034782,22223,165336066,13501,3888,487605176,137,2.13,1.78,85485721,84211000,1002000,106068472,21
624298,80260,1293893,35449,1319498,35385,17133,94555,7289682,8670,2513170,?,?,?,139,0.06,0.05,2526153,1120000,1120000,22631679,21
160318851,174098,76631361,143095,76463712,136099,66855,490714,317556550,13859,160704040,121,5047,487705421,123,2.26,1.88,93802525,92600000,1006000,113862890,21
1177475489,710281,1331003842,1160707,1329601502,1160806,328390,2751696,2092644226,78868,1175157508,319,26183,4190259258,139,14.37,11.91,616858537,614501000,2001000,638047738,21
3506590591,1407921,1170806627,1667771,1170610021,1656174,585066,4783264,3945953899,131992,3508068398,664,51400,8035118234,141,28.8,24.16,1162487098,1160258000,1998000,1182302991,21
327178983,2447689,296881245,504917,296552345,495020,350429,1401845,671912583,103811,331577211,314,24064,1170447558,4144,4.73,3.94,196853378,193415000,3006000,218032826,21
6822085935,2342787,2002589198,2649442,2002213481,2631850,1082097,9094789,7745918782,252718,6820463124,1325,104356,17486110265,132,57.23,48.16,2273860859,2270975000,1999000,2293425233,21
32502936,104335,18380830,60559,18225935,65983,34813,221772,45315900,9250,32932022,27,1424,107885925,133,0.32,0.24,17987955,16382000,1023000,67821962,22
38758856,205637,18981559,66396,18966234,66176,63967,250663,54452693,19423,40457455,0,1097,127281931,523,0.39,0.33,16176514,14006000,2000000,36213783,22
41450601,121181,21674712,70209,21615502,65067,55774,250835,57502432,26230,40710626,31,4044,123948253,524,0.43,0.34,19721175,17377000,1930000,39614445,22
87310146,190383,48098577,95384,46667172,83607,72762,316448,115281566,28380,84472326,142,3751,247989101,520,0.84,0.69,37098691,35807000,1023000,57399802,22
80324314,181334,45940302,85627,46944410,83938,55226,291756,111591232,16423,82216780,57,3831,236052861,323,0.78,0.64,35614833,33380000,1963000,57327243,22
94427066,375589,48622545,96339,49262492,96771,86602,382823,130514866,39743,94048368,1,4699,277416211,910,0.92,0.75,42050538,37921000,3889000,62908724,22
81929670,112117,46713843,82216,46914548,83147,43105,273095,111244163,12298,82403171,69,3316,235970458,128,0.8,0.67,32561166,32319000,0,52817126,22
38489283,110597,21323898,62230,18166588,66050,64208,261091,51177535,31443,35194454,40,1089,122888384,523,0.36,0.29,17590938,16148000,1009000,38131086,22
83653036,82307,46760733,74733,47050830,78781,37820,262356,108401701,16549,82555920,41,2398,236581568,128,0.82,0.68,32369909,31134000,1004000,52297074,22
107403422,543186,50872452,135852,51088383,125530,114978,443648,162983929,35411,109176170,39,7982,302870051,1307,1.15,0.94,50956201,44856000,5850000,71054718,22
37148406,192464,18053586,65548,17706783,65773,66221,248889,50409467,23813,36890878,0,1015,118068709,525,0.39,0.31,14782003,13592000,970000,33565417,22
42190106,131666,22551164,63038,20067332,67020,63223,251000,58877400,26983,40170225,31,1096,134961628,524,0.44,0.37,17488301,17187000,0,37655742,22
38387811,114294,21621841,62359,18283782,67849,62087,254914,52120120,32846,36300655,42,1571,120770555,524,0.38,0.31,18082290,14712000,2942000,39359643,22
35772228,207276,20421961,67966,20799623,60897,77676,267368,58191051,29554,38212799,52,6238,116678052,915,0.43,0.34,19888764,17547000,2064000,40314330,22
41051006,331729,22994167,77983,23835997,70039,62860,318325,65564321,23882,44968253,60,6586,131470668,1042,0.45,0.36,21923059,16462000,5144000,41968962,22
35508614,202046,17260923,66861,17279934,66920,67303,245363,50894860,25786,37758695,0,967,116953638,524,0.37,0.31,14537731,12241000,2040000,35218633,22
37144827,273579,17610676,67669,17541074,66901,98165,294909,54471452,27797,40806396,0,1063,120766469,912,0.42,0.35,15959989,11757000,3919000,36884896,22
102366629,192282,56721581,96606,54941675,116066,110673,505805,150750092,42764,97923637,2115,6675,290049852,1034,1.1,0.91,46076182,45230000,0,65982070,22
86924273,342543,47694602,92852,49099718,83838,78641,353037,121683585,45075,87416638,46,6033,245757855,909,0.86,0.71,37793090,34480000,2955000,58959503,22
89779830,302499,49256987,108115,49120706,107694,92151,455386,128003138,34730,90811028,32,6002,258853664,1034,0.92,0.76,40986042,39559000,1014000,61911951,22
190964005,1612595,96589655,461938,92619077,460629,263266,1489881,310587463,78085,185686490,704,18058,555808843,2215,2.24,1.87,92168765,85383000,6098000,144394697,23
487709077,3813287,264011497,1351396,264756809,1391622,766130,3686020,893815851,949160,483869655,425,57929,1417680131,2735,6.42,5.34,267005973,256504000,10019000,287755259,23
497204718,3299878,267997916,1385455,270341418,1407341,536497,3581667,883063896,778246,505547209,483,54048,1458614860,2156,6.42,5.37,260001981,250666000,8988000,278547648,23
427968279,3744944,242766482,1301673,240106079,1315829,721515,4030432,754761089,879188,421243526,263,44739,1262231405,2127,5.47,4.56,226549277,216224000,10010000,248695233,23
289772246,4112767,164090921,843680,161760298,902828,967131,3706931,651461811,924866,281162006,8114,63765,916020617,7423,4.67,3.87,196132791,179734000,16065000,217896984,23
224393760,3379416,127190462,856315,127124419,782110,651906,3324394,488606271,827031,219819687,227,49579,693935808,2919,3.49,2.89,147628524,138275000,9017000,169181235,23
300763620,3347121,150986207,841320,148355773,847557,577205,3032709,605579145,798131,297145516,531,40830,896213657,2160,4.32,3.6,181645198,177282000,4006000,201934734,23
249337953,3952848,138037395,1073193,137460981,1091019,894747,3656763,582545782,795857,248121400,5687,34696,774225279,2893,4.07,3.38,170914722,165602000,5018000,192150817,23
1333869212,24327851,732807893,15684805,732350153,15697100,5300208,21105623,4339361240,5998964,1332865947,12119,2524276,4152177978,7924,29.92,24.79,1276493166,1254223000,22003000,1296887035,23
489269498,4007218,263285391,1360379,263549252,1384102,834516,3882533,890163135,888183,485472507,452,40406,1423513442,2736,6.34,5.28,265022551,254739000,9950000,285287874,23
101396110,1706206,58923106,488464,57167463,470007,87852,1155517,176974151,32388,100882878,211,4527,311428619,359,1.26,1.03,56277475,51981000,3998000,75998917,23
488369621,3708364,263119768,1303249,260832544,1275730,675911,3706839,858872989,814238,483773735,329,50395,1430297145,2156,6.11,5.09,254490046,250210000,4003000,275425961,23
426734540,3892751,242516332,1464390,240257304,1455929,658540,3869640,764072936,815870,422671628,71467,116706,1262376891,2066,5.45,4.55,225095716,210738000,13982000,245912446,23
221446689,3919303,125698149,913035,125912867,895848,857634,3552528,518532621,936322,218015734,79,36714,686591829,2993,3.74,3.12,152047845,142796000,8987000,172073755,23
99544818,942120,59422276,431403,60147309,419117,67722,722535,157400335,23006,100405351,59,4914,313113334,232,1.12,0.92,49741770,48516000,1010000,69646742,23
438881001,3490201,253239265,1289653,251849203,1260930,732651,3698266,779790227,842186,427496925,335,42132,1294483925,2731,5.59,4.66,232714240,222376000,10016000,253876593,23
253131460,4034763,139399794,974427,139265924,932678,947846,3604517,583145535,847934,260210579,6118,45123,792438871,3783,4.11,3.41,174482673,163131000,11008000,194932480,23
201757321,2345579,108365787,750592,106014296,732652,105466,1517744,346792713,49170,199105469,3044,25622,601224647,389,2.48,2.06,105452120,102247000,3007000,125589142,23
299506744,3651796,147691958,918903,146462962,886144,852480,3403893,633178646,790164,295071183,219,35263,902170642,2676,4.53,3.78,187049515,181820000,4995000,207223370,23
226157301,3363067,125533747,777119,122323123,815203,631249,3200454,474897727,755730,220047699,10069,30408,697108771,2147,3.41,2.84,143174863,133780000,8985000,164072103,23
899033118,32469015,408368126,3046447,407344415,3024449,784921,17852400,1914267282,830760,893795770,4921,120921,2766802357,4780,13.82,11.57,567926179,549290000,18009000,621628479,24
658037378,3079243,352450805,2182539,352872581,2166997,762030,3982575,1301641050,619503,660017579,1692,1519329,1955557673,2923,9.23,7.71,384033624,373755000,9993000,403629871,24
259210231,2584492,139289501,756009,137225145,773520,527873,2672583,522471655,509700,256484477,323,33015,794656012,1958,3.73,3.1,157206216,153964000,2999000,177264247,24
290286294,2612010,148203589,790653,147125207,800975,510174,2668034,573349169,520076,291170209,883,31018,884224000,1959,4.1,3.43,168062074,158771000,8987000,188381792,24
248321441,2624693,135824888,806275,133877681,823240,491020,2636355,509635745,547814,246881568,351,32859,766428557,1953,3.64,3.02,153077505,148814000,4022000,173656089,24
242531150,2616058,132734835,710451,131991434,715075,519677,2696094,492852714,506298,240008821,477,30448,752299067,2007,3.52,2.94,144564849,139238000,5008000,164337361,24
448930256,2683298,253503464,1190970,252544836,1175300,579017,3180906,768726316,541322,443699054,249,34285,1315738811,1954,5.49,4.58,228644629,224366000,4006000,248964941,24
251682531,3273129,139416396,834445,137534810,835469,891310,3231075,553439047,667722,247582779,16069,41885,782409122,3269,3.93,3.28,162310433,148006000,14000000,182576833,24
451011468,3322777,254108673,1883267,251751451,1898382,908160,3800472,907220740,697608,446278181,740,2222092,1332431295,2744,6.4,5.32,270239986,262975000,6999000,289712153,24
447373731,2679011,253129289,1180283,251709416,1181069,571708,3112816,764874443,533272,442308206,473,34301,1314774044,1883,5.52,4.61,227902451,220485000,6983000,248233048,24
499460250,2566671,271679723,1407354,271129420,1374099,615389,3272890,870461312,542617,494858310,3777,37340,1455825103,1860,6.25,5.21,258508325,254277000,4004000,278893738,24
245102299,2360780,132472932,787597,132572928,752022,499535,2701646,496860571,536317,241969785,8822,31308,753683438,1858,3.56,2.96,149032344,139876000,8992000,169210300,24
250627123,3118246,136354297,806654,134058285,812364,744984,3023038,536819761,614011,246848219,345,36037,774748774,2485,3.84,3.2,159352472,149991000,8999000,180035510,24
453279137,3289521,257026221,1597091,254355181,1576538,847788,3636695,829378604,693119,445449253,5186,131889,1336395362,2908,5.94,4.94,245728515,236387000,9014000,266827507,24
456170372,2720089,256167036,1288450,256760944,1270097,603433,3168488,794111232,571213,452165848,4472,40214,1338247064,2076,5.75,4.8,235630505,231199000,4003000,255059544,24
275433120,3156471,147581945,878026,146217415,868342,826504,3211633,593083236,649619,270332707,3385,37075,845055912,2687,4.27,3.54,178402242,172970000,4999000,199724643,24
416804049,4057954,217137281,1468682,216237463,1467455,1300708,4099917,934202953,817115,413015680,5002,68123,1305298627,8205,6.69,5.56,277007027,258602000,18042000,297489484,24
397216378,3697683,218472842,1647180,216459262,1656665,983164,3816893,889994543,745551,392390053,3167,57175,1228193294,3852,6.41,5.33,264790514,260810000,2997000,285359436,24
408097463,3321937,204534363,1405839,203488105,1413424,964121,3598386,860476893,650171,404743242,4684,42794,1249804935,3654,6.27,5.23,256435289,246961000,8998000,277827995,24
550000307,2806086,296664481,1961675,296475553,1966257,623505,3376222,1040016069,556681,549666346,2360,41503,1619015952,1981,7.6,6.35,308157305,300809000,6995000,328326372,24
1191694462,10534832,522481395,3383158,520325285,3375734,1304156,9277658,2201466177,2444818,1188161973,10848,74328,3431916307,3230,15.64,13.02,654924116,645267000,9003000,708268184,25
274228190,3603638,145817803,858456,147437129,848144,501702,3261294,562781623,646987,281707451,3953,28876,851208596,1877,4.06,3.38,169183338,160648000,7982000,189350226,25
236938510,4731980,134626340,888725,138231030,880475,1036952,4047034,574851108,1053868,244992502,246,54951,747906228,4410,4.06,3.36,172654523,159319000,13026000,194246315,25
327270255,4050040,164916697,956587,165912144,947207,826258,3679695,696612628,793161,324401066,4913,69277,999825361,4126,4.92,4.09,207299603,192996000,13999000,228456609,25
241543108,3850014,132745676,852414,132826760,835820,703727,3393470,519684085,800274,245465406,56,30810,758370529,3128,3.68,3.05,156850106,145715000,10903000,178244585,25
270222016,3855884,144549001,887959,146540918,883211,729882,3499381,581570085,785599,269264658,316,41976,831291288,3240,4.13,3.45,170206159,159881000,9992000,189767910,25
411678685,3158497,192208657,889935,188566958,883593,556979,3325598,781351128,663637,405894092,4948,30797,1234525613,1788,5.52,4.6,231321029,220707000,9941000,252190164,25
258974711,4153989,138759249,1092968,132558390,1103461,939017,4114277,537756859,787527,249196437,400,27392,808487574,3058,3.79,3.14,160694776,153391000,7017000,181686754,25
327934888,3594636,171315804,854691,167598127,846858,581353,3660328,645519975,682560,319292340,670,47955,994723850,2169,4.65,3.88,189823594,186450000,3007000,210844751,25
298543222,3902181,151252189,872097,150851657,875305,746739,3548987,622709372,738126,301373318,491,39253,917373443,3242,4.43,3.68,185471612,174125000,11007000,207635053,25
311568053,4038999,161058005,987923,162662627,992648,796025,3661543,658968622,782072,304602884,388,44203,941729020,3928,4.67,3.88,196711962,186375000,9966000,217098295,25
1722518855,26837589,920466250,19443017,921471896,19456394,4234933,23748035,5147599364,6018922,1722552798,64413,152727,5253740311,5468,36.26,30.11,1510852112,1496428000,14004000,1531556727,25
238247986,3872480,135507659,906794,134516869,885348,682045,3493923,515620073,841732,227455950,264,34326,728748621,2883,3.74,3.12,150740313,141277000,9017000,171087070,25
453560102,3962137,256979469,1326677,252671392,1322051,799820,4064028,792185279,790158,446018601,1386,38303,1348040899,2856,5.67,4.74,231947085,222676000,9027000,252858092,25
699557580,13794091,365064306,6199750,364089659,6189426,2435000,11119619,2009465161,3358512,695870399,6605,94479,2123101992,5284,13.97,11.6,592192093,580708000,10994000,612992226,25
266665073,3813081,143408450,1232327,140641279,1215662,753649,3615652,585578603,785771,270999827,354583,46811,835604636,2520,4.2,3.49,174340580,170908000,3016000,194609628,25
218248869,4085520,142400548,921767,143378020,912362,645277,3274542,516645821,780392,216983882,499,33492,753848310,2807,3.71,3.1,151099853,141877000,8992000,171261971,25
247352535,4104632,136551372,1081327,132222080,1079486,1049199,3907959,553162198,935165,244179913,403,36983,781615080,3434,4.0,3.33,163037869,153695000,8982000,184155145,25
453921960,4400855,263753146,1358344,259831309,1367372,1125492,4627974,838864088,1113491,439884721,120,46036,1337045271,3623,6.03,5.02,249476135,242198000,7005000,269653100,25
227044446,4135784,130702586,887322,133709165,879190,652935,3413526,511645483,814990,233631247,193,32158,713750410,2885,3.71,3.08,153840032,145526000,7974000,173963050,25
407959737,2687041,237976687,1059357,237403517,1061960,478096,3035073,679292394,555325,401831501,1047,37903,1188954819,2076,4.86,4.03,208673998,204923000,2998000,259071733,26
416831770,2580512,237342262,1047324,234350932,1025215,458513,3004013,692467578,543854,413644127,99,33477,1221216713,1871,4.94,4.13,202411258,198171000,3983000,222002160,26
435669159,3911593,252513850,1618379,248956993,1636377,771589,4722899,825004229,714838,435124907,31210,106689,1306216880,3534,5.51,4.65,213097943,206727000,6021000,232884678,26
412309054,2525079,236595408,1113201,233699015,1094263,492946,3061024,676718383,537229,405141424,31273,54391,1207802341,1900,4.85,4.04,202273956,194034000,8001000,222499756,26
207299413,2424858,114641000,587693,112980098,572988,431552,2531725,407241222,530505,203839238,59,26479,643772109,1954,2.95,2.47,119555449,109159000,10014000,140273605,26
207680832,2496054,116720049,799699,114929205,789877,406063,2485736,417420635,541012,201918978,874,111624,638917435,1871,3.04,2.54,123537114,118255000,5010000,144626736,26
213707496,2896521,120928553,619204,120449419,610166,608942,2814889,449054457,667364,207059820,317,38003,666944820,2906,3.2,2.65,135561151,129300000,6013000,156377099,26
205264671,2445138,116106735,622739,114484486,607852,401121,2464526,405003412,557695,198992285,1143,28082,632336473,1898,2.95,2.46,122774718,118399000,3979000,143961815,26
411658294,2547589,235120231,1028238,232683660,1021699,470867,3010157,675500532,546255,408659068,382,36317,1204670384,2046,4.86,4.06,200814423,194548000,6016000,220539608,26
438178694,3961066,248167239,1425881,242596512,1406788,968260,4465383,783873054,848075,433154496,50214,58204,1301710752,2831,5.69,4.75,229811093,225485000,4008000,250004652,26
412926308,2895183,238331095,1094728,236390762,1095860,617928,3113685,710720611,672360,404449858,808,39467,1205859091,2459,5.09,4.26,207957033,204731000,3010000,227949167,26
207391152,2809616,115560735,605932,114735625,608773,596835,2766530,432322261,624426,205897745,537,35143,642313241,2472,3.1,2.58,130583981,122254000,8016000,151554480,26
288093050,5233940,173432495,1545528,173058350,1537746,2160991,4822018,923889044,1697091,289541139,1447,94646,943799524,6224,6.37,5.27,271470309,261205000,10007000,291748813,26
436844402,3860505,248067998,1371593,243587594,1376964,899367,4110473,774521570,788528,429458611,259,53730,1289044210,2944,5.56,4.64,227748703,222335000,5007000,247976945,26
210040732,2876635,117182083,636947,115579912,632442,553024,2747850,436812102,607944,208600222,643,37229,652748687,2311,3.13,2.6,131864933,127536000,4016000,152874228,26
206791623,2461748,115699865,604648,113828057,588087,422111,2500292,403535115,547027,199314572,81,27891,637848677,1944,2.92,2.43,121924637,118612000,3015000,142761420,26
411429564,2587384,235005992,1043153,232274123,1028765,502198,2993092,677564593,537837,409771700,923,39643,1208821746,2039,4.9,4.09,202229613,196919000,4972000,223385368,26
196243008,2525474,129221016,577964,127925913,581198,446521,2566242,426789409,525788,194822506,166,37775,694324701,2043,3.11,2.58,129494619,123205000,6010000,149718754,26
231438130,3007938,127736878,761407,127573475,756163,680111,2973025,496475954,665526,228423797,4904,263932,716446928,3628,3.53,2.93,149568214,139311000,9950000,170795780,26
207571667,2828573,116356075,637608,114609406,627290,622311,2758487,442665970,621625,205455037,186,45763,644184667,2474,3.17,2.64,132389952,127130000,5005000,151748090,26
381796693,2400243,221509162,1674874,221086377,1672002,624441,2737529,780192810,496767,377477494,62863,34467,1189413166,2240,5.6,4.66,236317135,227511000,8018000,288042567,27
775583905,2066831,425076411,1869440,423104454,1846278,594431,3251384,1245995010,414002,767951264,7257,39103,2271354382,1822,8.87,7.41,369687241,359289000,9980000,389528152,27
401881356,2199883,212739090,1664978,210553635,1643645,612271,2665683,791611665,457485,396611629,5520,33101,1262927794,2242,5.64,4.71,233447994,228046000,5001000,254730825,27
394670523,2249373,227937295,1566060,225221978,1566771,619140,2609390,788347944,524315,384142598,3346,42558,1235347595,2240,5.59,4.66,234328523,226946000,6998000,254147480,27
306313459,1968984,146743532,1139181,145273131,1157441,427323,2112917,642460129,403446,303659589,4578,31181,967027386,1869,4.55,3.78,193093723,189742000,3011000,213153903,27
618155608,9426317,347091191,3238907,347791950,3189368,3244556,7656285,1561705612,2333473,618832444,34329,571184,1992023679,19497,9.45,8.04,339262166,330971000,7999000,359640504,27
388606706,2367700,209841633,1230636,213953414,1253238,663136,2643454,770914080,435503,391868828,4519,34309,1209260848,2287,5.45,4.55,224579626,219257000,4983000,243691428,27
275980134,2066046,206954938,1461208,206700011,1423151,596914,2309948,539860660,530333,266813423,162,23983,940773020,2241,3.84,3.18,163207440,157824000,5026000,186853701,27
393344813,2376197,212551755,1196025,213639494,1199601,620893,2550209,771356811,435414,392087166,4608,34943,1219183069,2436,5.51,4.61,224618519,216339000,8012000,244380794,27
424828631,2292181,219076499,1259758,218392554,1240718,692824,2791959,821353394,441849,423410138,3651,35857,1317858970,2242,5.91,4.94,243415271,240030000,3000000,264125201,27
413328972,2369673,221888878,1221015,220990640,1239390,653626,2574079,799477741,416581,412096841,4779,33818,1282080182,2339,5.74,4.78,237560161,233142000,3985000,258693168,27
406073929,2279178,214158169,1263368,211559307,1262145,655097,2612173,786005355,461108,398421165,5239,41200,1260550480,2240,5.64,4.7,234446179,228222000,6005000,254300047,27
399634722,2358040,211587643,1271361,210130297,1230950,730087,2805796,770070080,445869,397958373,2181,41024,1249345993,2436,5.53,4.61,231075642,220702000,9986000,252566683,27
396393527,1927846,212352467,1181705,209941843,1185445,500425,2430634,733748276,414323,385533910,2437,35911,1223571870,1827,5.28,4.41,218829863,216573000,2005000,239264637,27
418422386,2206211,223397775,1264734,219142712,1275887,642834,2672496,786224832,460694,406875470,6677,35800,1286963986,2264,5.64,4.7,233078828,228750000,4013000,253377224,27
773268217,2506534,429037651,1884200,429503523,1876076,706114,3240638,1282579045,470502,770173799,7955,43670,2276337726,2240,9.22,7.7,380796895,371584000,9014000,401975149,27
1126462876,11064374,626613701,3723997,624880254,3750337,1803030,5895461,2129548175,1409898,1113700046,4214,85685,3307341649,5095,15.13,12.63,626164869,615823000,9980000,647139390,27
409260859,2442866,216962772,1330353,219199030,1324626,662629,2629908,805378819,436916,407839563,7981,41444,1270460318,2436,5.79,4.83,239943638,232552000,7016000,259900381,27
412943635,2263049,222101980,1265197,219399682,1267572,678271,2646834,791954808,466742,405366539,6423,35383,1285290265,2240,5.7,4.75,235942074,229587000,5989000,256543248,27
818092300,2610077,445399894,1952850,446533165,1948763,692735,3336370,1377837459,457825,817048244,1737,43792,2409473832,2239,9.96,8.34,407635405,400272000,7004000,428803629,27
1577854582,16254790,301937575,1106131,302200129,1097129,288170,3946985,1433441924,1543588,1590465660,984,210184,3780763547,624,10.14,8.48,419552083,390942000,28067000,468714984,28
2686360999,17614937,549429847,1700664,549655134,1684192,648970,8845870,4168255177,232489,2687720399,452,56801,9386262601,640,29.37,24.52,1228079782,1224729000,2996000,1248479769,28
6039530454,8684581,2207052155,2970073,2205502078,2965214,1167502,12610622,8013062376,369896,6039280948,1337,101124,17872342252,635,58.42,48.99,2349941604,2348582000,1000000,2370425601,28
3328898428,17235902,623245010,2034586,623100949,2016435,614554,8331683,3997215835,2585882,3327924120,168,568491,8895429775,615,29.25,24.55,1171034747,1112688000,58035000,1191441565,28
7807822864,26648780,2624606539,4561343,2625664096,4536784,4340949,21838181,10628743526,1718357,7805926018,32932,646274,22765739905,17778,76.82,64.69,2996673320,2992380000,4000000,3019108155,28
7810961700,20083650,2612151727,3908746,2612252144,3898503,1600757,18450774,11227173283,1839819,7814548750,1356,450569,23709502782,627,82.63,69.37,3286679148,3255014000,31000000,3307517836,28
2692855896,17396143,542203030,1603549,539795431,1597181,651373,8469652,3906364955,222749,2694371405,575,53288,8868408915,1129,28.45,23.82,1147852304,1143440000,4001000,1168811123,28
7708052462,19687864,2549260310,3566719,2550907791,3575359,1491173,17216138,10294495445,433740,7711581513,1704,143051,22409057050,630,75.18,63.2,3019791860,3014373000,5000000,3040702924,28
2411600903,28009568,480345636,1153188,477175410,1139097,389016,9950354,2237216086,143869,2410374720,503,29753,5731711971,657,16.53,13.91,658668356,656422000,2001000,678924564,28
2693308825,17258628,544097574,1504149,543163060,1489616,556511,7862112,3402187393,188771,2692256840,673,45741,8107662085,630,25.13,21.12,996429560,993094000,3000000,1017416365,28
1846494671,127938976,520696176,1377314,520803981,1378936,582470,5639479,3058671564,100752604,1840921438,1552,42280,5853051939,1119,22.1,18.48,899184244,896818000,2001000,920150969,28
1956775212,16626851,286674867,1071081,286916820,1073267,363088,3946877,1423958495,138708,1939091128,439,20499,4127576819,1123,11.01,9.33,416329475,411150000,4989000,436855129,28
6580342881,58043757,2415480318,3324794,2415124324,3323277,1310165,19103384,9042530245,399522,6580636086,1142,117686,19754744856,630,67.35,56.62,2659474718,2653830000,4997000,2680273060,28
824558323,8798872,288016733,994310,289348379,1005334,260062,3271835,1115381077,95033,820108692,1343,19124,2620209415,1045,7.97,6.66,326765330,322350000,3991000,347198075,28
2796659805,10137828,977806221,2070917,977220662,2069103,631066,8024982,4061965063,1523871,2795483449,535,430588,8734391191,625,30.02,25.2,1195604282,1170121000,25002000,1216466372,28
2567767510,17077113,609014947,1656786,609140194,1657639,595219,7262067,3155779844,1396322,2570575674,767,310039,6473352624,1564,23.18,19.5,927087591,894793000,32028000,947817717,28
7709378423,19826873,2560298519,3671232,2560524300,3661774,1604241,18283051,11075728730,435283,7708593664,1390,144733,23454252566,637,82.37,69.46,3250175447,3247964000,1999000,3270566096,28
7708829003,19948027,2549363013,3588708,2550141313,3576236,1538606,18922322,10789298820,443095,7707820638,1178,141464,23410048242,649,79.39,66.74,3175693930,3173365000,2000000,3196870888,28
8219951061,19960579,2551476940,3724277,2553783156,3748519,1665575,18848052,11161559597,485967,8218782639,1932,148325,23431886737,1137,81.93,68.93,3269477542,3264496000,3999000,3290731121,28
5442879844,18677579,1861344344,2895945,1860776360,2887311,1127654,13558925,7642333084,1854340,5442536018,1069,102096,16728563703,625,56.29,47.37,2244010442,2225409000,18003000,2265425951,28
111752105,535970,63574407,118882,64222876,117084,161156,606809,191035631,45730,109295873,66,10760,356373418,1957,1.33,1.08,63688588,58087000,5007000,114275585,29
99551311,532573,60615690,115282,59475589,113319,165457,554996,172476228,87668,96596197,432,14927,328991279,2605,1.22,1.0,53722263,45526000,7917000,74543017,29
289905060,1061482,156125926,232389,154157874,228785,316626,1162777,501771698,98731,288533590,199,38345,902126560,3482,3.6,3.0,150363317,145093000,5003000,170377434,29
193507674,787597,98997834,169837,103143197,163738,202801,761665,323235690,80132,195644629,75,20501,592363546,2606,2.29,1.87,97838193,92504000,4973000,117855036,29
225718197,712912,117421270,171356,115438122,170697,219458,890038,393959178,74299,222819171,1712,17514,682639863,2606,2.8,2.32,118506375,116179000,2003000,138368493,29
244968133,1196545,136301849,197534,137092596,195040,338617,1069607,427444795,139549,241145972,752,34312,768554795,3676,3.17,2.66,125034117,120771000,4025000,145375113,29
218930916,1046308,120258737,192357,120510750,197829,311471,1087202,394841202,124628,212491644,5070,37968,690504003,3552,2.9,2.42,116617243,109332000,7021000,137543331,29
101627803,619671,60412957,123217,61277777,122775,194198,627054,171261115,90383,96591950,34,17257,330517001,2544,1.24,1.01,54573592,53143000,1002000,75060562,29
158518624,573467,80088191,145996,79230743,146449,209529,679042,265728005,79594,152908080,93,11918,484035661,1957,1.89,1.57,80612803,74383000,5950000,101331988,29
99093726,594012,55762335,99611,54509635,107304,205663,586867,160526278,96455,91442047,80,10543,325095499,2152,1.15,0.96,47276530,41918000,4990000,67647515,29
160294643,408927,94265577,121478,90063976,132487,176844,669058,250388963,77844,150763682,207,12751,499449360,2047,1.8,1.5,73517443,71305000,2008000,93567520,29
190080934,1198369,106226150,174104,106400653,169737,293819,1008882,348936933,116925,186646157,210,44549,612727815,4134,2.52,2.09,106249441,97056000,8913000,126535037,29
276548198,2350016,160088343,251267,161196330,253618,853829,1832561,604556397,285754,285180299,396,80457,925861148,12497,4.23,3.52,176292618,157154000,18898000,196716342,29
172215425,592132,98332682,141514,94780429,148595,197018,710006,285075743,66430,168953217,59,16440,536638434,2245,2.02,1.67,87812299,77488000,9934000,108124068,29
205517644,1347964,115799427,181132,115779973,186642,358219,1110795,384615603,123366,202862402,1549,44466,663179956,4820,2.79,2.31,117243400,109766000,7049000,137880090,29
155676046,403177,91588615,132430,90645441,135371,163452,644492,238307928,85921,143347628,63,18564,464691767,1951,1.72,1.42,73709637,68463000,5034000,93527362,29
112806617,648284,64425556,117312,63431430,123821,189686,607575,198405264,63352,110370263,190,20627,354650619,2604,1.4,1.15,61244887,58010000,2949000,82856690,29
189881518,957397,107193943,165328,107468732,168395,293061,963482,342798430,116420,184225687,215,37397,610203936,3489,2.46,2.04,103861551,96557000,7040000,124962297,29
100069812,545053,60515545,114527,59593516,116893,173452,596109,182971978,68453,98204645,30,13120,331189572,2153,1.31,1.08,55207135,50091000,4910000,75072844,29
147551086,610785,86382147,125914,86327957,131384,183319,702899,238756998,80759,141523101,671,21362,445744486,2597,1.7,1.4,73499589,70148000,3006000,94030997,29
675316220,8606535,252941988,7903341,249590094,7886187,1947947,7236565,1196455188,890550,672182587,602,85242,1797730923,6777,8.45,7.03,353057423,335278000,17014000,401750545,30
1839933510,12611387,710973137,12930024,711036763,12896704,1028019,9397960,3059947390,4579478,1838550448,709,618771,5721204899,3500,21.54,17.96,900589424,872207000,28006000,920925107,30
867812499,8101537,323334683,8366915,320098351,8343122,1768828,7154727,1420456292,1111795,863492560,253,51752,2275041657,6778,10.04,8.35,420114710,403821000,15992000,440102011,30
2000714344,10775452,495765890,16115292,496049513,16127675,2102946,11007156,3658464771,1862016,2003419218,999,97058,6516382876,6779,25.68,21.4,1072131007,1052826000,18978000,1092623818,30
1947772525,12765703,783537762,10021117,782360745,10017533,1494296,10958244,3259658537,3776354,1947326046,407940,580069,5389070623,4036,22.98,19.15,960613524,922317000,37971000,981604422,30
1942815287,13360452,786356358,10012833,785112964,10002318,1468247,10763865,3239778299,3703740,1946395173,1819,447674,5363778200,4116,22.91,19.13,949608715,916282000,33010000,970188116,30
998458156,7505355,393515427,10108007,396796612,10105051,1476229,6949791,1857259557,721845,1003584965,472,83643,2728292256,5215,13.19,10.99,543135933,525876000,16963000,563875052,30
645491855,7693573,271390917,6316231,268394207,6279833,915206,6006818,1150529395,1189222,642985371,566,210733,1828172565,2576,8.22,6.85,340139033,331717000,8017000,360901290,30
518647235,4985650,266857684,6255622,270222579,6212345,704329,4236647,984204220,865149,515746345,172,192780,1629596881,2374,7.08,5.91,288609168,278378000,9977000,309220868,30
1133452268,5945736,558555977,7412194,558934891,7397876,801572,5605425,1920947175,1859498,1133582065,1273,1637773,3198516751,2571,13.81,11.52,566508798,535035000,31002000,588166914,30
948948280,5043779,375198864,8406919,374880867,8358996,835532,5161979,1624651302,2510453,943963429,753,48838,2692004758,3260,11.59,9.67,480545917,468334000,12008000,502166134,30
703529219,7725686,290187387,8813178,288280334,8762114,1114553,6287794,1344780991,1116668,703500501,17488,44520,1999055716,4043,9.63,8.02,398991197,392623000,5994000,420085439,30
544622987,5064162,244793207,5681305,243455470,5660972,800005,4342149,937208865,1259478,551124352,1181,58367,1589227715,4774,6.83,5.69,281030737,271684000,8989000,303262927,30
1153207502,7819199,450947366,10002621,448308116,10022600,1560603,7573865,2115204548,706366,1147077014,107734,91048,3192391576,5525,15.32,12.78,624108994,612738000,10995000,644516153,30
469675604,4506711,212126399,5916282,210799138,5914740,643595,3846797,816727396,859038,466980087,402,447457,1381317062,2573,5.93,4.94,244205251,235804000,7959000,265179769,30
415225480,6621699,190306988,3819699,191227764,3766339,977012,5153226,861674288,497337,423458962,56,24861,1238779679,3599,6.07,5.05,252161501,245945000,5998000,272635366,30
691710858,5121670,314840688,8049972,314809359,7994713,799258,4712127,1260227991,845682,690842871,235,557941,2100090171,2374,9.05,7.57,371128902,358794000,11959000,391219032,30
1019079658,13389825,405389957,9729878,403970511,9701590,3423268,11866736,1978887107,2025594,1020233333,655,123392,2672990159,6776,14.09,11.69,581764138,567438000,13986000,601761535,30
823344987,4966103,342695671,7800359,342645770,7789287,880988,4691548,1359771359,811573,819058971,632,76519,2362399723,3652,9.79,8.19,398684951,389396000,9009000,420926750,30
932544847,15314167,576373012,8237310,576588458,8198694,1365573,8751347,1699825537,1728130,943901980,520,41689,3259310446,4047,12.31,10.31,498633418,488390000,9987000,518771439,30
211798024,286383,58983114,7371681,59006395,7391776,128395,1032673,793505828,33759,212250478,99,11151,510026775,127,5.61,4.69,233263428,230715000,1997000,284898895,31
1113060871,747076,571396627,8736261,570939390,8741356,356017,3062221,2448231849,107894,1111409485,393,33269,3249186175,133,17.13,14.27,722141874,721964000,0,743275502,31
211426844,361813,70058398,7195827,70162452,7219330,137189,1101860,810246100,29073,213255269,1085,10107,581632750,133,5.83,4.89,237747145,236387000,1001000,257590903,31
198595950,213931,67937712,5647828,68012545,5645366,93338,727909,481091504,23358,198666146,105,7589,626198971,133,3.36,2.8,141951388,139705000,1995000,161948873,31
285347834,377020,111994451,7224896,112014356,7231403,161990,1351643,1016400077,40980,285295040,40,14229,813564454,135,7.16,5.96,303034825,301807000,999000,323719305,31
1418541170,1058896,634786846,3447420,635064027,3457365,444432,3727808,2933206638,134948,1420420967,2424,51670,4174475241,217,21.88,18.39,866138823,864812000,999000,886570660,31
280288608,38715664,107456400,6412187,107452663,6369378,137152,1114257,840607424,30519,281717783,112,11917,841695047,86,5.99,4.99,248738635,247370000,997000,268054456,31
121487662,861031,45194710,1005112,45292122,1000456,311984,1139959,592780543,109947,123813336,181,22120,338876977,3205,4.25,3.55,173305704,168044000,5001000,193839053,31
213504304,194500,61489177,7292478,63506454,7297081,161532,1070953,468876225,67552,215123039,871,7045,483950651,276,3.28,2.75,133042255,130700000,1995000,153556034,31
148663962,279777,49035563,7729425,49553355,7794236,123692,1007900,754013884,35686,148394191,326,11347,384183975,132,5.43,4.54,220765661,219552000,1002000,241067221,31
3596472411,10288580,1676255946,8885059,1678623397,8904102,3234980,11927852,7021588228,1380145,3598443597,48527,694928,10753175899,35933,51.51,43.27,2057780911,1997414000,60012000,2077165432,31
306901892,346551,112739402,6939406,112602720,6943978,165992,1387416,1013357663,47496,306943361,412,14978,826614423,131,7.17,5.98,300137274,299746000,0,320352139,31
158956300,283791,48668859,7863151,49055438,7931206,131884,1084681,751072349,31998,160169647,158,9497,371711170,129,5.37,4.47,224509805,223210000,1000000,245417685,31
214837020,298692,62705464,7288095,62677912,7248365,143526,1101243,802622780,36188,215150497,229,11357,529095929,131,5.79,4.84,238791798,237577000,1002000,258578596,31
58133642,276509,111419368,7252338,111443706,7217277,115970,947531,630718059,27331,57855412,88,9176,422328057,131,4.54,3.8,188185224,185863000,1987000,209143112,31
295204387,381425,101323349,7023275,101276077,7042162,165817,1403732,1036146842,43148,296481139,312,14421,853289025,133,7.32,6.1,307050931,305838000,999000,326662453,31
137531833,802589,58815969,314280,58754193,313845,342201,917829,407731661,100824,137336517,42,30493,511463464,4044,2.88,2.38,123414648,113977000,9077000,144173100,31
283363237,348860,75885274,7191178,75965355,7197435,168734,1351195,1032032788,44699,283496880,421,14033,690462652,135,7.24,6.02,306994036,305676000,1002000,327967021,31
306923402,345130,101572930,7019343,101607218,7006066,169927,1368877,1019577451,42362,306375419,196,13846,811558963,133,7.22,6.04,298543670,298252000,0,317356640,31
184406799,321480,71835999,6889867,71821610,6875367,144959,1204827,835108359,39783,184359411,127,12126,572712233,133,5.93,4.94,249345721,247995000,999000,270861328,31
