@relation problema
@attribute 'L1-dcache-loads' real
@attribute 'L1-dcache-load-misses' real
@attribute 'branch-instructions' real
@attribute 'branch-load-misses' real
@attribute 'branch-loads' real
@attribute 'branch-misses' real
@attribute 'cache-misses' real
@attribute 'cache-references' real
@attribute 'cpu-cycles' real
@attribute 'dTLB-load-misses' real
@attribute 'dTLB-loads' real
@attribute 'iTLB-loads' real
@attribute 'iTLB-load-misses' real
@attribute 'instructions' real
@attribute 'page-faults' real
@attribute 'power/energy-psys/' real
@attribute 'power/energy-pkg/' real
@attribute 'power/energy-cores/' real
@attribute 'power/energy-ram/' real
@attribute 'power/energy-gpu/' real
@attribute 'duration_time' real
@attribute 'user_time' real
@attribute 'system_time' real
@attribute 'perf_time' real
@attribute 'class' {0,1,2,3,4,5,6,7,8,9,10,11,12,13,14,15,16,17,18,19,20,21,22,23,24,25,26,27,28,29,30,31}
@data
247741625,311313,154136495,698500,154363557,691219,147800,2171287,503566422,115607,248633663,10570,105670,765916554,129,4.19,1.6,1.55,0.07,0.0,135566905,107183000,28048000,149651332,0
92749399,276840,61815706,371970,62067384,367657,130351,1593568,345543288,110917,92948616,305168,104011,323318567,134,2.78,1.03,0.99,0.05,0.0,93364592,55059000,38040000,107643288,0
247005109,298410,154100416,633573,153985370,634764,133747,2055219,508301479,114051,249207212,307619,105948,764938885,129,4.22,1.61,1.57,0.07,0.0,137158473,102112000,34698000,151438909,0
247687663,303666,154084013,705236,154256363,700558,133445,2068207,502799123,114200,248207263,7880,105340,765442835,129,4.2,1.59,1.54,0.07,0.0,135682119,109297000,26070000,150059984,0
251083262,288830,154937949,676667,154933900,675726,160599,2177080,504090379,114758,252678999,28157,105263,770005582,127,4.13,1.56,1.51,0.07,0.0,138062034,99849000,37942000,152165722,0
247845923,307134,154270048,655406,154353694,653257,132631,2161442,507483708,114750,249783573,221770,104910,766564093,131,4.23,1.61,1.57,0.07,0.0,136766628,90669000,45833000,151042328,0
247282446,296865,153972392,640582,154548894,636265,143383,2083563,502031095,114617,248356089,20734,105057,766593001,129,4.17,1.6,1.55,0.07,0.0,135417726,102101000,33032000,149663099,0
248335184,326326,154458855,706896,154553737,703773,175774,2218454,505199782,114351,249450593,10678,105414,770430610,131,4.17,1.63,1.57,0.07,0.0,136338953,103044000,33014000,150383064,0
252522681,259967,154842890,680155,154719307,673057,196605,2396151,502925291,115726,252471604,12422,306397,770874546,129,4.21,1.61,1.56,0.07,0.0,135732064,113370000,22072000,149802743,0
247309424,306467,154049638,693079,154035842,687092,135492,2180064,505456638,115153,249252639,40802,105816,767371206,128,4.14,1.63,1.57,0.07,0.0,136351932,108092000,28023000,150553501,0
69931564,182242,44991980,229498,44941671,231136,152703,902656,97781833,4970,72070614,2581,1855,247357213,140,0.81,0.33,0.32,0.01,0.0,26508296,23211000,3027000,40694800,0
250468909,296090,154577487,632165,154561537,632842,143315,2103788,509863265,114132,252256266,306551,105148,767572881,130,4.16,1.65,1.61,0.07,0.0,137949687,112723000,24938000,152221345,0
97673028,470733,65151720,427086,64705033,423439,507271,2307320,362499875,113131,96668978,315247,109726,342502557,1892,2.9,1.08,1.04,0.05,0.0,97621482,62522000,34734000,111771458,0
248135045,318591,154772107,704765,154745322,695998,147825,2242362,505812794,116313,250083944,34631,109524,769449716,127,4.09,1.6,1.56,0.07,0.0,136961377,96734000,39890000,151373587,0
250951460,302046,154401859,838812,154661710,838072,156867,2284347,511026830,115126,252834463,8269,105832,769800016,130,4.2,1.58,1.53,0.07,0.0,140873022,113844000,26963000,155177876,0
99136684,270769,65601164,418769,65773369,415663,132841,1586414,343658394,111089,99769093,34949,104093,341831730,134,2.7,1.01,0.97,0.05,0.0,93992963,28971000,64936000,107927159,0
250352571,296950,154932824,722826,155015234,723276,139560,2132211,511832751,114372,252713961,216639,105455,769626108,131,4.21,1.63,1.58,0.07,0.0,137711387,104474000,33150000,152015247,0
247616029,295468,153881268,698898,153920135,694077,137996,2058587,502781569,114251,248894869,10367,105415,766392988,129,4.15,1.6,1.56,0.07,0.0,135746637,103656000,31894000,150283793,0
250580253,310269,154650469,670302,154896649,668003,149433,2189846,501942177,115131,252111468,8296,106377,769342803,129,4.12,1.6,1.56,0.07,0.0,135655005,106369000,29101000,149831482,0
243497424,329440,152979045,710917,157896976,713946,165982,2190818,500119062,114469,252037010,48854,284727,755620070,326,4.08,1.63,1.57,0.07,0.0,134858054,120761000,13972000,149280694,0
67342952,220591,45150717,188435,45187280,187442,125638,806061,96027049,3500,71207981,2381,1851,241036183,137,0.82,0.32,0.31,0.01,0.0,25925785,24633000,1026000,40056268,0
249817711,299123,154753024,643181,154711031,644417,155760,2176292,508775299,114556,252333565,180135,105688,767715114,128,4.18,1.62,1.58,0.07,0.0,137198762,99019000,38007000,151254740,0
69764091,203431,45220553,186685,45243858,187414,157925,877287,97180941,4069,71393296,2695,1623,244390115,136,0.78,0.31,0.3,0.02,0.0,25963204,24755000,1031000,40226863,0
70157645,178705,44592756,184720,44436555,185176,138016,812261,94512527,4251,71245059,2749,1653,244955706,138,0.8,0.32,0.31,0.01,0.0,25822394,24591000,1024000,39809948,0
248131169,293469,154381047,686932,154421155,683352,133088,2102753,503628910,114283,248759895,11847,105290,767101595,127,4.23,1.59,1.55,0.07,0.0,135841027,102785000,32931000,149905353,0
247571594,314254,154165226,648578,154602036,642826,175940,2209021,503098341,114334,249074078,30092,105934,768590425,130,4.1,1.6,1.56,0.07,0.0,135296252,107001000,28000000,149634372,0
68047955,220186,44970168,185207,44999192,184932,138289,864290,96533956,3814,71529388,2329,3196,243889996,135,0.8,0.3,0.29,0.01,0.0,26659582,26452000,0,40757511,0
251404211,305580,155185572,638218,154933855,637422,150295,2189728,511051411,114723,252774455,307052,105476,770789569,130,4.23,1.6,1.56,0.07,0.0,138768163,109510000,29135000,152857947,0
248110141,272444,153874671,652389,154048776,653023,162146,2242900,510040296,115067,249851612,220633,106015,767035211,128,4.18,1.61,1.56,0.07,0.0,138183786,108077000,30021000,152347787,0
67676799,223513,44661096,187154,44655993,187095,138673,776442,96484085,3727,71209840,2475,1927,242340225,137,0.82,0.33,0.31,0.01,0.0,26000253,24767000,990000,40174603,0
251088124,309611,154813062,669571,154721732,668684,156789,2184196,503580347,115011,252150886,20305,106711,770680313,129,4.1,1.57,1.53,0.07,0.0,136360871,101183000,35063000,150256111,0
92851074,273943,61992715,417799,61956252,416551,126050,1634785,336629487,110884,93063297,5532,104206,323076114,134,2.73,1.0,0.97,0.05,0.0,90890658,18951000,71816000,105186456,0
250487397,323222,154927364,672536,155316315,663178,129165,2128190,502741754,114503,251612391,60935,105366,770080240,129,4.16,1.6,1.55,0.07,0.0,135654584,104295000,31088000,149822806,0
67948998,224076,44978921,181624,45012048,183399,132629,809346,96443559,3817,71455209,2374,1647,241892245,135,0.82,0.32,0.32,0.01,0.0,25893129,23581000,1965000,40316442,0
68457956,208476,44838084,181304,44920376,180616,131381,878054,96577379,4220,71589360,2372,1384,245223547,135,0.78,0.3,0.28,0.01,0.0,26365240,24245000,1939000,40470350,0
66744913,218838,44775788,179470,44727095,179040,133926,810351,95963517,3689,70832021,2728,1774,241827741,136,0.78,0.32,0.31,0.01,0.0,25991493,23718000,1976000,40349611,0
250742023,317233,154849522,638116,154885723,637075,221414,2152444,513355328,114812,252527917,306889,105500,767223468,130,4.23,1.62,1.58,0.07,0.0,137765218,109597000,27897000,152056670,0
251977311,247463,154562448,630658,154445471,630452,155948,2124991,499891033,115332,252074335,16149,106360,770096433,128,4.17,1.58,1.52,0.07,0.0,135098907,100924000,33974000,149473237,0
249445041,294737,154520423,663840,154682545,666938,145400,2121566,511493146,140881,252307192,306898,105263,766406224,129,4.2,1.6,1.55,0.07,0.0,138595909,113551000,24901000,152794853,0
249954630,303065,154483362,663440,154800279,659549,137096,2091307,502486337,114372,252056732,8504,105521,769358853,130,4.19,1.58,1.53,0.07,0.0,135353195,97141000,38055000,149512198,0
250577390,297801,154793165,636079,154981327,629825,135565,2101578,501749201,114575,252264140,41778,105512,770918571,129,4.13,1.57,1.52,0.07,0.0,135544834,95234000,40098000,149624912,0
251044824,273169,154506803,715672,154539030,712503,136522,2125163,502234163,114057,251449295,36882,105443,768470945,128,4.19,1.6,1.54,0.07,0.0,135849848,107597000,28156000,149893387,0
240770860,334829,152363445,685184,157725484,693961,156877,2209796,508591171,112918,250807663,322128,109939,749754731,325,4.14,1.61,1.57,0.07,0.0,137238992,118035000,19005000,151376946,0
67079461,219556,44685503,180601,44751258,182431,135138,775023,96479259,3827,70935128,3051,1759,242881678,136,0.83,0.33,0.31,0.01,0.0,25827641,23654000,1971000,40137474,0
250595085,300972,154528592,553986,154521948,551231,152278,2201961,505607263,115271,252556595,135342,106087,770892365,129,4.13,1.61,1.55,0.07,0.0,136484132,107244000,29066000,150853613,0
67229814,217155,44917780,139878,44416985,138858,131061,806879,94554874,3771,70830468,2678,1586,243179412,134,0.76,0.3,0.29,0.01,0.0,26133790,23965000,1917000,40443274,0
225437126,225181,135922051,460622,137785475,477205,158573,1520938,263423968,11112,233436571,10607,4088,693524981,324,2.25,0.92,0.89,0.04,0.0,71472988,70241000,1003000,85805837,0
247986400,335880,154282231,639976,154787018,637801,204895,2213860,499908312,114497,248879366,10511,105301,768538897,128,4.14,1.56,1.51,0.07,0.0,134740146,106338000,28089000,149192356,0
245001879,299140,153412865,639548,153930179,635263,128695,2082727,501814667,114410,246736234,10098,105312,762409466,129,4.16,1.57,1.53,0.07,0.0,135209816,104963000,29989000,149568729,0
247984256,303075,153550121,545135,153756503,547218,168538,2224382,501373432,115029,250629434,18817,105431,767499690,130,4.08,1.51,1.46,0.07,0.0,138117606,117926000,19987000,152502460,0
223259284,261814,136137277,487482,138106362,498256,169230,1517166,263577024,8234,231877203,7786,6615,692450052,327,2.28,0.91,0.88,0.04,0.0,71233581,69024000,2000000,85374580,0
68242725,210437,44731895,187569,44722359,187224,138806,811889,95421415,3731,70713510,2466,1580,240613449,137,0.77,0.31,0.31,0.01,0.0,25858348,23685000,1973000,40043946,0
66208807,220722,44906628,183776,45100387,184761,139575,893021,96070280,3788,70458883,2495,1514,238900863,137,0.76,0.28,0.28,0.02,0.0,27085477,25845000,994000,41195627,0
247994971,293598,154024046,678258,154038081,675889,166697,2221028,507910649,114558,249771407,129195,105822,767736751,130,4.14,1.6,1.55,0.07,0.0,137564104,135342000,2005000,151774565,0
250451822,308556,155047964,645168,155098901,645446,168578,2218829,510802842,114453,252872597,305338,105038,768213280,129,4.27,1.6,1.55,0.07,0.0,137649729,135457000,2006000,151945183,0
246672116,276956,153542723,638374,153484746,635735,163087,2133777,504305171,114326,247727414,308637,105841,761241977,127,4.16,1.57,1.52,0.07,0.0,136768820,134581000,1993000,150841982,0
72202877,200250,47218176,142828,47166395,141998,142526,928740,99633756,5581,73864299,2569,1269,261226280,140,0.82,0.32,0.32,0.01,0.0,27240501,26994000,0,41259245,0
250562902,299387,154655278,637744,154769266,638309,153460,2160370,510901250,114555,252089382,306703,112941,766528869,130,4.24,1.6,1.55,0.07,0.0,138371555,132125000,6005000,152670531,0
67317632,218728,44906296,183489,44996673,183586,127521,779247,96294110,3670,71234702,2572,1529,241272420,135,0.82,0.32,0.31,0.01,0.0,25725140,23430000,2037000,39874222,0
70158340,184719,45038764,182929,45077246,182640,135616,800735,94697522,3812,71124087,2549,1529,244136708,137,0.8,0.31,0.3,0.01,0.0,25872387,25608000,0,39942639,0
250686217,298555,154645580,630084,154854138,622650,121349,2000802,499990105,114633,251809949,30142,105733,769473759,130,4.16,1.57,1.51,0.07,0.0,135027477,118738000,15964000,149177188,0
93580184,311197,62506688,526235,62520690,520740,143304,1600978,355294186,110963,94485599,305305,205598,328526695,135,2.91,1.04,1.01,0.05,0.0,95552181,61146000,34081000,110047461,0
250854535,287369,154602079,654414,154610986,652888,142571,2130451,507985989,113640,252424144,216517,105165,767733387,128,4.23,1.6,1.55,0.07,0.0,136926715,128618000,8038000,151113392,0
247881556,312981,154339254,692272,154305560,688235,149125,2161161,504010777,115064,248948109,12245,106524,767180916,131,4.2,1.58,1.53,0.07,0.0,136275794,117059000,19009000,150507339,0
248662678,310133,153981308,695316,153975936,695625,149376,2237468,507784801,114638,250528456,40232,105476,770570091,131,4.15,1.58,1.53,0.07,0.0,136496546,121131000,15016000,150712091,0
247892930,308376,153911245,633171,153825636,632650,148976,2133483,504066740,114501,248842739,8338,258543,767963250,131,4.18,1.6,1.54,0.07,0.0,136198695,120033000,16004000,150325962,0
250224817,300080,154647281,634401,154591826,634278,133869,2123126,509614185,113694,252268042,305857,105317,768330597,129,4.25,1.62,1.57,0.07,0.0,137522877,122282000,15034000,151916934,0
250339366,306583,154573904,666881,154627675,665541,145754,2150660,504212246,114298,252389850,32338,159845,768514830,130,4.14,1.58,1.53,0.07,0.0,136731291,114562000,21916000,150676587,0
94692181,266516,62515724,417180,62627316,417032,129940,1543809,338555250,110752,95286137,11162,104688,329299975,136,2.72,0.99,0.96,0.05,0.0,91600669,60503000,30747000,105675203,0
250412411,294919,154429966,632642,154425875,633162,146003,2087332,512589252,114095,252698995,307030,106026,769486828,129,4.25,1.63,1.59,0.07,0.0,138257596,114980000,22996000,152605692,0
90802401,257423,61535179,417795,61526192,416122,139404,1635477,332083283,110742,91091736,4636,103988,317183514,132,2.67,0.97,0.94,0.05,0.0,89955962,54825000,34888000,104350117,0
250382739,304936,154829207,660566,155105079,656112,133458,2121054,501358668,114494,251157308,7808,104932,766625240,128,4.16,1.58,1.53,0.07,0.0,135581691,104280000,31083000,149735273,0
251072855,304829,154521622,669811,154481609,666405,143383,2246193,504440383,114819,251840084,41504,105514,768738225,128,4.17,1.59,1.54,0.07,0.0,135967231,103725000,31915000,150246356,0
92773654,272170,61858764,419822,61865284,418261,129366,1646688,338346447,111306,93599193,17349,104579,324328200,135,2.7,0.99,0.96,0.05,0.0,91127981,64913000,25965000,105562325,0
67952612,215464,44386604,185984,44433253,184984,139559,812932,96703535,3746,71505346,2665,1572,244754551,137,0.83,0.33,0.31,0.02,0.0,25864789,23670000,1972000,39932738,0
251318090,279950,154709747,640330,154752251,643257,250739,2299012,510945794,115063,253058105,217109,105427,769081305,132,4.25,1.61,1.57,0.07,0.0,136882571,106519000,30146000,151106350,0
248462450,276694,154273672,633894,154271846,633438,161087,2123727,508841345,113948,250024874,310136,105713,769973393,130,4.22,1.61,1.56,0.07,0.0,137582909,101187000,36066000,151764941,0
70634233,163799,44744331,138960,44768345,140906,132224,880948,95986218,4379,71560134,2857,1490,245975425,134,0.83,0.32,0.32,0.02,0.0,26181505,24925000,997000,40443285,0
250575634,362318,154745609,675995,154735716,673502,340722,2072424,505472713,114488,252402884,7865,105418,771646746,130,4.25,1.61,1.56,0.07,0.0,136102657,106771000,28938000,150748879,0
250958959,514892,154726963,688932,154796515,682373,154732,2311269,501430461,114685,251441608,8295,206369,767614481,128,4.13,1.59,1.55,0.07,0.0,135823221,108667000,26917000,150084655,0
1743280,207647,6639355,163035,6628958,171432,111867,1876923,439657697,11717,1194617,1495,3426,76319036,134,3.32,1.22,1.18,0.06,0.0,118572796,117298000,1002000,132840081,1
70190583,402495,129616797,241111,129517345,238329,139924,4360469,1193154684,29466,69494282,4165,7783,1636903344,130,8.63,2.98,2.86,0.17,0.0,322337400,320094000,1994000,336695314,1
303061,93173,3579664,60710,3509355,60128,95172,815445,108884953,4061,232881,353,748,85479026,132,0.83,0.3,0.3,0.02,0.0,29984603,29719000,0,44062870,1
3622342,481449,210624335,292696,210777619,292528,168120,5172197,1448803366,36002,2573682,3356,10234,1992787318,127,10.5,3.66,3.51,0.2,0.0,392407344,391182000,1000000,406513874,1
568799,116463,2349732,54490,2375792,53937,99578,674505,54318058,1729,237883,148,378,66322393,135,0.4,0.13,0.14,0.01,0.0,14370865,12092000,2015000,28365424,1
811072,155007,6375728,112503,6299729,118947,97749,1097189,182886989,6404,840093,1117,1982,122360219,134,1.37,0.49,0.48,0.03,0.0,49097379,48835000,0,63214552,1
754980,130634,3347996,71626,3292528,69405,108617,1073679,178670834,5889,767818,1092,1605,145827792,128,1.35,0.5,0.49,0.03,0.0,48071006,47801000,0,62119066,1
1433039,201533,6625381,179839,6742562,184926,110825,1882715,429702867,11531,1080170,1793,2769,68384862,133,3.26,1.19,1.14,0.06,0.0,116186631,114972000,999000,130640353,1
3012705,402929,210462397,283725,210465698,284644,165889,5167537,1447485297,36828,2689070,3886,10118,1995074520,129,10.55,3.66,3.53,0.2,0.0,391184808,389896000,999000,405687123,1
1129955,137935,4622214,112464,4596284,120953,96462,807755,109152411,2820,242198,357,736,82410175,135,0.83,0.3,0.28,0.02,0.0,29535892,28255000,1009000,43582102,1
1525146,157064,4438083,141874,4358752,109275,162087,795087,79497324,3494,947675,851,1048,62982818,133,0.59,0.21,0.21,0.01,0.0,21231257,19889000,994000,35396816,1
1461090,148570,3281943,66359,3196960,63944,94358,1006541,178981066,5448,758238,860,1730,110476880,130,1.33,0.47,0.45,0.03,0.0,48522202,47234000,1004000,62694634,1
4858007,294025,107415097,169311,107484915,169387,113205,2790314,715729738,18551,4066408,3233,5705,1102692459,129,5.12,1.71,1.64,0.1,0.0,193283272,193319000,0,207680801,1
1207690,159709,3409659,77010,3467967,82893,114428,1240187,225293919,6782,806556,1330,2030,47918667,132,1.72,0.64,0.61,0.03,0.0,60718504,59493000,1008000,74852237,1
1484402,99856,4773354,90860,4766728,102231,63251,881063,178461131,5666,670932,1077,1660,118866375,67,1.34,0.48,0.46,0.03,0.0,48506261,48327000,0,62581653,1
6208594,549350,83969132,4474818,83970557,4483381,284056,4588068,1216036678,33187,6234792,7292,11535,432255996,1810,9.88,3.48,3.36,0.17,0.0,328500930,328614000,0,342840923,1
8996009,445714,217824098,302678,217632333,300560,175661,5269348,1547157248,39035,8595616,4601,11044,2330578386,134,11.08,3.74,3.59,0.21,0.0,417712839,416787000,1001000,432028160,1
750388,129757,5519416,110714,5419451,114283,87143,985829,182466949,5918,737691,1149,1804,123289202,132,1.38,0.48,0.47,0.03,0.0,49626015,49364000,0,63874307,1
1365839,171379,3421884,72514,3331603,69664,93382,1076544,181652598,5756,665925,1099,1668,110341835,134,1.36,0.5,0.48,0.03,0.0,48923020,47719000,994000,63456837,1
833745,157972,3559728,77543,3307846,70075,90595,971867,187392444,5932,807747,1046,1776,125864997,128,1.4,0.5,0.49,0.03,0.0,50998414,49799000,995000,65040060,1
1532012,248486,107357128,181376,107265479,185396,211051,3131580,793841411,21100,2541116,2044,5955,1127304438,131,5.7,1.97,1.89,0.11,0.0,213089511,211642000,998000,227431161,1
907032,130331,3429296,60070,3536270,59753,94914,839562,111324958,4444,654702,372,849,85508717,134,0.84,0.29,0.27,0.02,0.0,31298742,30114000,1003000,45454386,1
440549,113512,4765684,128785,4766531,139133,90733,648102,63550396,3055,473667,121,419,86625245,130,0.47,0.17,0.16,0.01,0.0,17081502,14900000,1986000,31066517,1
581677,148997,3523665,78896,3520504,79370,107828,1190292,212995977,6676,429867,735,1540,142245594,134,1.65,0.59,0.57,0.03,0.0,57529514,54370000,2965000,71782234,1
882416,126127,3572605,60010,3405063,60545,98730,818923,110557527,4133,388371,368,805,84678773,132,0.89,0.32,0.3,0.02,0.0,29968759,28745000,991000,44242712,1
107950446,427684,156827742,242466,156538896,237279,159920,4419281,1151234223,32052,106047631,5466,9299,1937434332,132,8.59,3.14,3.03,0.16,0.0,309583988,307535000,1996000,323829219,1
4899727,109720,13163598,208616,12980225,140138,94312,844033,113265203,4424,3938860,454,786,119009529,131,0.87,0.33,0.32,0.02,0.0,30909893,30583000,0,45024297,1
731935,119839,3376917,68254,3289282,66142,92161,1011441,178191628,6016,652957,879,1869,110637530,128,1.32,0.46,0.44,0.03,0.0,48437341,48196000,0,62679737,1
791543,161422,4978550,137900,4975070,143810,161832,1414180,257494252,6885,564769,814,1841,48310060,126,1.96,0.72,0.69,0.04,0.0,70291129,68942000,999000,84445877,1
1795156,138879,5622530,116352,5587468,86199,93139,657608,89528942,2450,1301246,836,1204,95349722,132,0.7,0.25,0.24,0.01,0.0,24091279,21906000,1991000,38072355,1
4184741,311277,118959666,519900,118997066,530431,114478,3057963,797776452,20830,3520899,2148,5926,1158937739,133,5.75,1.98,1.9,0.11,0.0,216887872,214820000,1998000,231269933,1
728474,136037,3179419,62351,3230591,57375,91313,666663,90725586,2658,521218,961,1020,99289516,128,0.66,0.24,0.23,0.01,0.0,24333670,22123000,2011000,38211100,1
945912,197700,55518883,109757,55626324,114457,107959,1879557,435549334,11852,1125101,1946,3861,636396754,134,3.15,1.09,1.05,0.06,0.0,116949353,115795000,998000,131062209,1
921562,118381,4376352,110590,4357748,117647,93412,648108,57152562,1954,133181,165,435,63815822,127,0.45,0.16,0.15,0.01,0.0,15411517,14152000,1010000,29809996,1
885372,147298,3382998,70124,3289798,67552,98474,1040404,179169470,5709,646660,1105,1841,141524709,131,1.34,0.47,0.45,0.03,0.0,48288112,47091000,1001000,62440070,1
563819,105019,5789613,698025,5795057,724565,87705,640334,87225541,2957,521850,722,1092,70167107,133,0.68,0.23,0.23,0.01,0.0,23594930,23389000,0,37724010,1
1627719,198983,5213816,93823,5156681,92354,94390,1542407,339689430,9383,1011287,1764,2785,238213498,134,2.56,0.93,0.89,0.05,0.0,91475773,90298000,1003000,105708490,1
68267746,416154,124748818,242292,124666305,234369,125384,4281651,1176096248,30369,68111500,4528,12145,1387427470,135,8.51,2.93,2.81,0.16,0.0,317972305,315993000,1999000,332119497,1
938915,128443,3128717,46302,3098864,49963,87553,644747,66812369,2872,519741,746,556,84357267,132,0.49,0.17,0.17,0.01,0.0,18107822,16915000,995000,32375216,1
1631411,156061,3324492,69143,3225738,65466,98739,1042464,181216601,5848,821349,1235,1923,110665023,137,1.39,0.51,0.48,0.03,0.0,48880997,47592000,1012000,63154819,1
241124,98746,4769679,51221,4767120,51382,92829,638888,57826108,3156,118231,179,443,75044183,129,0.46,0.17,0.16,0.01,0.0,15636164,14453000,963000,29685442,1
308911,88809,2332071,51378,2355871,51552,94407,658296,51790852,2185,245818,294,377,61507837,133,0.43,0.16,0.15,0.01,0.0,14311956,14019000,0,28470590,1
1155901,145879,3382555,63673,3368323,64877,98711,703119,95446671,2610,265128,591,1171,92783147,134,0.73,0.27,0.26,0.02,0.0,25719733,25427000,0,40111764,1
499576,120271,3277318,61145,3302856,61892,96740,846991,100843462,4084,295904,397,784,97852952,134,0.74,0.22,0.21,0.02,0.0,30472638,29234000,1008000,44617784,1
1314496,168294,3556181,77618,3546082,77842,103003,1023920,199191060,4914,387773,745,1710,180407335,133,1.51,0.54,0.52,0.03,0.0,53780286,53479000,0,67994017,1
1239133,139930,4376027,62636,4426349,65350,119078,765308,98026812,3003,268245,400,1236,69391741,133,0.73,0.26,0.25,0.02,0.0,26239942,26041000,0,40483087,1
1408548,168467,3537126,80012,3539126,74962,99068,1030967,189841277,4922,737667,1009,1711,134699434,135,1.39,0.48,0.47,0.03,0.0,52569759,52330000,0,66938770,1
1305329,151297,3251039,63156,3111948,53877,81875,645733,88557615,2814,517120,764,1110,81004807,132,0.66,0.24,0.23,0.01,0.0,23622475,22362000,1016000,37894669,1
1349527,164680,3498979,73625,3294223,67475,82958,957488,188809574,5778,790460,1031,1763,135122635,132,1.4,0.5,0.48,0.03,0.0,50675191,49419000,1008000,64985900,1
10047631,584970,10054330,168345,9124020,161957,465529,2955225,657171238,27514,10393132,22255,9047,131363187,4041,5.0,1.83,1.77,0.09,0.0,177727023,172518000,5015000,191917197,1
369289,69997,2353209,50739,2350018,50677,97446,648933,50175122,2593,296145,203,389,54530379,132,0.4,0.14,0.13,0.01,0.0,14526267,13211000,1016000,28820473,1
775586,135768,3548237,76031,3305407,70915,96325,984685,188667369,6048,767298,990,1753,134842802,133,1.42,0.52,0.5,0.03,0.0,50764941,49529000,1010000,64975094,1
901299,175720,53841330,104007,53750032,102733,102118,1612304,367715914,10313,803180,835,2377,591381102,130,2.74,0.96,0.93,0.05,0.0,99626876,98406000,994000,113864014,1
6677816,404727,112553319,220592,112648774,221857,264348,3808837,988856607,23754,5491883,4349,6198,1305473102,132,7.29,2.54,2.44,0.14,0.0,266814152,265489000,998000,281236414,1
1585000,143181,7547564,149486,7363548,110955,89048,667847,93180054,2458,423124,640,1048,123414638,129,0.71,0.26,0.26,0.01,0.0,25120873,23865000,994000,39430340,1
1310050,167518,3549289,80550,3416277,72383,104106,994359,188832137,5919,783090,1040,1933,129648449,133,1.41,0.51,0.49,0.03,0.0,50984260,49716000,994000,65227255,1
1333618,171091,3415865,70935,3293978,66923,83933,1035757,180704192,5371,695878,999,1655,143375676,131,1.39,0.5,0.48,0.03,0.0,49229370,47908000,998000,63596293,1
34919880,149443,55417772,108543,55478471,113424,141890,1763665,369180747,10970,35155626,1972,2361,314505450,134,2.92,1.05,1.01,0.05,0.0,100458358,98589000,1006000,114608624,1
1216591,141083,3331663,60685,3352457,60404,101529,815939,93923599,2428,193228,318,633,91655087,127,0.71,0.22,0.21,0.01,0.0,27710339,26466000,1017000,42025198,1
2928617,441147,210647793,291088,210703850,301406,339044,5670414,1463912533,37840,3823055,5011,11697,2008634541,133,10.59,3.56,3.42,0.2,0.0,395059833,394783000,0,409088861,1
3003589,416494,210553068,281801,210479808,275484,148180,4832372,1431113290,35063,2773878,4226,10524,1974430446,135,10.54,3.7,3.56,0.2,0.0,387053644,386902000,0,401390784,1
708405,92927,3328895,67535,3237400,67600,95004,1021611,174348794,6204,650399,996,1583,137501340,127,1.35,0.49,0.48,0.02,0.0,47378262,47127000,0,61598373,1
1681978,205348,3609587,109322,3802172,118159,133820,1946586,429979310,12216,1197636,2023,3138,59038623,134,3.23,1.17,1.13,0.06,0.0,116531695,115309000,1002000,130871314,1
2413692,151699,6028310,134547,6112205,142577,104723,1333113,272406842,7995,2527807,1556,1995,49744995,127,2.13,0.76,0.72,0.04,0.0,73960777,73798000,0,87983902,1
33125681,475966,123707804,340340,123750999,340980,166105,5663400,1573629528,40000,33361222,6553,11287,1216707864,133,11.51,4.04,3.9,0.22,0.0,425003965,422862000,1999000,439376888,1
820755,149671,3392768,71277,3309303,66768,91472,1042845,178794650,6249,853878,1169,1875,109922094,134,1.37,0.5,0.48,0.03,0.0,48474584,46284000,1969000,62650957,1
728404,110406,4915955,520520,4748305,526690,97746,685805,73389300,3240,540834,724,957,85667332,133,0.57,0.21,0.2,0.01,0.0,19648588,19443000,0,33820918,1
710016,126653,3377390,67975,3281084,64907,93118,1031671,176948123,5793,648589,1092,1727,117132370,134,1.34,0.48,0.47,0.02,0.0,48334631,47108000,981000,62632672,1
1321850,149462,3338041,67456,3258404,65981,95843,1048552,172407237,5681,656639,969,1640,102621173,130,1.26,0.42,0.4,0.02,0.0,48086980,47843000,0,62428317,1
8769807,118866,1955518,52091,1953975,53110,98522,657755,49702449,1770,9142478,181,353,51592950,135,0.38,0.11,0.11,0.01,0.0,14777657,13567000,969000,29105823,1
8922201,658387,7543044,70506,8627152,71334,509627,1998270,114903535,13369,10029018,20357,5149,116567745,3860,0.89,0.33,0.32,0.02,0.0,30778914,21721000,8886000,44902665,1
1017144,147074,3276232,65122,3183302,70085,101862,1040331,174093236,5413,748938,1170,1719,132980462,134,1.32,0.49,0.48,0.02,0.0,47145550,46900000,0,61543118,1
1850848,288882,4019429,171818,4178119,167385,125408,2950061,735715535,20544,1818598,2439,5205,99187066,132,5.54,2.02,1.95,0.1,0.0,198741228,195519000,2992000,212821811,1
1301861,165439,3570941,78606,3366344,70633,95149,1003147,188028094,5698,642359,1000,1741,127351179,130,1.41,0.51,0.49,0.03,0.0,50953938,49609000,992000,65229765,1
782276,139175,3322759,69495,3269983,66808,84075,1047079,177444062,6098,759527,1106,1605,109747710,131,1.3,0.45,0.44,0.02,0.0,48378155,48129000,0,62731252,1
4229424,535682,211160782,299676,211015176,291164,174104,5389056,1541867857,37457,3744129,3795,10749,2223079910,326,11.07,3.78,3.63,0.21,0.0,416145351,414843000,999000,430481246,1
1626382,222223,4024058,151971,4018422,151751,127112,2591440,664111237,16748,1311894,2371,4579,98130472,133,5.01,1.83,1.76,0.09,0.0,180713653,179430000,1002000,194856514,1
1046667,149288,3312066,64300,3215303,67617,95414,996123,175236183,5262,678395,1241,1702,133790144,131,1.34,0.48,0.46,0.02,0.0,47353478,47154000,0,61469186,1
355292,130092,3447809,59336,3637739,60939,99412,821343,106827073,3052,329071,334,704,76113267,134,0.81,0.3,0.29,0.02,0.0,28772992,26605000,1970000,43066909,1
1115659,144576,6102122,149582,6032015,105705,90454,641256,88642651,2204,559032,707,1021,112754970,128,0.68,0.24,0.23,0.01,0.0,23903997,22621000,983000,38077561,1
66832718,421159,46019856,1803651,48788893,1630075,149382,1230572,122923365,5314,71963857,2502,2815,239084668,525,1.02,0.38,0.37,0.02,0.0,33699758,33420000,0,48040044,2
69676621,798889,46137003,1649610,44326766,1481677,223458,1601163,131985882,8005,71669664,1958,1749,255185581,916,1.09,0.42,0.4,0.02,0.0,35978562,34612000,988000,50115557,2
78175506,661556,46711488,2043061,43468556,2098946,224308,1897116,124338303,7624,83056296,3795,1732,284193652,916,0.99,0.38,0.37,0.02,0.0,34031440,30705000,2971000,48629614,2
204774484,1036943,128307916,1431453,128752047,1424778,417864,2809742,264358539,11429,208949596,9259,2286,638250807,1300,2.21,0.88,0.86,0.04,0.0,71885952,66627000,4972000,86214087,2
196638875,727145,121956472,1408142,121169224,1540056,251852,2138632,246842126,13952,194732516,4895,2427,589718003,908,2.11,0.83,0.81,0.04,0.0,66847582,63578000,2980000,81338535,2
194851614,488407,121236957,1461591,120684847,1451148,205673,1838018,251896821,9445,193657522,14625,5475,588457636,1004,2.14,0.85,0.83,0.04,0.0,68117591,66813000,1012000,82208329,2
196734418,444445,119756662,1423970,119576090,1534689,248401,1692762,244375030,8356,193987082,12460,2841,591246077,520,2.08,0.83,0.8,0.04,0.0,66265996,64775000,1012000,80772577,2
193589628,452115,121834224,1406161,122389011,1507976,180187,1689088,245991668,9602,193864127,15430,2597,584558744,519,2.1,0.81,0.78,0.04,0.0,67218888,63857000,2993000,81422846,2
80657275,458876,53216710,1550405,51077070,1676366,166254,1200789,140802207,6151,87670861,1883,2285,277679483,527,1.18,0.45,0.44,0.02,0.0,37791969,36509000,1014000,52084790,2
193292386,497715,122538107,1419834,122762553,1621107,231412,1683624,246470240,7820,191763356,12217,3660,580107714,521,2.06,0.82,0.8,0.03,0.0,66037805,62608000,2981000,80391257,2
196456305,406283,121982057,1422072,121863842,1554430,167266,1649081,243561349,11218,193233534,12169,2437,584889664,518,2.06,0.83,0.81,0.04,0.0,66167201,64736000,1011000,80472577,2
209119858,456669,128253673,1529658,128509603,1604437,185648,1862418,261271623,8492,197861120,10613,3980,593553739,522,2.17,0.88,0.86,0.04,0.0,71200433,66874000,3992000,85324064,2
193240381,453009,119084139,1451203,119482863,1436358,209615,1773172,253749248,8193,195976069,12925,2376,590686750,520,2.14,0.85,0.82,0.04,0.0,68654553,66244000,2007000,83011596,2
67229110,470359,43175709,1707751,46096612,1559331,160149,1344823,128647877,6611,72942935,1734,3090,245907171,526,1.04,0.41,0.4,0.02,0.0,35007410,32678000,1980000,49181549,2
321030530,650758,226978101,2143403,228480204,2129973,193370,2467743,463828563,12722,331994869,15489,5558,1241504965,541,3.96,1.54,1.5,0.07,0.0,124279519,124640000,0,138735170,2
193424314,508694,121915816,1454429,121373869,1466074,212483,1949044,253865617,10387,192907628,15342,6055,591585493,1002,2.1,0.83,0.81,0.04,0.0,68065776,62064000,6006000,82292260,2
117655413,6836875,83245416,1738923,86855169,1470717,1263564,7517176,331291139,101058,133371258,16237,10458,396536556,2871,2.63,0.99,0.95,0.06,0.0,89111650,84131000,5068000,103554083,2
193246652,417494,121008132,1470330,120551282,1456306,196429,1633811,250935215,11125,196524041,13989,2611,582200553,519,2.12,0.84,0.82,0.04,0.0,67858036,66869000,998000,81997362,2
68097699,775890,45790785,1774945,47858122,1517963,249955,1799196,124968726,11403,75295702,1466,1673,251419608,915,1.01,0.39,0.38,0.02,0.0,33938604,31592000,2038000,48207311,2
64675039,451774,46289573,1800771,48718703,1572682,156241,1269229,125665807,5123,72072534,2688,2854,239640969,525,1.03,0.4,0.39,0.02,0.0,33716458,29608000,3947000,47930498,2
70367302,745845,46529184,1785018,47793564,1611735,245232,1739240,126120309,12667,73970334,1756,1610,249260349,915,1.03,0.4,0.38,0.02,0.0,34270690,30020000,4002000,48381602,2
69260390,851485,43347713,1663190,44940145,1503694,229295,1789000,129598505,7670,73145056,1490,1760,251228326,917,1.06,0.42,0.41,0.02,0.0,35167461,32897000,1993000,49446711,2
192251643,446901,120944720,1475733,121036673,1448285,189499,1837430,254602860,11366,197810333,12867,2237,584361967,516,2.14,0.84,0.81,0.04,0.0,69159535,67118000,2003000,83424611,2
197183975,873722,132222689,1766812,132425458,1758084,234072,2413652,265744159,9148,207089459,12308,4989,615130987,952,2.24,0.9,0.87,0.04,0.0,71833946,67771000,3986000,86167290,2
192016800,450693,120491502,1464987,120449584,1441987,186077,1789196,257226505,10913,196990429,14124,3263,583704840,518,2.21,0.87,0.84,0.04,0.0,69117122,66988000,1999000,83342240,2
65036080,502007,47249487,1581993,49667746,1448829,145435,1147304,133346687,5258,70656264,3044,2898,234980584,524,1.09,0.42,0.41,0.02,0.0,35888859,30635000,4941000,50053110,2
192647297,730356,121277999,1404458,121579208,1374679,266979,2034298,249359642,7985,191049076,10684,4975,582778832,908,2.08,0.81,0.79,0.04,0.0,67862483,67692000,0,82336996,2
82191422,778069,51445729,1500212,50320913,1586178,249699,1675216,144380982,5887,89439978,1364,1783,283351196,918,1.2,0.46,0.45,0.02,0.0,38762964,34438000,4051000,53064832,2
69146763,587909,46546041,1774983,47570921,1637760,228940,1416761,134092817,8398,73207556,6095,5751,250949748,1011,1.06,0.41,0.41,0.02,0.0,36227297,33872000,1992000,50484683,2
67544421,752112,42879883,1635858,44844332,1491768,234853,1818604,129729406,7559,73305364,1593,2336,252071582,916,1.12,0.42,0.4,0.02,0.0,34986472,32779000,1986000,49436088,2
194130149,504346,122484523,1403638,121731081,1357452,181612,1815097,248621143,9075,190402866,12098,5830,592683811,1003,2.07,0.81,0.78,0.04,0.0,67553502,62347000,5028000,81818195,2
195272738,900331,122354080,1489353,121632818,1475914,296541,2578528,262253666,12632,192993962,17525,10713,586740557,1905,2.22,0.88,0.85,0.04,0.0,71406534,68246000,3010000,85863853,2
65105428,453587,43649916,1685807,46491079,1506065,168777,1335407,127063083,5765,72945224,1403,1744,246845041,526,1.05,0.41,0.39,0.02,0.0,34335493,32102000,2006000,48641127,2
63652769,463506,46651664,1780568,49030426,1542182,160617,1293547,124772950,5485,72049922,3652,3467,239689172,525,1.03,0.41,0.39,0.02,0.0,33920206,30660000,2967000,48434841,2
67574596,535496,45801724,1775269,48688122,1621096,145250,1277725,134263897,5268,76518259,2111,2813,282599640,526,1.07,0.42,0.41,0.02,0.0,36189878,33968000,1998000,50705559,2
258584730,7763523,164793298,1373146,160917525,1621115,2781933,12489413,496685483,238094,257413239,26786,11765,783382565,2668,4.09,1.53,1.49,0.09,0.0,134291511,128171000,6008000,148517746,2
196457803,407758,122008528,1421838,121898246,1556516,173046,1644950,243713827,11102,193182818,12961,2592,585042569,519,2.09,0.84,0.81,0.04,0.0,66166892,62870000,3042000,80371629,2
190876600,447423,119445360,1407809,119150731,1378698,199765,1823284,245233500,9116,191036066,11601,2257,579927623,523,2.03,0.74,0.72,0.04,0.0,69960640,69827000,0,84114590,2
63959721,524822,47125403,1539750,49583443,1421875,143239,1314028,133305936,5161,70852266,2679,2875,234594043,523,1.07,0.41,0.41,0.02,0.0,35502558,34274000,1008000,49793214,2
64637230,511522,46094147,1561645,49055694,1439614,155236,1209430,133455348,6785,73091328,1635,2715,236690206,524,1.1,0.43,0.41,0.02,0.0,36000942,33687000,1981000,50254285,2
197149739,385680,122157820,1459284,121390418,1560848,168881,1611737,243812862,11725,193903721,11990,2663,586996991,521,2.11,0.84,0.81,0.03,0.0,66151815,62955000,2997000,80554390,2
98648263,262505,58865324,1465957,52398445,1831006,141096,1135340,142352622,4790,95899918,1676,1912,305421226,334,1.2,0.44,0.44,0.02,0.0,38092626,35805000,1989000,52303824,2
193388756,460525,118577413,1473116,118750209,1575263,242220,1795182,251466491,8392,197255561,9181,2788,589470140,523,2.13,0.83,0.81,0.04,0.0,66681645,63361000,2970000,80987701,2
194983458,709202,121080062,1424498,121171104,1406288,236204,2047574,247371635,9048,191970578,17049,5048,584847569,909,2.11,0.85,0.82,0.04,0.0,67674409,65452000,2013000,81919358,2
192339870,884490,123346462,1470963,122517921,1444304,336303,2591915,260292877,12908,192944983,18064,9687,580412354,1906,2.22,0.87,0.85,0.04,0.0,70661693,67476000,3021000,84841848,2
199834590,665161,125385400,1117624,123428826,1620832,214598,2151470,247307330,13719,186538360,5950,4953,596355285,907,2.1,0.83,0.81,0.04,0.0,66488747,64278000,2008000,80811700,2
64058121,522895,47087690,1788199,49433717,1552369,226905,1369808,126203652,5376,72038711,3505,3462,238418920,527,1.05,0.39,0.39,0.02,0.0,33986335,30597000,2961000,48408278,2
65795019,479178,47174519,1594377,49702562,1456845,147975,1176868,131419460,5555,70716139,2683,2853,235276218,523,1.07,0.41,0.41,0.02,0.0,35584562,35319000,0,49887057,2
65535731,451076,45921024,1808625,48726078,1604586,166564,1285920,124815351,6738,73860706,1536,2821,240882437,524,1.02,0.39,0.38,0.02,0.0,33824335,31615000,1975000,47911554,2
252369382,7885357,153830178,1366635,152968916,1666284,2560808,11996480,482376938,223036,249908291,25357,11114,767439538,2668,3.89,1.46,1.41,0.09,0.0,130730815,124503000,6024000,144977008,2
194806396,510296,121852184,1415326,121231561,1555435,193295,1830334,248465181,9321,192400566,9968,6160,591649778,1006,2.19,0.84,0.81,0.03,0.0,66732334,62350000,4022000,81048464,2
193907632,756442,117806922,1466044,117413071,1484161,262183,2151626,252097192,9096,196532336,8434,2680,589786436,910,2.15,0.85,0.83,0.04,0.0,67939164,63714000,3982000,82453571,2
197634352,377798,122777749,1448119,121193199,1413193,170272,1635439,242522319,12179,191036205,11477,2687,593248338,517,2.05,0.8,0.78,0.03,0.0,66930429,64667000,1989000,81394768,2
194572389,742620,118448317,1458028,117897738,1482143,247723,2136366,249728113,9451,195959784,5150,2970,588400561,912,2.12,0.84,0.82,0.04,0.0,67500116,65302000,2009000,81741391,2
194398261,423539,118753648,1407302,118860412,1567348,178452,1639334,244139629,8392,194959664,11264,2671,591826702,520,2.02,0.79,0.77,0.04,0.0,66112088,63890000,1996000,80307610,2
66668222,772258,49882114,2460833,51951271,2127853,254910,1868267,158203140,6864,82615642,1095,2819,273445165,915,1.28,0.49,0.48,0.02,0.0,42950449,42669000,0,57228223,2
68531924,402965,46370177,1851659,48413823,1674219,155205,1260167,124201240,6087,73185957,3303,2903,241673301,524,1.06,0.39,0.38,0.02,0.0,33771188,33559000,0,47921975,2
191584204,474635,118627516,1371316,117211027,1691903,160036,1597492,245696400,8047,197829944,13506,2744,593094560,523,2.11,0.84,0.81,0.03,0.0,65769595,64488000,1007000,80229603,2
195797682,408205,122550710,1458413,122611192,1558672,162292,1610898,244914433,11096,194385966,14691,2777,583731864,518,2.08,0.83,0.8,0.03,0.0,66449752,66224000,0,80900991,2
81349056,354754,69085800,1474846,68264531,1436692,161779,1392558,158180318,6668,80944787,3328,2742,330303576,523,1.33,0.52,0.5,0.02,0.0,43498435,41205000,2010000,57733026,2
200466933,662042,123508846,1434194,120029661,1408620,247697,2161170,244720769,16081,190037185,7273,2595,597806993,912,2.17,0.84,0.82,0.04,0.0,66526911,64213000,2006000,80785697,2
65133131,508158,46360565,1556955,49484860,1432261,155106,1288282,134740630,7639,72409429,1642,1664,241262730,525,1.1,0.43,0.42,0.02,0.0,35985183,32747000,2977000,50456362,2
69293162,741880,43438879,1628314,44488611,1487590,224454,1836925,128832001,8060,72908488,1361,1764,252368671,917,1.08,0.41,0.4,0.02,0.0,34581665,33366000,1011000,48720898,2
194494474,874778,121668280,1443503,121770145,1422133,316151,2669747,261139786,12337,192263031,18769,9526,584649786,1908,2.23,0.88,0.85,0.04,0.0,69940751,66695000,2986000,84199837,2
66713445,509418,43240072,1692145,45760435,1535803,152708,1342607,129284293,6254,73318689,1451,1742,248068316,525,1.03,0.39,0.37,0.02,0.0,35424326,34192000,1005000,49681478,2
189491816,469943,120315409,1459459,120183189,1453688,179304,1662795,252877099,7888,196047499,12422,3768,576817309,523,2.13,0.85,0.83,0.04,0.0,68338036,65122000,3005000,82469067,2
195219110,419064,121627034,1418593,121458679,1609654,165460,1592248,244876812,10827,194381706,12879,3473,585861334,518,2.08,0.82,0.8,0.03,0.0,65902571,64660000,1010000,79996129,2
123753211,6710917,84012171,1752399,85837745,1520585,1288326,7839998,332582563,101924,135640018,13513,10017,419219204,2869,2.64,0.98,0.95,0.06,0.0,89461232,84159000,5009000,103943838,2
75712514,1068996,50985985,1440757,49511778,1505059,387347,2015848,149424458,11015,77494069,12097,9442,272347960,3088,1.23,0.47,0.46,0.02,0.0,39825076,34613000,4944000,54399823,2
131803385,6611214,92248330,2032636,91884790,2262969,1083424,7638296,360051158,80105,137181283,8256,9750,452239636,2868,2.88,1.05,1.02,0.06,0.0,97046539,89824000,6986000,111541327,2
193362067,447227,121545312,1416895,119908399,1716892,177257,1590677,246938795,10367,197651796,10843,2557,588930418,519,2.11,0.83,0.81,0.04,0.0,66079120,63815000,1994000,80695583,2
196335747,730798,119216789,1452992,117390733,1453816,252477,2153050,250805745,9768,194883956,6620,4014,594957036,912,2.16,0.86,0.83,0.04,0.0,67442562,63139000,4008000,81656773,2
116362695,6738172,79220098,1520188,79504582,1626117,1025574,7188870,322011641,88079,127903328,10110,10367,398485196,2673,2.5,0.94,0.91,0.05,0.0,86967022,82727000,3986000,101518053,2
70926957,890825,49650054,1563358,48301179,1554935,230009,1884520,141969271,8855,74083501,10028,8177,255440250,1914,1.18,0.45,0.44,0.02,0.0,38901161,36605000,2033000,53388309,2
66199688,442236,43361336,1713194,46131559,1564359,172079,1315665,126938850,5986,73107348,1660,1660,249390457,528,1.06,0.4,0.39,0.02,0.0,34426632,33178000,1005000,48825693,2
190131228,455621,121304120,1482604,122054722,1491652,167008,1571151,250563654,7308,195814892,8562,4144,572536570,521,2.14,0.85,0.82,0.04,0.0,67484266,66214000,1003000,81694505,2
191745541,754087,122109054,1409691,122892476,1487000,219045,2029014,247104028,7898,192920618,9101,5329,577137859,912,2.04,0.81,0.79,0.04,0.0,67208439,65956000,999000,81693851,2
66645293,446362,48537599,1576264,48245017,1480185,177999,1208216,134351241,8474,72649518,1661,2112,243027483,525,1.07,0.39,0.37,0.02,0.0,37521556,36277000,1007000,51588322,2
74738732,1357508,55594853,3181428,55882891,3190068,191966,3926737,211673932,8742,78947733,4735,5101,322632382,1011,1.72,0.67,0.65,0.03,0.0,57508633,54280000,3015000,71723777,2
117605831,392055,91015833,1099591,82178667,1521881,198910,1703530,168244814,7637,101061298,1299,1357,363092894,530,1.37,0.53,0.52,0.02,0.0,44977588,43588000,1013000,59263806,2
144520645,5326858,101210272,2591481,108122120,2555367,2353319,11434813,448239826,296985,155288569,34533,9050,481489427,4167,3.69,1.33,1.28,0.09,0.0,120944512,113560000,6972000,135247371,3
134037200,4873759,92426481,815872,92306220,824511,1585406,10343606,358462119,188874,129714988,19789,6730,424065715,2871,2.9,1.05,1.01,0.07,0.0,97228083,92930000,3996000,111629208,3
142904070,5015573,99138168,852820,103701824,833235,1483833,10002531,383892454,161544,155986306,15586,5975,481426947,2483,3.12,1.14,1.1,0.07,0.0,103756021,96388000,6955000,118206280,3
141014552,4930820,101666768,826502,106725398,805190,1387083,9780309,377810460,166288,151942592,22082,4525,471671201,2480,3.1,1.13,1.08,0.07,0.0,102051611,95712000,5982000,116450081,3
143191709,4994719,100478688,840208,104989454,819422,1429986,9779352,382523877,162966,153759919,22521,7364,476678521,2479,3.14,1.14,1.1,0.07,0.0,102939331,96669000,5979000,117130138,3
190511281,5110435,126516504,1314821,129184737,1302868,1548258,11803355,893059738,371065,207500579,489042,209713,641540979,2675,7.12,2.54,2.45,0.14,0.0,241988493,177369000,64133000,256394785,3
405586311,5038492,256791571,1516460,258228329,1520484,1572761,12935785,1132522943,403909,409741314,233384,210228,1259540226,2471,8.97,3.45,3.34,0.18,0.0,305301768,233991000,70997000,319338029,3
338893005,4936907,212725762,1022514,213690257,1028289,1565203,11335841,568140683,195016,338106179,29799,7691,1005550428,2668,4.78,1.81,1.76,0.1,0.0,152727586,148681000,3991000,167115443,3
406325230,5069210,256861992,1574238,257591478,1589356,1574371,13029956,1123783214,394508,409646328,498282,211463,1262525356,2474,9.01,3.46,3.35,0.17,0.0,303125439,237044000,66292000,317234117,3
255551303,9531760,173182643,3663664,168886636,3728749,6049395,25414421,1224575457,938371,244610830,822230,206225,850458795,5017,9.64,3.47,3.35,0.23,0.0,332706833,324851000,8021000,347077939,3
418092840,10435125,270106273,1962473,271524337,1962844,5687984,23515337,1362824563,879269,423295035,574367,222187,1307630365,4820,10.73,4.1,3.97,0.25,0.0,367577304,240431000,127228000,381998036,3
141975124,4727471,101430537,804033,102420674,814486,1384192,9773898,362701174,193321,135384584,21096,5394,446114186,2480,2.88,1.1,1.06,0.07,0.0,98079340,91876000,5991000,112330580,3
339510893,5172305,208067939,1283028,210660915,1259998,1665421,11304153,588049281,171335,353264473,22469,7666,1023820448,2863,4.89,1.88,1.82,0.1,0.0,159250783,154215000,5007000,173561600,3
404292055,5060809,253115995,1523077,253736670,1530136,1572609,12910180,1119343068,386179,409753744,823843,210061,1233510348,2474,9.13,3.33,3.23,0.17,0.0,301726231,138912000,162897000,315940238,3
410569900,5082106,258796818,1851273,260129057,1848915,1528233,13124164,1129522742,397097,412951050,321077,210588,1258659683,2475,9.18,3.33,3.22,0.18,0.0,307496613,163291000,144257000,321658378,3
334774027,4928714,213326929,1011442,214141146,1015306,1521212,11331877,569957375,191373,338657943,27060,7223,987524320,2669,4.71,1.83,1.78,0.1,0.0,154236226,148163000,6006000,168551163,3
142375895,5034324,102202593,829348,106665363,809002,1527096,10123828,378434295,168916,151368020,14580,6369,470822677,2870,3.02,1.15,1.11,0.07,0.0,102222025,99092000,3002000,116678424,3
144949698,5191885,99959985,821938,104078247,801189,1584691,9892978,380449444,163866,156096676,15170,6040,481764447,3262,3.06,1.16,1.11,0.07,0.0,103312192,98114000,5005000,117577551,3
351463228,4745887,235060120,2646428,234316608,2697174,1739584,11656767,622240512,204721,342984315,25100,9106,1064022035,2866,5.19,1.98,1.93,0.1,0.0,168067689,163933000,3998000,182490464,3
145692082,5000694,99739777,845510,103449656,826966,1505371,9748302,384041418,163006,155307830,16602,7260,480766387,2479,3.1,1.18,1.14,0.07,0.0,103893262,99676000,4027000,118175213,3
413246815,5457243,268029245,3162108,272697576,3160407,1845043,14928978,1179841517,414897,410027837,747462,217746,1260531135,2667,9.57,3.59,3.48,0.18,0.0,319604686,261572000,57905000,334079483,3
145309200,5111021,100370930,826074,104611883,809306,1569112,10216965,377299199,165709,154406223,15666,14490,479604252,2871,3.0,1.15,1.11,0.07,0.0,102724120,92510000,10055000,116848310,3
408457779,5171004,251289984,1870983,251866820,1887868,1947921,13584884,1128626294,392769,424854681,227058,211410,1255656052,2865,9.18,3.4,3.28,0.18,0.0,304086457,261756000,42121000,318260823,3
201269251,4967848,134526360,1295092,135092150,1301408,1515600,11740966,891653944,381918,204605210,213611,205221,670153268,2479,6.92,2.67,2.58,0.14,0.0,240463149,186295000,54085000,254849948,3
183874093,5082547,127996421,849266,132520731,832115,1525054,10280452,435071133,169382,187963428,25892,7317,590959001,3261,3.53,1.31,1.26,0.08,0.0,117909335,111736000,5985000,132457418,3
414391552,5206736,257366250,1599283,257932037,1608802,1695660,13078095,1123493479,390114,417449045,241361,214641,1270352626,2862,9.17,3.41,3.3,0.17,0.0,302730255,153830000,148836000,317087714,3
142959245,4989447,100788731,839561,105409443,817309,1404858,10078252,380752491,165984,153017600,22566,6531,474397185,2481,3.02,1.17,1.13,0.07,0.0,102871763,94684000,7973000,117294779,3
446656086,5266157,282987020,1614816,283834238,1619632,1608283,13442929,1200524828,386529,451332695,382255,211137,1379638522,2475,9.82,3.63,3.51,0.18,0.0,323667438,173275000,150238000,337947361,3
404859015,5222578,268030110,3150566,268955627,3179925,1708225,13605590,1179343279,412636,410119959,479910,214203,1268988474,2474,9.67,3.6,3.48,0.18,0.0,318157721,178069000,140054000,332436288,3
171492864,5157084,119913059,805698,122425728,817390,1750928,10450749,423886629,171198,178278443,23990,5911,553721492,3267,3.39,1.29,1.26,0.08,0.0,114172771,108910000,5042000,128602514,3
383277302,5027590,241622305,1541570,242497476,1549308,1511990,12999651,1086419216,404237,387684859,229651,208584,1177959185,2474,8.88,3.25,3.14,0.17,0.0,292793219,209771000,82909000,307103593,3
143182495,5017951,100375302,839402,105002808,820299,1432946,9823119,382231376,165161,153612885,21317,5996,476658423,2481,3.06,1.15,1.11,0.07,0.0,103260954,95035000,8002000,117474430,3
144850152,4974239,98592647,830260,103112662,814342,1456658,9874456,380675857,167174,154600169,21702,6369,477721980,2479,3.11,1.14,1.1,0.07,0.0,103026943,98811000,3992000,117546189,3
418059640,5178674,256458405,1630435,253666219,1640903,1871375,13412686,1136675287,386793,426346735,229999,207576,1289290562,2864,9.28,3.35,3.23,0.18,0.0,309805764,261437000,48080000,324141798,3
412766976,5723175,257576424,1565976,258014695,1570022,1615851,12932737,1117233356,383042,416639098,224471,737582,1267193086,2473,9.14,3.38,3.27,0.17,0.0,301654789,189253000,112150000,315996308,3
128548675,4736894,102391271,2419448,103429445,2449989,1605135,10860148,396201171,199946,124108596,21408,6152,440918950,2480,3.26,1.24,1.2,0.07,0.0,108153081,102136000,5006000,122391748,3
132925312,4777573,92549022,811014,93413508,822462,1544950,10167180,359395915,190363,128383687,20233,4132,428055041,2480,2.9,1.07,1.04,0.07,0.0,96596100,91306000,4962000,111120590,3
144030879,4850225,103252805,804490,108637958,799237,1399000,9977578,374415932,176158,146538192,20285,5481,465864996,2480,3.01,1.14,1.1,0.07,0.0,101065065,95890000,4994000,115379619,3
473962649,10250078,306984545,4128735,307016498,4144736,6754168,26604127,1474687371,997892,479685363,261780,222334,1491410499,5600,11.94,4.4,4.26,0.27,0.0,397778833,293814000,103934000,412007642,3
127552544,4876065,87330889,824602,91222231,827749,1493141,10234356,358913256,163872,136797217,14912,5437,415689389,2480,2.85,1.01,0.97,0.07,0.0,100271370,94952000,5050000,114552461,3
404002652,5154105,253236689,1529941,253520910,1524844,1593759,12938992,1107567782,383265,407689664,439070,409298,1231985218,2474,9.08,3.26,3.15,0.17,0.0,300455047,217184000,83070000,314704392,3
202073800,5065324,135419807,1315198,136170454,1314210,1630465,11843317,898905925,379128,205883755,221854,204743,675740651,2477,7.17,2.57,2.49,0.14,0.0,241796742,187526000,53864000,256366454,3
143520258,4920434,102536445,820000,107329930,796325,1396926,9712405,375033808,170994,149695279,18615,5574,474930885,2479,3.02,1.13,1.1,0.07,0.0,101712747,96447000,5023000,116027670,3
200723033,4958730,134371589,1302930,135018495,1292990,1464835,11793078,898622445,383051,204552297,221372,206610,667571798,2477,7.16,2.6,2.51,0.14,0.0,242475403,189200000,53056000,256790572,3
388091616,6564573,251769442,3078808,251597358,3136558,2806101,15369520,713285781,453083,385341354,35823,12885,1186456033,4037,6.02,2.26,2.19,0.13,0.0,192430681,182159000,10008000,206838225,3
162008382,5402141,115577193,852799,120261212,878564,1900092,10815989,410346159,187309,166827861,27943,11287,549723130,4436,3.3,1.21,1.18,0.08,0.0,111094532,102862000,7989000,125463086,3
142061531,5064672,100404071,848572,105509812,830416,1514439,10184935,379569916,161412,153999623,22430,4708,472624733,2480,3.11,1.13,1.1,0.07,0.0,102726115,96440000,6027000,117063889,3
142998843,4925005,102211462,822057,106422429,798097,1441212,9947495,379253736,167933,148276452,23684,6391,473216503,2481,3.12,1.12,1.08,0.07,0.0,102371402,98138000,4005000,116697857,3
413067538,5118270,259005696,1516596,259694693,1523794,1670852,13278331,1128755627,402518,416066253,533189,212732,1272236181,2670,9.19,3.4,3.29,0.17,0.0,304838774,239727000,64926000,319238991,3
196920313,5178458,134683261,2991892,135490396,3009563,2307771,12920650,919929114,520292,199728681,224441,208658,667267681,3260,7.29,2.66,2.57,0.15,0.0,248584812,205292000,43061000,263037829,3
414199245,5503688,257716665,1586372,258771395,1592084,1688452,13337255,1136143244,403867,416790221,538630,213437,1267968138,2863,9.29,3.42,3.3,0.18,0.0,306472181,227205000,79071000,320884360,3
201850282,4951374,134333173,1314773,135012503,1317050,1555192,11715872,903924922,378277,204745873,223135,207126,671338743,2478,7.26,2.58,2.49,0.14,0.0,244139881,177654000,66244000,258110790,3
145065186,4973706,102748278,840871,107032453,818320,1407549,9797313,381782792,169528,151959146,21405,6494,480456760,2479,3.11,1.13,1.1,0.07,0.0,103182825,98936000,3997000,117612926,3
131541507,4788558,91610204,821695,92433274,830028,1437531,10120121,354236870,184159,129878819,22116,5539,423327869,2479,2.91,1.03,1.0,0.07,0.0,95425865,91135000,4005000,109663374,3
135230802,4802630,93327082,810626,93337882,818080,1534487,10059423,359251946,185629,129176280,22277,4459,423316007,2676,2.89,1.04,1.01,0.07,0.0,97227934,92954000,3998000,111526772,3
162697644,4639394,108247211,842392,105749487,878046,1678464,10336358,369064383,171256,152987437,20254,8459,513648449,3262,3.0,1.09,1.05,0.07,0.0,100709504,95419000,5022000,115036051,3
195187984,5046212,133278738,1311382,138829491,1306373,1670173,12026980,904768668,384535,201657859,781419,213238,652765791,2868,7.23,2.6,2.51,0.14,0.0,244772896,195465000,49116000,258803587,3
406880405,5110018,258095986,1526696,258486124,1541920,1668907,13045946,1121477063,391723,409394872,234332,211705,1266306569,2473,9.18,3.38,3.26,0.17,0.0,303477874,245232000,58055000,317699961,3
142393214,5001684,100137562,831793,104771851,810658,1435677,9962233,382649697,160187,154603582,16837,6034,476453807,2479,3.11,1.14,1.1,0.07,0.0,102972547,97728000,4986000,117324797,3
188544102,5234223,133251141,2575318,137649594,2531136,2321558,11476466,491950588,302959,201037205,26149,8566,614285496,3260,4.06,1.48,1.42,0.09,0.0,133231604,123991000,8999000,147597612,3
144121512,4996812,101220293,837143,105512953,813047,1417787,9919493,378696405,162817,152199769,21236,4769,475627998,2479,3.09,1.13,1.09,0.07,0.0,103190030,96928000,5995000,117557718,3
201930028,4997497,134451074,1312830,134974290,1313564,1575905,11699941,907375715,380556,205121867,693177,207177,674075464,2479,7.36,2.6,2.5,0.14,0.0,244207945,180002000,64000000,258607814,3
411527252,5053313,258159445,1511736,258948657,1528514,1641351,12927652,1126048246,398233,416323219,553348,602484,1266048618,2473,9.27,3.38,3.27,0.17,0.0,303599282,233239000,70071000,318059454,3
405938310,5075158,257132793,1517276,258182339,1523398,1611874,13079599,1128278756,404168,409447545,679467,210442,1263164902,2475,9.3,3.42,3.31,0.17,0.0,304757736,241589000,62893000,319131967,3
141511580,4887934,102008061,813898,107019084,798200,1457025,9815955,378713022,170619,149084454,23307,5448,468376392,2480,3.1,1.14,1.1,0.07,0.0,102217461,95846000,5990000,116600589,3
411827204,5100583,259000477,1524721,259281756,1536583,1654517,13259396,1122053745,388212,415365218,229831,213288,1266253782,2473,9.18,3.38,3.27,0.17,0.0,302784876,237403000,65110000,317311034,3
144909641,5121745,100475560,834137,106085807,817999,1550550,10065091,381764388,164803,154855354,18402,7065,477002465,2871,3.07,1.15,1.12,0.07,0.0,103450439,95188000,7932000,117794849,3
133243959,5035209,110276074,852743,111613010,838254,1514369,10494128,385744132,149967,144718580,20175,7171,534104138,2476,3.16,1.16,1.12,0.07,0.0,104991520,102654000,2012000,119102325,3
202442492,5069317,135063319,1328558,135948979,1332951,1622153,11946853,896136481,373687,205563643,229480,208726,676335044,2477,7.06,2.57,2.48,0.14,0.0,243957618,179545000,64195000,258177964,3
191196862,4992465,128052332,1309703,129080404,1322007,1725614,11775527,859711817,377463,193745270,222902,208368,645381319,2477,6.88,2.46,2.37,0.14,0.0,232309408,175016000,57005000,246629569,3
358987329,5062401,226084432,1038470,226526516,1052756,1662193,11533037,600362997,182415,368434993,32746,8313,1087398925,2928,4.98,1.93,1.88,0.1,0.0,163310275,154971000,7998000,177510902,3
403495706,5304266,253436224,1523587,259894180,1519214,1679211,13175607,1133589503,399832,418275647,804327,215753,1247610569,2679,9.33,3.42,3.31,0.17,0.0,305632770,238486000,66856000,319917470,3
404129724,5092128,267579720,3343983,268426731,3356981,1608516,13451375,1200454710,399974,411820173,811403,209798,1265034358,2475,9.88,3.66,3.55,0.18,0.0,323925774,261651000,61917000,338387719,3
144617351,5040282,100734373,845147,104967365,822708,1494052,10038439,379956780,158755,154171575,21330,12464,478135500,2481,3.06,1.13,1.1,0.07,0.0,103351022,98070000,5003000,117592514,3
201892468,5044368,135358917,1309557,135908887,1302978,1519070,11762177,894706306,379407,205246461,225469,246723,673360294,2479,7.2,2.57,2.49,0.14,0.0,242135953,172851000,68940000,256472891,3
131323842,4801165,91197737,804337,92196866,816645,1468729,10049028,356416816,188861,130537207,19906,3709,417142181,2479,2.94,1.05,1.02,0.07,0.0,96728032,93375000,3012000,111342845,3
134803367,4415025,95771889,716653,100102013,703333,855549,8633180,338055090,98806,142886914,15598,6205,447159697,2479,2.82,1.03,0.99,0.06,0.0,91011139,80652000,9957000,105354885,3
405650395,5611240,257068368,1499773,258114869,1508103,1560244,12862225,1129076137,402052,409047590,232701,211294,1260378234,2475,9.26,3.38,3.28,0.17,0.0,304817013,234618000,69886000,319123867,3
140374425,4987350,100654815,833716,105629582,814805,1433869,10170978,381137734,164730,153334086,20059,5242,466073512,2480,3.12,1.14,1.1,0.07,0.0,102736867,96400000,6025000,117307505,3
202413209,5114928,135643258,1310360,136395109,1313314,1536092,11884895,903740850,375296,205659294,226050,207839,679268736,2477,7.25,2.58,2.5,0.14,0.0,243748338,187325000,56097000,258089687,3
130195887,5244089,91976109,810789,87478929,752261,5617486,12610664,465614561,611706,130741391,37716,116331,464472650,5995,3.73,1.33,1.28,0.12,0.0,125677902,116355000,9027000,140010508,4
130506107,5701705,92238530,791345,91839212,703245,5639173,12929729,474054232,628582,131685484,38144,113507,458119208,6774,3.73,1.35,1.3,0.13,0.0,128081253,112802000,14973000,142687968,4
155328061,7273365,109304080,894303,101717238,914477,8432057,18290612,560874111,847503,152643849,32434,24955,550982551,8588,4.45,1.6,1.53,0.16,0.0,152505309,132307000,19895000,166887483,4
169520875,6284002,125587745,705693,122161215,696458,6813887,16192711,553975594,614520,167420064,41116,12989,617056905,9500,4.42,1.59,1.53,0.15,0.0,147515771,129153000,18021000,161905620,4
351353081,5494952,225189433,939575,221590632,830229,4825582,13603059,640906450,545259,340714058,45509,81435,1063156987,7160,5.35,2.01,1.94,0.14,0.0,172635207,158307000,14027000,187064554,4
126197846,6767795,90772445,896199,90588642,713335,5551406,15150809,477025158,685893,126445975,25618,82302,441319298,5456,3.72,1.36,1.32,0.13,0.0,128604265,116231000,12023000,143051470,4
374466292,9262710,246089677,1556370,248027620,1526895,11175617,23863129,994472494,1026755,372992422,75631,66542,1148268183,8474,8.04,2.89,2.79,0.24,0.0,268229685,254850000,13043000,282631091,4
150541444,6362059,107436290,867414,103366157,865674,7694688,17537644,536446562,678753,150330330,35382,15198,537576467,7968,4.25,1.52,1.46,0.15,0.0,145861576,129618000,15953000,160128071,4
358829797,5773106,226288980,1106195,221852378,1037056,5054686,13691470,679713883,627808,344934247,41522,77596,1096105290,6781,5.64,2.11,2.04,0.15,0.0,184389300,169211000,14930000,198872402,4
367354035,8857711,236719123,1245948,234094218,1175791,9911005,21639121,834984385,1029824,365433416,59654,55105,1135596556,7767,6.88,2.51,2.41,0.21,0.0,225105607,209774000,14983000,239555941,4
137206727,4794257,99628477,626872,101299191,625422,4940473,12345746,433804490,428770,149645265,22798,9714,507364514,6967,3.49,1.27,1.22,0.11,0.0,116944397,104656000,11960000,131479065,4
130251201,6206887,88024293,939101,88056928,893464,6588869,14752882,491265705,690194,134919275,35646,36236,451371036,6506,3.9,1.4,1.34,0.14,0.0,133313748,123965000,8997000,147780292,4
120875883,4790770,86629610,675270,87194986,674101,4728074,13402138,428028994,622344,122134352,16456,5572,422492440,3261,3.41,1.22,1.18,0.11,0.0,115790075,109506000,6027000,130224949,4
346701861,5394815,220134038,1369360,220014012,1360022,6233418,15405100,719143082,589773,353194129,60825,34833,1063752868,9025,5.97,2.22,2.15,0.16,0.0,193548297,176149000,17014000,207857120,4
124096482,4848827,89745033,656657,89478287,657201,4692755,13353895,426115741,637546,125094053,15781,6380,434675319,3064,3.34,1.2,1.16,0.11,0.0,114708981,108412000,6022000,129074024,4
135369334,4481840,100772704,621354,103325492,634442,4704452,12088876,427341060,456282,145935119,23231,9799,494223477,7578,3.46,1.24,1.19,0.11,0.0,115265612,101013000,14001000,129477949,4
122056025,4737517,84908266,841602,85999577,837048,5535528,13450535,455446474,591785,130733801,29743,26742,444291248,5214,3.6,1.27,1.23,0.12,0.0,123150590,116763000,6039000,137709215,4
137416146,4359051,101572737,623588,103090976,640556,4619651,10943264,423653992,427942,147955010,43086,8810,496563853,7187,3.45,1.23,1.18,0.11,0.0,114549862,102208000,12024000,128744482,4
130006679,6223117,90518169,982139,89008275,992754,7923302,17050227,496807321,665803,133576352,46120,12746,467405237,7166,3.97,1.39,1.33,0.14,0.0,134724483,125353000,9025000,148900362,4
125364950,5425477,89988807,702118,89099686,692389,6826484,16138604,484794531,831314,125497581,29228,11267,437558174,4432,3.84,1.34,1.29,0.13,0.0,130994602,121736000,8980000,145319825,4
348262375,5063952,223661919,1090269,218988356,1093592,5354116,14299600,672583286,742705,331404865,28433,12492,1039020527,3256,5.55,2.08,2.02,0.15,0.0,182311023,177935000,3998000,196776589,4
349655528,4450719,215639923,896542,211048048,888877,4905709,14230494,655675459,617806,346886247,27579,7624,1065645358,3255,5.4,2.02,1.96,0.14,0.0,177146955,170909000,5961000,191749566,4
196713104,22208860,149521802,7166887,152061222,7131012,17381918,50542305,1370547082,2577209,202259722,80694,22481,691143119,10538,11.01,3.76,3.61,0.35,0.0,370496139,352175000,18008000,384682771,4
145488507,5039711,103022534,683270,103191693,682855,5460816,13308319,462807093,491659,150488621,29463,14406,530431577,9234,3.72,1.32,1.27,0.12,0.0,123895941,105532000,17920000,138358467,4
129672001,6553984,92811059,1004181,92303893,914414,6370812,14076568,488429246,601960,130672899,45280,104708,463815816,6787,3.96,1.36,1.31,0.13,0.0,131586516,117221000,14026000,146058640,4
352172867,5082687,225240249,1016722,221199814,994106,4950798,12599573,631116735,553397,338188771,44289,86721,1052861124,6732,5.32,2.0,1.93,0.14,0.0,169950077,150539000,19068000,184558678,4
130503389,6311655,92105041,1012506,89534478,1026453,8069251,17146917,503284780,674998,133441238,34795,10945,467682660,7164,4.02,1.41,1.35,0.14,0.0,135557920,124221000,11019000,150016577,4
156274779,5831264,117365660,684950,121348786,686548,7684052,15170800,519905391,600689,166572353,70413,19829,592210369,10538,4.24,1.51,1.44,0.14,0.0,140179405,121822000,18122000,154527123,4
344998612,4502469,215092048,894426,213135465,886323,5107132,15017729,645532008,630787,346033114,25174,8165,1047586137,3059,5.35,2.0,1.92,0.14,0.0,174327178,163969000,9998000,188564368,4
146303202,4433193,103016596,645147,102422173,625823,5023380,12039325,440210562,432240,149002504,52693,11011,534567953,9039,3.64,1.3,1.25,0.11,0.0,119241974,102857000,15977000,133570817,4
119183403,3807791,83303326,700013,84607713,663213,4215878,11125481,396493647,500196,127274910,13474,5215,429287088,2867,3.21,1.12,1.08,0.1,0.0,106792672,102537000,3982000,121365261,4
344928963,4351649,215496564,926535,214628157,945214,4701257,13345760,605733709,441673,349394955,41830,21284,1060032544,6336,5.09,1.92,1.86,0.13,0.0,163265797,148967000,13996000,177491178,4
148255669,9901904,110834102,1053767,116650383,1103971,11538430,23869689,793053099,1089711,165455192,63038,19002,532190981,7894,6.12,2.15,2.07,0.22,0.0,214438094,201159000,13010000,228669416,4
184088644,13374470,142492422,758072,141521375,774133,11977899,29943625,736052949,1063521,185520777,143404,71156,750912735,23568,5.92,2.12,2.04,0.21,0.0,198220389,157927000,39981000,212233603,4
137106100,5848975,98654117,903729,96874836,914699,6751452,15746383,505332827,616627,137911525,50856,11894,500538147,8397,4.01,1.41,1.35,0.13,0.0,136215674,119834000,15977000,150701018,4
353882049,5199962,221716839,978686,218689089,972198,4490983,12447428,630065326,514241,348464969,53671,71272,1073724633,6954,5.31,2.01,1.94,0.14,0.0,170184810,154780000,14978000,184643556,4
348370961,4466510,218305722,1043765,216652867,1063593,4484097,12757916,632152022,597288,340940799,30633,10728,1060257260,2870,5.31,1.98,1.91,0.13,0.0,170133886,161859000,7993000,184556627,4
131134233,5801535,92598892,2845912,87083907,2466862,6298330,15526140,509521442,672479,135129716,27728,36641,465311155,4561,4.05,1.46,1.41,0.13,0.0,137258938,129914000,7049000,151757688,4
121175329,4910830,86309762,749653,87375121,730834,4801549,12823003,395379186,461673,126717038,30791,8342,432908485,6213,3.23,1.15,1.1,0.1,0.0,106563492,96195000,10020000,121084175,4
126522007,6082717,90243409,694271,90699642,647428,6511821,14741054,443849386,712237,133250562,56808,78808,460704706,7515,3.61,1.28,1.23,0.13,0.0,119765036,104401000,15057000,133920614,4
144295958,6484018,103068063,881858,102196581,907878,7255799,16283807,522913758,663329,147468912,46914,40963,523440504,7579,4.15,1.45,1.39,0.14,0.0,141239672,131777000,9053000,155550547,4
345559013,4091553,218617672,1228454,217028159,1221597,4606118,13413621,644450652,587703,340294813,18694,12198,1049620944,2869,5.33,1.99,1.93,0.14,0.0,174186029,165912000,7995000,188703617,4
129426756,5966127,93436465,952586,92023144,884268,6906986,15138712,482780099,685960,124821955,37917,67414,449322389,5992,3.88,1.36,1.31,0.13,0.0,130508132,114267000,15898000,144768560,4
188478555,12666708,135316307,1273150,130146811,1256990,13892039,29873883,812957851,1152439,195939601,75378,57011,725804936,11091,6.48,2.28,2.17,0.25,0.0,219032995,189811000,28971000,233502265,4
126407815,4129366,88950840,718463,88516120,700291,4857235,11082643,383797323,416542,126388976,49574,42975,447570413,6571,3.21,1.13,1.09,0.1,0.0,104172412,87800000,15963000,118635854,4
124853288,4697418,85463739,936433,81918429,929324,5188372,12747544,446627352,576881,130987539,20524,18199,442408411,4345,3.55,1.21,1.16,0.12,0.0,122920588,116627000,5980000,137354866,4
128038436,5978554,93353452,822280,88974864,701597,5623543,14192776,475701838,675590,128087455,23641,53826,455876833,5602,3.77,1.32,1.27,0.13,0.0,127477703,118929000,7995000,141901195,4
349046945,3929382,218156635,941671,215419057,943656,4659165,12580957,606029009,431056,345656073,38916,10583,1075793368,5948,5.16,1.91,1.84,0.13,0.0,163045835,153731000,9043000,177331932,4
351255347,5699114,221254441,1135576,218558491,1027946,5885933,13936698,685124873,624474,348095319,47663,62430,1073004963,5989,5.74,2.14,2.07,0.15,0.0,185091445,177761000,6990000,199288489,4
123160803,4409292,84830446,841613,83502330,833411,5207828,13213682,442072157,570662,128966370,18091,25502,435850700,4171,3.56,1.25,1.21,0.11,0.0,119727249,109321000,10029000,133994239,4
182088631,4726029,132429453,688540,130952387,673816,5322126,12777978,496554927,431656,186990415,57567,12149,699341922,9656,4.13,1.46,1.4,0.13,0.0,134598730,116217000,18033000,148937074,4
129837295,6841941,94614461,737127,92253935,829258,7792742,17701788,522041980,944631,124579009,30247,89987,448778737,5994,4.2,1.44,1.38,0.15,0.0,142192796,125839000,15979000,156679573,4
130201985,6686025,94036743,791380,91369575,860323,8090302,17637033,530550467,950159,127780143,31121,70823,449387015,5994,4.22,1.46,1.4,0.15,0.0,141987801,133679000,7980000,156536512,4
187858081,8091857,140051865,853292,134870893,784496,8906347,18607715,588310462,708632,176861283,51950,15033,681675559,11461,4.86,1.72,1.65,0.17,0.0,160196700,138877000,20981000,174693563,4
349557403,5778222,221364383,1100453,218871111,1038181,5978362,13885960,683400289,628404,348782311,45900,88594,1076425410,5987,5.65,2.07,2.0,0.15,0.0,185031218,167781000,16977000,199486256,4
415861616,27918827,275529599,9773836,277782904,9889247,22648968,66863495,1910366578,3646003,422342805,59154,129420,1283612185,9503,15.06,5.42,5.21,0.47,0.0,515735664,497474000,18017000,530102015,4
147407064,5251150,102978763,682444,99379927,669829,5176622,13548788,460286997,494775,150020512,42374,8806,534769505,7969,3.71,1.3,1.25,0.12,0.0,123283901,104005000,19001000,137719696,4
148841328,6364050,104060340,761225,100266124,780850,7467890,17341112,561816293,958555,152241556,41750,56655,535943202,7125,4.56,1.57,1.51,0.15,0.0,151646117,140287000,11022000,166126490,4
402357404,14561584,258368174,5840873,256258610,5830010,8606492,33468991,1120626356,1089054,400186275,67528,18293,1241281589,8293,9.1,3.34,3.22,0.25,0.0,303361841,287020000,16001000,317805056,4
129753405,5387568,91663098,688558,87972936,679908,6002814,15655735,452231905,654326,126701634,23415,20667,455745849,4490,3.7,1.29,1.24,0.12,0.0,122296207,112001000,10000000,136801755,4
150103464,4636695,105434157,677114,101568465,655277,5165373,12218209,449391519,472739,152342413,39827,10586,534768572,9038,3.68,1.31,1.26,0.12,0.0,121408999,101092000,20018000,135608560,4
360370093,5473706,225052621,1072299,220014754,1235093,6558993,15065177,720624190,676455,352856046,43658,128748,1089618786,7552,6.02,2.24,2.15,0.17,0.0,194982080,180711000,13977000,209224145,4
124965907,3979666,89397993,709278,87742947,686364,4753135,11414494,385333957,404297,127258921,31710,9198,445083912,5954,3.12,1.1,1.07,0.1,0.0,104602669,93387000,10928000,119136851,4
127366292,6093767,92459932,958498,91970707,956055,6898430,15428538,489979939,678588,125158363,28463,80483,448263599,5602,3.94,1.36,1.31,0.13,0.0,131826884,124525000,6973000,146287551,4
123289720,6397826,87445160,1033344,87670368,1023769,7779470,16864613,489250724,750411,125989875,32542,41233,432485086,5124,3.94,1.39,1.33,0.14,0.0,131617392,122302000,9022000,146068357,4
134437051,4284190,99277399,622632,100883021,647378,4499108,10431530,418256648,410162,143066145,22442,10272,480039626,6571,3.44,1.24,1.19,0.11,0.0,112806922,97585000,14936000,127197161,4
123675413,4175318,89788110,706833,89146375,670572,4308167,10505465,380665221,422845,124020396,40282,58290,442580031,5954,3.08,1.12,1.08,0.1,0.0,103092860,92671000,10073000,117396285,4
368661773,5471899,234750730,910699,228732234,907944,5463667,14270507,666901640,484575,363327477,63015,12984,1140786562,8190,5.55,2.1,2.02,0.15,0.0,179681720,162456000,16943000,194227273,4
149092726,5329101,104481369,640721,104384948,651540,5948854,13568247,474212991,686265,153597099,22511,9974,529690194,8001,3.86,1.36,1.3,0.13,0.0,129016570,110767000,17962000,143553987,4
123610921,4975546,87815509,747529,87873323,726997,4880032,12803505,390586581,452660,126724591,36157,9721,443471564,6196,3.16,1.13,1.09,0.1,0.0,106243003,92958000,12994000,120684292,4
169221988,8868692,125346351,796294,127686518,816142,10186348,22042040,739635531,916290,188898968,71426,22008,635530991,13185,5.83,2.07,1.99,0.2,0.0,201239493,175872000,24981000,215555599,4
120976055,4670681,89355713,682322,88868946,691456,4804524,13045615,432580046,621551,121899513,16206,14742,427779315,3259,3.42,1.22,1.17,0.11,0.0,115599927,109052000,6002000,130252977,4
350031291,6106022,220408851,1197756,218298045,1207481,7072828,17115123,699123731,670132,347678523,38565,40808,1068607349,6184,5.79,2.16,2.09,0.16,0.0,188742325,170476000,17944000,203129861,4
344968601,3909437,217044026,944392,214736817,948853,4568412,12044785,595347041,416003,344553207,41407,8893,1053472510,5329,5.03,1.91,1.84,0.13,0.0,161010152,149758000,10982000,175278287,4
345098239,4601858,217947721,859696,215066385,869825,4389283,12033101,625640394,569985,348268580,26605,6652,1065384057,2870,5.21,1.97,1.9,0.13,0.0,169248496,162961000,5998000,183571805,4
127855667,5890547,90766034,894547,87456608,809391,6187676,14299806,471554970,693106,126938352,35614,46544,440936489,4996,3.76,1.35,1.3,0.13,0.0,128008114,115728000,11971000,142485170,4
131578459,6053173,93133412,913203,90565714,1026458,7627448,16579178,513899221,699469,135572543,27592,14923,475127404,7556,4.11,1.47,1.41,0.14,0.0,138706665,124412000,13934000,153263685,4
124201358,5253609,90809579,647409,89190010,647729,4862057,14281130,427081356,627556,122607555,18259,5104,445430472,3071,3.41,1.22,1.18,0.11,0.0,115032579,108755000,5986000,129445087,4
399565332,4596367,255686754,886573,243970925,886270,4913349,11925993,678774730,423241,402115259,52588,10134,1267557461,7379,5.66,2.13,2.07,0.15,0.0,184304739,167001000,17000000,198643139,4
133386189,6453201,93889012,974972,94688054,892095,6383868,15025270,488324492,662273,131772839,38780,119924,463054201,6580,3.88,1.39,1.34,0.13,0.0,132030680,122741000,9054000,146229696,4
200982313,9604758,143151975,932618,137356146,874145,11590966,23557058,663583326,1277438,184370522,52982,70484,713051501,10138,5.45,1.93,1.84,0.2,0.0,178562620,157249000,20900000,192998362,5
272823037,7560190,192626682,1002117,184051775,1099709,11093701,23697942,757972813,989989,268005539,47792,50143,1002800752,10429,6.24,2.21,2.12,0.21,0.0,205208935,186827000,17983000,219450923,5
385865664,8558332,245839348,1246734,244035675,1241855,8042098,24130001,928344234,1175607,390020285,30397,317486,1219574888,3450,7.58,2.76,2.65,0.21,0.0,250078724,244752000,4994000,264617279,5
383392739,6479682,242088179,1016382,239426739,1010937,6970959,20425045,803923959,959239,385919257,27569,10908,1199334157,3453,6.63,2.44,2.36,0.18,0.0,216931355,210504000,5985000,231298383,5
166617303,7104905,111731101,961576,107830809,974998,8097446,21014525,546925147,773694,169474491,32434,22226,619481912,6625,4.38,1.54,1.48,0.15,0.0,147479430,134130000,13012000,161823080,5
383486203,6467420,241705544,1019520,239539190,1012634,6975757,20304472,805119752,959088,386984282,27084,17085,1198322500,3452,6.68,2.43,2.35,0.18,0.0,216794916,211452000,5010000,231264107,5
220759875,8053123,156155254,997740,148755287,970903,9039721,19582011,659878706,704077,216961677,65371,62620,833434265,12771,5.35,1.91,1.83,0.18,0.0,177258767,147975000,28995000,191612087,5
153459907,6628108,109060050,831881,111185419,829241,6287807,17628627,571426283,958623,156602944,19152,12534,548102034,3460,4.51,1.55,1.5,0.15,0.0,154875053,148675000,5986000,169228196,5
165237061,8270797,119207393,1147549,120423523,1036391,8504220,18573015,621934322,913656,159339584,37885,148470,598704094,7164,5.02,1.75,1.67,0.17,0.0,167901011,150733000,16969000,182193325,5
458587590,11292173,310801401,1319442,312503036,1330726,15038966,28530284,1137160125,1391775,448270741,106147,63498,1481312286,14726,9.49,3.38,3.26,0.3,0.0,306927816,284678000,22052000,321491024,5
176089906,6685807,112727955,978820,105146469,963496,7788919,18784908,595997507,855552,172377239,28530,117757,627330705,5410,4.75,1.64,1.58,0.16,0.0,161293756,152074000,9004000,175814879,5
189324960,8742486,146785132,824490,144840565,861319,11026054,24340343,685317403,1100325,183879269,49989,26857,708589729,7466,5.58,1.95,1.87,0.2,0.0,184609412,172270000,12018000,199093974,5
159492025,8422040,112095575,1317128,110124469,1344052,9854885,20623137,684029592,988604,176423015,36782,147585,577080388,6389,5.4,1.86,1.78,0.19,0.0,185795884,169632000,15965000,200199403,5
356747116,5567271,233957376,1030636,236596796,1006168,6245311,17544809,798686974,834303,357378787,29306,12160,1140721570,3256,6.61,2.38,2.29,0.17,0.0,215829050,209614000,5988000,230212868,5
392295467,6768836,248317739,1082196,246264588,1083402,7244089,20061352,852356691,977223,391506199,24561,11000,1264001347,3458,7.01,2.54,2.45,0.19,0.0,229848477,224580000,5012000,244152814,5
399027762,10215143,253439720,1568693,249945771,1221391,9803280,21713259,903505728,1039592,386822384,55191,183653,1226417952,8335,7.44,2.7,2.61,0.22,0.0,244079172,225855000,17988000,258273002,5
423916139,13731829,277119035,1475664,277817856,1417342,18606022,35560421,1275148992,1699387,427325436,61725,381371,1337904866,11211,10.09,3.61,3.47,0.34,0.0,345268846,316992000,28087000,359563222,5
388982483,8601312,244899361,1263643,242719782,1151214,8672126,20389053,810443990,1096290,391406545,54340,97976,1223281406,8180,6.8,2.46,2.37,0.19,0.0,218418998,203139000,15010000,232656314,5
156065686,8991870,135346904,1244845,129453617,1135622,9086267,23009983,714275183,1051509,159780111,27389,74059,693644551,5688,5.67,1.91,1.84,0.19,0.0,192754052,177393000,14948000,207182503,5
204750808,7512734,149478087,929765,148810429,917223,7485447,16771115,626426167,724702,202784302,50424,45594,742407536,9601,5.15,1.84,1.76,0.17,0.0,168866970,147539000,20934000,183244641,5
226612367,11172560,168529967,889654,167006349,821569,12401716,25413909,792542939,940284,231906392,58894,85472,835464031,13168,6.44,2.24,2.13,0.23,0.0,214961046,196742000,17976000,229414831,5
185995001,11049662,124530761,986721,123415859,957174,12332139,26688555,771004623,1242000,184493860,31522,261641,623938720,9122,6.12,2.11,2.01,0.23,0.0,208916898,193638000,15049000,223221397,5
204336424,6747092,138811845,825839,134395526,929113,8858011,18193608,620805370,881482,197909343,39293,85388,711786306,9552,4.98,1.79,1.72,0.17,0.0,166019339,146784000,18972000,180283173,5
168848831,5450291,110290592,818524,104550142,812612,6074970,16809039,548589377,785913,165114498,16627,14385,607849093,3458,4.37,1.55,1.5,0.14,0.0,148248442,139991000,7999000,162650106,5
445480830,8172364,291973195,1169885,286179404,1220895,9281016,21689511,899281578,732323,445839790,81200,43719,1468958390,12763,7.49,2.8,2.7,0.21,0.0,242684302,221507000,20953000,257065959,5
167765368,7811445,112243471,1002346,112499011,1224342,12372387,23123196,653149431,1009117,176886897,34967,41879,635445292,7947,5.22,1.8,1.73,0.19,0.0,176112733,155759000,19969000,190467342,5
396019439,10000788,250814139,1626705,244610210,1624571,9488399,24415159,936401896,1112873,387719469,34408,66731,1235723818,5693,7.67,2.79,2.68,0.22,0.0,252255257,241033000,11001000,266639630,5
159364563,6774705,113038423,967545,110686130,982824,7434466,16821024,528865131,728130,167984830,32834,13140,565898502,5992,4.25,1.49,1.44,0.14,0.0,143408818,131128000,12011000,157844427,5
179258372,8164132,113915353,1316247,111281518,1294349,9873147,23024578,647918635,963677,181373585,38722,15839,637443205,6580,5.19,1.8,1.73,0.18,0.0,175258408,165934000,9050000,189590474,5
217620724,8064726,144962190,921989,142286071,939836,9253074,21773094,652423775,801099,222518534,41139,35106,782849125,10868,5.32,1.9,1.82,0.18,0.0,175779457,154588000,20944000,190176778,5
172621163,7010980,122657732,825617,116985614,865240,8197684,18907322,561341793,838040,164135923,40489,97353,604611653,8088,4.57,1.61,1.54,0.15,0.0,151460110,133191000,18025000,165693515,5
153886334,6943317,111444516,962491,110401369,960945,7134698,17397271,529464468,739218,171108063,23327,28665,566768707,7015,4.22,1.45,1.39,0.14,0.0,143959081,130738000,12974000,158360253,5
159116260,7247214,114910160,809979,116949945,822874,8549832,19790326,619453808,1072278,157482279,25884,21733,569485054,4824,5.01,1.73,1.67,0.17,0.0,166780642,155543000,10967000,181063884,5
202451470,8605917,147589829,927915,141750350,915368,10222378,22065033,670799992,997800,210566646,54009,24623,763891946,10433,5.41,1.93,1.85,0.19,0.0,180164423,164823000,14983000,194662704,5
200102580,11718107,140793247,1113405,140346972,1277821,15797140,32684365,1006392345,1746840,205793371,47423,26379,712983488,8090,7.93,2.76,2.65,0.28,0.0,271984616,259728000,12033000,286261303,5
389400494,6576759,244837798,1045119,241456136,1027091,7014684,20544589,815505006,946025,382284969,30789,16325,1217525926,4040,6.7,2.49,2.41,0.18,0.0,219067428,209685000,8986000,233408886,5
159103956,7752279,114320591,848192,115299717,851238,8365076,19113718,624550053,1143264,155559555,18863,16545,561870219,4437,4.97,1.74,1.68,0.17,0.0,168231855,157849000,9990000,182697974,5
165040889,7304967,113655137,931917,112400696,912713,7889411,19026408,538576180,813878,173110177,23481,11799,595666692,5555,4.37,1.55,1.5,0.15,0.0,145400959,133118000,12010000,159620402,5
222059512,9253187,164284455,964685,159346500,981585,11623957,23463020,728682737,941556,206975236,68726,46462,810932334,14427,5.92,2.08,2.0,0.21,0.0,195394484,168023000,27003000,209528950,5
297522397,11720010,191734943,1362242,192946270,1379867,12149440,38710966,1071622645,1308874,297875402,25378,16229,1045165637,6952,8.61,3.07,2.96,0.28,0.0,289771859,280484000,9015000,303895962,5
165373511,10926537,118260102,1548139,118897041,1475304,11142019,23915282,731140581,1231793,159733427,23130,96432,585776681,6677,5.82,2.02,1.94,0.21,0.0,197049060,187759000,9036000,211199234,5
170614497,7182065,120870268,1110295,114280878,1023707,8504702,19096352,610014127,920513,156116074,31055,72612,577682669,5562,4.89,1.71,1.64,0.17,0.0,164682835,157365000,7016000,179219789,5
165532864,8027039,119398001,1143360,119289368,1052516,8170235,18856471,622244314,935736,160320159,29741,120433,591588242,7164,4.94,1.71,1.64,0.17,0.0,167256770,151894000,14989000,181603132,5
305965004,31516385,223114198,11802334,217915349,11859649,26564773,73914166,1992733463,3745195,301456834,88257,72237,1088204746,16136,15.9,5.38,5.17,0.51,0.0,537896020,506661000,30979000,552427114,5
158307026,7434389,115769898,824490,118098258,817031,8582495,19794181,630398939,1149398,152642690,24013,22188,544809372,5216,5.06,1.8,1.72,0.17,0.0,170129277,160779000,8987000,184402959,5
400495899,9184193,254547815,1510766,247241187,1433763,10871290,23625425,942375653,1095307,394263513,39387,163455,1260240047,7162,7.75,2.84,2.75,0.23,0.0,253563107,234300000,18943000,267826793,5
180596080,7015995,126037407,883936,127092947,883151,7495110,17123148,584724624,786086,191380037,29894,24494,637683022,9160,4.73,1.71,1.64,0.16,0.0,157802779,145526000,11961000,172186983,5
391849438,6100085,251427127,1439522,250018587,1432132,6948256,17618175,840902448,1021312,381085299,32910,34535,1209678720,4428,7.01,2.59,2.51,0.19,0.0,226807324,215461000,10972000,241086746,5
160277976,7948046,112971038,1246621,114460286,1226662,8823988,18053364,622380421,1013964,158577775,25489,47283,560889706,6399,4.95,1.7,1.64,0.17,0.0,169332488,157066000,12005000,183700019,5
157969627,6837875,112277093,945147,111755493,947704,6720716,16135131,523406790,661350,162269267,26545,44940,559513221,6430,4.28,1.51,1.45,0.14,0.0,141613409,126314000,15037000,155962338,5
317441939,8481868,214433324,2296130,213795909,2286649,10624141,25466262,1682132014,1349668,331263977,914437,431202,1140716103,7846,13.49,4.73,4.56,0.32,0.0,453898480,316764000,136898000,468480716,5
208387669,9514085,145987520,885061,139203135,870951,13758220,26855330,872502099,1784717,196489132,48733,34603,766902239,8338,7.06,2.41,2.3,0.25,0.0,234928020,220568000,13972000,249231752,5
475319692,17818263,325752042,1038123,331424329,1047053,21319922,39900370,1312399514,2519728,479956879,109850,77560,1613022416,20775,11.05,3.93,3.76,0.38,0.0,354184417,319930000,33992000,368495910,5
160945823,7984695,112648388,1187687,114508104,1169150,8816525,18709150,622494717,1014362,159036998,26173,58130,561809820,5995,4.97,1.72,1.66,0.17,0.0,168992789,152776000,15976000,183447288,5
390038988,7632108,249491624,1438214,247573705,1405961,9051771,21337565,847957173,909186,381126002,42840,54517,1223904376,6381,6.96,2.5,2.41,0.2,0.0,229882306,218602000,10980000,244196599,5
491109035,14297843,320001655,1895557,326319259,1863092,14429032,39637764,1323800304,1615503,489920927,52736,53636,1595822296,11635,10.97,3.99,3.84,0.33,0.0,355740800,334517000,20969000,370188631,5
386228305,6437535,245174389,1167931,242070399,1214309,7498678,19586037,769946185,725931,391885250,39847,22764,1226297343,6622,6.44,2.4,2.31,0.18,0.0,207543636,191123000,16010000,222026894,5
162775478,7171102,110187956,967051,110294311,895974,7800403,17535697,543101736,825070,177116155,29810,42293,611883599,7213,4.44,1.57,1.5,0.15,0.0,146047001,133705000,11973000,160485765,5
160280780,8029961,110498547,1270342,109779737,1291057,9722154,20768700,693324756,1109850,179173926,30531,43900,572984914,5864,5.47,1.92,1.85,0.19,0.0,186721527,175446000,10965000,201239004,5
395454085,8004162,247909382,1505680,240900650,1488709,8212285,19981596,887858835,1025368,390555147,36496,61655,1221325628,4989,7.36,2.72,2.62,0.21,0.0,240112118,221710000,17976000,254623679,5
165939736,7477595,115431087,1111889,113654310,1025579,8447693,18906025,615347647,929109,161709579,23342,74650,564647579,5780,4.91,1.73,1.66,0.17,0.0,166202478,154910000,10993000,180576560,5
392947853,6346502,248021627,1146052,242267645,1205592,7376419,18837931,767826193,758346,385581053,38985,26582,1230041648,6427,6.39,2.39,2.3,0.18,0.0,207745505,191553000,15962000,222012725,5
397322133,10282333,253694894,1260099,250332861,1185655,8183908,26912156,930964052,1085455,395277382,41089,60287,1255509004,6492,7.72,2.79,2.68,0.21,0.0,251893202,231612000,19966000,266122398,5
176711259,7616862,116406191,1304441,114721769,1305081,10364295,22733679,649051069,893488,185473721,33471,23527,650159962,8149,5.23,1.81,1.73,0.18,0.0,175554241,151095000,24015000,189762342,5
404843320,10475804,250200551,1338894,247231824,1216310,9719005,24154752,908075303,1035938,393042576,51842,204334,1235476076,7161,7.47,2.7,2.61,0.22,0.0,245634351,235378000,10016000,260118927,5
389683276,7020934,246860456,938370,242184925,1032081,7705201,20969094,778829401,843569,389031890,41024,106356,1225951115,6619,6.52,2.38,2.3,0.18,0.0,210821539,201487000,8977000,225407953,5
162124321,7503866,111616928,995092,111459065,1009527,7915321,19003482,538494432,697343,174633227,38638,23586,603947188,7062,4.38,1.53,1.47,0.14,0.0,145466316,128147000,17019000,159890120,5
176342847,5808119,119250664,786021,112227616,986984,8269607,19977224,554973955,814697,169808059,30217,89381,625535504,7655,4.51,1.58,1.51,0.15,0.0,149437770,135149000,14015000,163974801,5
167119996,8052194,118577833,1149918,117811012,1019305,7944982,18960516,617556091,907143,161462422,38426,145033,587886772,6582,4.94,1.73,1.66,0.17,0.0,166790667,153551000,12962000,181381244,5
157721156,6620264,140794233,891030,136236284,990888,7267924,18333332,568382809,770437,157904350,30976,57886,701370758,7646,4.61,1.65,1.59,0.15,0.0,153678068,139511000,13951000,167890040,5
189274987,8119187,127952249,949668,125867761,923688,8578121,19608195,599646430,797738,193546845,38845,90006,713403801,8964,4.94,1.73,1.66,0.16,0.0,161724162,142473000,18930000,176020640,5
156107796,6893507,112564942,1118135,109839144,1075995,7193170,19676524,605232792,872222,163535753,21538,31237,593940477,4158,4.8,1.7,1.64,0.16,0.0,163272105,155998000,6999000,177723352,5
391028099,6305094,246786862,1216869,242765032,1228671,7231755,18584079,764534416,710307,384212138,39694,21490,1231225598,6425,6.31,2.33,2.24,0.17,0.0,207303543,191995000,14999000,221539135,5
389600290,7122755,249490940,1459136,248140333,1350541,7626341,18525532,796677508,803720,380247293,47055,217170,1207264371,7449,6.61,2.44,2.35,0.19,0.0,215286380,197024000,18002000,229650179,5
161637254,10999312,119146047,1194974,118368531,1220953,13854047,26891216,732891219,1375433,167116713,49340,113347,565756753,8146,5.77,1.95,1.85,0.23,0.0,200662974,183293000,17027000,215209051,5
493682873,13520965,334178009,4402321,329965029,4203495,11874420,32634986,1215474644,1104077,492831677,74094,28392,1631455454,13036,9.99,3.68,3.54,0.29,0.0,327992645,305744000,21981000,342454105,5
251796975,9123866,187233402,785661,187959022,856318,11047627,23814755,778893748,894885,263101640,103080,105734,979293168,18231,6.34,2.31,2.22,0.22,0.0,210797324,178462000,32083000,225116162,5
164403525,8308071,116283011,1309719,115843550,1303698,9219737,19566000,631002799,908762,165381116,48213,65155,580125629,7364,5.0,1.73,1.67,0.17,0.0,170557589,159230000,10947000,184873542,5
227290297,8250932,162013982,958026,157329577,978800,9538570,21456123,701256651,745198,224045864,89229,66166,859191127,15649,5.71,2.06,1.97,0.19,0.0,189674898,154274000,35062000,204208835,5
164876622,6984160,112983065,826763,111368017,809459,7835130,18403728,538957821,747087,177593640,30691,14859,615294022,6584,4.3,1.52,1.46,0.14,0.0,145744786,136417000,9027000,160160047,5
173728040,1001570,124024026,1705752,124107458,1643292,358976,3103938,283160526,13498,166977514,17306,11390,565347497,2365,2.34,0.91,0.89,0.04,0.0,77011470,74710000,1992000,91458782,6
284176639,16917189,213025993,9347415,213042925,9478509,13369912,40679159,1297287172,1619715,280705012,68105,33359,949897470,10098,10.15,3.71,3.56,0.31,0.0,350361464,330055000,19942000,364864580,6
188560167,5629143,142850001,2512090,144016503,2558459,4027934,13013385,411873714,159211,180580586,23514,13054,641918201,3653,3.46,1.29,1.25,0.09,0.0,110670652,102407000,7953000,124815721,6
166826964,2473008,121349214,1585122,121089349,1668424,477561,3522601,265304179,9580,175624794,9877,7534,557682691,1696,2.19,0.85,0.83,0.04,0.0,72124704,63839000,7979000,86549280,6
752309326,16028429,486008965,10065359,483585088,10024193,13705197,39923252,1762052852,1589345,754791992,85760,43239,2266417441,10094,14.38,5.29,5.11,0.38,0.0,473751984,454392000,18974000,488033431,6
249480559,14431717,174691482,1950936,169268632,2001008,1020746,5271530,556865667,34174,249821627,24092,8311,806492411,4433,4.34,1.61,1.55,0.09,0.0,150575598,140271000,10019000,165028675,6
695230327,8189475,428880277,3233875,430209276,3104562,1161335,5754518,980330482,37945,704452117,39586,20494,2056742531,4231,8.17,3.23,3.13,0.15,0.0,264930688,255992000,8999000,279246843,6
689953775,10318548,441595952,2458537,441627375,2560182,5879499,23500598,969926611,225303,675116529,80985,44958,2071683500,10938,8.3,3.27,3.17,0.18,0.0,262536009,245497000,16965000,276824157,6
745923807,16376413,482669844,10330871,483786986,10437199,13713908,42049670,1765159920,1610244,746823054,82225,69756,2231815653,9700,14.45,5.35,5.16,0.37,0.0,477029243,465283000,12007000,491449398,6
206745591,2333335,133467939,1658997,125492076,1763615,627300,3628444,307529824,25047,206866662,9899,4898,643029901,1698,2.55,1.01,0.98,0.05,0.0,82825856,78626000,4032000,96983008,6
750221952,15935123,485894436,9998579,485512347,10114837,13652488,40704481,1764017293,1590397,752808694,92575,39397,2253419863,10091,14.45,5.34,5.16,0.38,0.0,476466694,457646000,19026000,490915766,6
752014353,15741237,487125371,9833396,485841965,9928304,13901453,41265210,1761496682,1607303,749080967,87693,51837,2254278553,10093,14.37,5.27,5.09,0.38,0.0,477402648,469640000,8010000,491593365,6
268953948,13679941,196800043,10957240,195523555,11030994,10578594,32685011,1168029815,1258101,268754679,42282,17339,897106049,5913,9.25,3.19,3.07,0.26,0.0,316148437,310075000,6020000,330583965,6
171649067,1094535,126216678,2247264,125682322,2497038,425677,2802761,292926921,11048,166243961,4440,3897,588011665,1308,2.44,0.93,0.9,0.04,0.0,79064269,74869000,3993000,93316917,6
279037517,16239829,211524691,9376834,213122781,9472088,15570049,39482384,1359960014,1905699,278202731,56079,60689,927095816,11775,10.72,3.74,3.6,0.34,0.0,366633140,352630000,14025000,380802302,6
285044375,16301302,215003535,9421807,214560469,9469492,15589971,39473357,1352818122,1930226,274599180,60041,39680,942752482,11774,10.71,3.73,3.57,0.34,0.0,365118490,349082000,16049000,379019739,6
1174302089,6783860,839413605,3213704,834157269,3267246,4457619,18553527,1448199184,184028,1161493278,39272,15554,3816205371,3645,12.69,5.1,4.95,0.25,0.0,391501163,385521000,6008000,405870816,6
160622823,2491105,115503212,1587998,114528974,1926538,511547,3059579,260879298,9726,172877403,16967,7591,549514476,2087,2.19,0.86,0.83,0.04,0.0,70253419,65000000,5000000,84488423,6
254230095,25837915,196130208,4410318,196299104,4387430,1479750,7643926,708087419,39318,258912403,48744,20681,837313728,6315,5.55,2.04,1.97,0.11,0.0,191157307,179986000,10999000,205680528,6
192433694,3463949,133611452,1540787,134998669,1536800,1216135,5035766,328035617,23689,203004539,20987,16924,652338175,5579,2.77,1.07,1.04,0.05,0.0,89404111,82174000,7014000,103802834,6
740168693,14423874,481376187,12769259,482309344,12741911,10374139,36142786,1702854802,1282113,743417328,76355,39428,2242792223,7403,14.12,5.24,5.06,0.34,0.0,460289569,452290000,8005000,474621438,6
179909948,1563646,138908949,3640210,142777774,3448697,755943,4669912,366345689,15799,188518070,4815,4228,651218277,2604,3.02,1.17,1.13,0.06,0.0,99474515,95212000,4008000,113874825,6
306837534,23337283,230891594,7533383,234003518,7133682,19696030,39604098,1355275802,958968,304882881,89779,53345,1028196094,14490,10.51,3.75,3.6,0.33,0.0,364793475,337611000,27048000,379395310,6
661491564,2662466,405333679,2424189,401868300,2564888,486788,4869278,770415624,23305,668343545,26504,15774,1927689018,1690,6.7,2.69,2.62,0.11,0.0,207936820,202685000,4992000,222425425,6
207695298,1850416,126011941,2937984,121098113,2891188,613895,3754165,329077782,20229,211486774,7597,8140,639910984,2090,2.72,1.05,1.03,0.05,0.0,89460940,85196000,4009000,103766091,6
171396477,1948723,113202819,1606859,107195593,1659884,555380,3944752,288524813,12689,172933802,5947,4166,574313003,1697,2.37,0.91,0.88,0.04,0.0,77587376,71391000,5949000,91948927,6
173220522,1759264,118885920,1528933,117058198,1594755,356890,3390601,276823790,10417,177316184,9443,3941,571507264,1307,2.32,0.89,0.86,0.04,0.0,74286760,71061000,3002000,88631998,6
276843255,16179313,205271218,9466657,205836369,9408371,16183816,40088469,1369794091,1861765,286486702,77026,24946,938130678,12515,10.72,3.72,3.56,0.34,0.0,373082249,351968000,20998000,387508000,6
345023131,27138729,260340368,7594684,264420780,7497769,16922717,45319053,1487972311,1160030,354886838,63014,24775,1163164849,10369,11.97,4.18,4.02,0.35,0.0,401461341,389294000,12009000,415807078,6
754849769,15777219,493026972,10041164,489021628,9995835,13756118,40043250,1753994044,1643041,740198105,88695,28567,2256936025,10092,14.43,5.33,5.16,0.37,0.0,473214116,459979000,12999000,487371019,6
174546848,1821714,133216517,2374137,132244217,2485954,1043760,4514474,327798765,23279,172604277,25678,19790,605097890,4797,2.69,1.04,1.01,0.05,0.0,89887038,83464000,6033000,104368656,6
171808115,1207217,119132853,1560152,118353530,1570815,391138,2907940,263140747,9771,171158920,2736,4338,565388110,1109,2.16,0.83,0.8,0.04,0.0,71563627,67348000,3961000,86072322,6
750407751,16067859,485889466,9959103,484692257,10058014,13448385,40005831,1762655745,1604070,752271752,77697,57499,2260324664,10094,14.92,5.32,5.13,0.38,0.0,475577683,452477000,22973000,489809458,6
283787596,16080075,207435763,8351531,207659800,8291549,17074671,41098453,1379403669,2064974,285797946,61769,45247,953836072,11772,11.1,3.85,3.71,0.34,0.0,371051618,353881000,16994000,385382180,6
642126227,1314009,399414745,2227840,399220327,2067024,442361,3704647,725859215,21517,650195673,17264,6828,1908041755,1106,6.31,2.55,2.48,0.1,0.0,195660917,192478000,3007000,209751481,6
172838971,1668835,132978108,2179857,133633776,2194311,503111,3879872,308679483,12910,169510175,19608,16720,628678045,2847,2.57,1.0,0.97,0.05,0.0,82885359,77651000,4977000,97388666,6
671795972,4273939,431020185,3872323,426291484,3810595,4502247,12697551,933339836,394299,660617564,52292,27117,2005447315,9331,7.98,3.13,3.04,0.17,0.0,251938942,233760000,18058000,266084537,6
665674482,5577217,429379387,4417841,432024205,4246599,4283893,16109526,902217086,131839,661579662,43530,19563,2008987480,3450,7.7,3.08,2.99,0.16,0.0,244263539,235937000,8031000,258788848,6
689660388,8983122,437050890,2659293,433888758,2661500,5599240,20760046,950147272,170141,705429958,56196,33051,2105270092,7990,8.28,3.24,3.14,0.18,0.0,256583389,241332000,15020000,270954370,6
573283892,21877936,408191052,8171253,411313310,8046428,7771063,23230768,1412145973,247568,579126816,103652,76764,2070717428,15748,11.51,4.22,4.07,0.27,0.0,382507427,355317000,27024000,396943885,6
210919465,2364405,134568537,1543316,126469898,1698273,755229,3663633,306677796,24201,206185722,14152,5306,650539311,2281,2.57,1.01,0.98,0.05,0.0,82763903,78522000,3975000,96850349,6
309331170,16675336,228211215,11254644,225472959,11398427,14356161,37871443,1383417501,1605820,318236147,103860,70408,1047031849,20354,11.08,3.9,3.76,0.33,0.0,374123993,341861000,31987000,388445107,6
683717956,10921149,438755358,2709034,441031024,2685928,1070028,7015916,979673588,39876,692469072,56799,27271,1998491347,5934,8.22,3.16,3.06,0.15,0.0,267236150,258988000,7999000,281712563,6
209070723,1948717,128467843,1553020,131663059,1587461,894469,4620883,330599562,17028,207326362,20206,15612,619996619,4109,2.79,1.1,1.06,0.05,0.0,89381148,80077000,9008000,103468160,6
674066858,2225391,405591982,2263093,407445691,2361710,786866,6019651,785974459,27813,674402275,42408,21062,1934154585,4102,6.9,2.74,2.67,0.11,0.0,212266438,207005000,5000000,226486360,6
242353592,8796741,179477460,1750668,176416912,1641087,3201609,15184793,457158765,158044,242140791,16818,12823,889635221,3260,3.81,1.44,1.4,0.1,0.0,123829518,115451000,8031000,138095096,6
639591772,1915506,404134409,2861160,404242439,2974469,690596,5711297,762861899,28521,626867697,41306,17504,1884192848,3201,6.57,2.64,2.57,0.11,0.0,205861586,196375000,8971000,220173746,6
676894900,8009702,556491691,1747762,551603647,1711934,4642433,20221636,954416838,189151,658984645,28975,23665,2420926047,3259,8.27,3.26,3.16,0.18,0.0,257810985,246469000,10976000,272169497,6
218396658,1779752,139628821,3736329,135401585,4060360,1099375,4839968,381096368,21737,205130970,16029,11638,652233695,2870,3.11,1.17,1.13,0.06,0.0,105439364,102117000,3003000,119860368,6
639921477,2806208,405869425,2180998,404471582,2374177,1097560,6621354,782528210,31072,644538882,49377,24738,1926916428,5785,6.77,2.71,2.63,0.12,0.0,209705283,202278000,7009000,224293404,6
656336899,1795711,400062647,2285150,399492203,2315662,716480,4573958,773676941,27128,662093501,43769,16100,1925572666,3444,6.69,2.69,2.62,0.11,0.0,208536600,201297000,6975000,223004642,6
249296700,8950846,178070685,3296016,176926501,3393901,4438872,17376841,501080087,139733,262819793,27342,14388,870125848,4753,4.21,1.54,1.49,0.1,0.0,137392236,129079000,8004000,151707498,6
750620090,15994177,486722037,9913677,486149322,10026858,13728938,40564735,1760714909,1608439,750861472,93657,47134,2255786962,10093,14.47,5.3,5.11,0.38,0.0,476502935,462268000,14008000,490969829,6
278301558,16753532,212430339,9235225,214086525,9335795,13638105,41408449,1305756592,1616935,278163433,65399,50062,936145716,10095,10.51,3.69,3.54,0.31,0.0,352070765,323804000,27983000,366473112,6
392725624,9912874,291170227,11956351,288097107,11839047,8061170,25459029,1227661191,843852,383732987,50649,22184,1434658535,8160,10.08,3.62,3.48,0.25,0.0,332116925,318806000,12992000,346653201,6
214149713,9403137,171381453,2026341,173083320,2030032,838906,4293905,503822492,22969,221330277,15930,8103,735517729,3845,4.02,1.51,1.45,0.08,0.0,135924160,130577000,4983000,150281560,6
216411786,5516637,176329218,2430293,177953195,2209832,3640716,12982047,446522958,119145,210804669,29972,7690,821192411,3258,3.76,1.43,1.38,0.1,0.0,121188025,118967000,1999000,135386338,6
207049630,11047413,163353364,7046492,161542370,7201291,4159877,26472707,626782117,257796,204225134,47130,40191,770976043,11288,5.09,1.93,1.87,0.13,0.0,169498039,144273000,24874000,183972971,6
187847769,5661431,134871497,2544102,140077752,2371693,3244874,12794266,399647779,126770,186799227,25814,7098,624110219,3260,3.36,1.29,1.25,0.09,0.0,107834959,104502000,3014000,122368937,6
698990640,9719287,437253774,2608539,438532705,2451142,719743,5603286,968111878,35711,704729381,36432,18035,2057703925,3841,8.18,3.22,3.12,0.14,0.0,261431604,255037000,6000000,275771605,6
686912092,8572918,443121289,2515613,445002828,2283475,5063406,20030509,909766155,198169,673089773,55527,19457,2090946137,5599,7.95,3.18,3.08,0.17,0.0,245309968,233972000,10998000,259687173,6
638132932,1806626,405350093,3154294,404205999,3030346,1066498,6001209,787227657,34323,635485484,35099,18139,1901674051,4794,6.89,2.75,2.67,0.12,0.0,212958566,208609000,4011000,227342785,6
327096746,19176151,237049938,2231272,234941623,2237304,21744396,48483676,1561868228,2778192,324909578,83719,56456,1153021948,18075,12.52,4.26,4.08,0.42,0.0,423324657,392067000,31005000,437718384,6
204639275,6241291,148994190,2678710,146358373,2590109,3113084,11151942,408316568,109433,205648345,23284,9775,724808802,3260,3.46,1.33,1.28,0.09,0.0,110305138,104985000,4999000,124702949,6
166391589,1002503,121277081,2432281,120404426,2603906,341552,2346143,290200390,11860,168960763,10868,7124,567341948,1500,2.4,0.92,0.9,0.04,0.0,78262399,74827000,2993000,92532175,6
656388639,1009562,398630916,2322010,397821442,2261531,415138,4549889,749309061,26419,655280030,26257,11299,1912067176,1876,6.51,2.62,2.55,0.11,0.0,202903736,197589000,4989000,217476377,6
283710605,15982937,207509288,9210101,210204284,9145095,16376858,40885457,1376794557,1832133,292430400,87158,52053,964144366,11663,10.95,3.82,3.67,0.34,0.0,372216659,350983000,20999000,386585246,6
169410611,1357910,125066783,2269741,123987618,2310526,551359,2869046,307174418,10055,170204399,6944,7140,585786734,1894,2.57,0.98,0.94,0.05,0.0,83088973,75814000,6982000,97527735,6
205765887,7101059,171489155,10713445,169803260,11136047,1152082,17945407,621690902,25273,200880395,30071,24961,830549147,4810,5.01,1.9,1.84,0.1,0.0,168081697,160723000,7031000,182555720,6
651517328,1695652,406318394,2455669,404597895,2465708,655670,5224603,758920880,28778,645146758,33694,14673,1939914698,2720,6.52,2.58,2.5,0.11,0.0,206449739,202189000,4003000,220899775,6
180630934,1608896,129907156,1760224,127422290,1694337,606090,4725983,289155252,12351,175298427,7938,4710,625886309,1698,2.42,0.96,0.93,0.04,0.0,77852020,72610000,4973000,92134508,6
361157483,16253467,263217528,12217923,261486318,12099538,20182243,41314725,1419861694,2302466,365778676,53768,37669,1178868230,9548,11.58,4.08,3.93,0.37,0.0,384003847,359654000,23976000,398430884,6
168257922,1595872,123943976,2405655,121690600,2531647,579314,3026169,297430507,11131,169078638,3051,3450,583449288,1697,2.44,0.95,0.92,0.05,0.0,80578498,73360000,6939000,94998454,6
210729812,2923104,136810043,1544172,136531036,1601685,1107549,5509068,359187231,20530,211352709,36232,40481,661837394,6358,2.97,1.17,1.14,0.06,0.0,97221076,84854000,11979000,111646719,6
683809693,10114926,465717633,2766457,468628745,2540266,1117821,6002047,957925053,35517,695789274,54019,18531,2140326984,3841,8.1,3.24,3.14,0.14,0.0,258533294,249163000,9005000,272764065,6
342402002,22404887,245297157,6541069,243020491,6862859,2259861,9905557,976016285,51643,341211518,33063,27132,1100566309,7375,7.52,2.79,2.69,0.16,0.0,263411307,246095000,17006000,277881115,6
170261309,1011704,123025743,2419711,121874148,2421099,550626,2870136,306528486,10154,168356345,2951,3957,591166145,1503,2.5,0.97,0.94,0.05,0.0,82356801,79043000,3001000,96796220,6
643296995,1479981,400593240,3212375,396051296,3326224,756036,5191301,760172493,24498,622910528,27664,7784,1893814150,1691,6.55,2.6,2.53,0.11,0.0,206070036,202801000,2997000,220337996,6
175289836,2050151,127815335,1613951,126681142,1719890,654020,4105347,300720532,16353,176079231,28876,22123,602540303,4110,2.56,0.99,0.95,0.05,0.0,81441378,73141000,8015000,95695129,6
230558824,10288756,192029956,2282681,189730408,2295293,965774,5091050,508275501,33729,232490267,24300,13736,868234216,4431,4.07,1.56,1.51,0.08,0.0,137276475,131006000,6000000,151756277,6
538910633,16466412,498469508,474244,497903895,472753,8145338,28066006,1414602047,136705,540258579,321219,308307,2985324010,97886,11.93,4.52,4.36,0.26,0.0,381897086,305605000,76150000,396198204,7
381072809,6437838,290865068,1251345,286266264,1310565,134693,12430894,374851016,11636,369816764,1423,2456,1300527698,234,3.03,1.22,1.19,0.05,0.0,101011114,99803000,998000,115190869,7
636206858,28511060,302197234,452707,302384197,448317,18927849,54091525,1195828433,303335,638004712,423923,126644,2168855909,98338,10.16,3.81,3.63,0.32,0.0,320109645,185815000,133866000,334205573,7
517237356,21087127,354620299,493130,347924845,494209,17883657,38500729,1144205202,637979,509997462,300528,105496,2091127813,97885,9.68,3.68,3.51,0.31,0.0,311433122,149142000,162154000,325649376,7
305059797,6513166,202348007,138393,201393018,137214,128131,13187963,524526172,16470,304023556,2077,3561,1224209663,228,4.21,1.68,1.64,0.07,0.0,142081874,140891000,999000,156521776,7
405430987,12863934,401600533,186277,401336327,188867,168986,29532095,833159235,24749,404362661,2400,5043,1924857373,332,6.66,2.66,2.57,0.12,0.0,225440939,224257000,996000,239761996,7
842314750,28421101,500244348,462457,503329369,452081,18801650,52562418,1336924905,299429,849427337,784259,140301,2984651096,98334,11.12,4.32,4.14,0.35,0.0,362874048,215254000,147174000,377092417,7
599483388,16385260,443660925,591995,443209069,587924,8276820,29318066,1699399549,536955,599987985,1567400,209174,3028837204,195550,14.06,5.16,4.98,0.3,0.0,458097311,275974000,181983000,472225770,7
522491084,28165977,362328757,545181,365311763,542370,26768201,49007074,1350938291,715597,529964736,383797,444567,2308963219,107663,11.46,4.39,4.18,0.38,0.0,364342151,173082000,191090000,378606928,7
193551738,6026052,389748764,1291674,391062891,1343409,173719,11003321,484045123,14974,191910786,3941,4145,1258571394,332,3.86,1.52,1.48,0.07,0.0,130932343,129596000,996000,145170388,7
637230308,27710833,303101269,435539,304492033,431876,18877148,52728838,1186099700,297466,630849076,593180,131453,2053819768,98333,10.13,3.85,3.68,0.32,0.0,320142752,166823000,152838000,334481508,7
306958046,24355355,200146799,107627,199710613,109031,156611,38473477,370650994,13570,306495724,1297,2647,1433347831,332,3.12,1.29,1.25,0.05,0.0,100124255,99905000,0,113985330,7
524558848,27466027,364206902,641541,363448561,637206,25861242,49046024,1619032419,706106,519139757,551421,198267,2620738667,107657,13.78,5.24,5.01,0.43,0.0,436723737,236291000,200247000,451047591,7
287548904,12711097,200522770,106886,200499971,111867,157253,24568118,278050342,9492,279171515,1349,2103,968714906,336,2.32,0.98,0.96,0.04,0.0,75307553,73971000,999000,89696759,7
436267068,20578057,300612961,397714,304281882,390417,19018571,40720837,1128990952,233134,431908010,424723,451354,2045249699,98774,9.47,3.61,3.44,0.31,0.0,305435805,145104000,160115000,319783154,7
616183754,27430480,457126212,509100,450107644,510874,24910892,46565272,1326711103,660609,604148839,296260,105609,2585838883,97886,11.2,4.36,4.17,0.37,0.0,357626475,169195000,188216000,371747817,7
834031872,28337692,399089489,479993,400672091,471158,18593641,54617293,1315327491,290514,855594089,445802,128265,2786520062,98336,11.11,4.19,4.01,0.35,0.0,353737334,192675000,160728000,368187050,7
441273097,15931099,298195366,360834,298021498,363063,8278656,27571576,963184138,128583,440443180,511430,104698,1779058054,98381,8.19,3.05,2.92,0.2,0.0,260066931,113935000,145917000,274477230,7
304293050,6446403,200021171,98941,200109290,98723,110786,12703892,316824602,9212,307558753,784,1961,1334378370,229,2.59,1.05,1.03,0.04,0.0,85986891,83710000,1993000,100343826,7
439366095,16477472,298556431,401438,298765101,401223,8448131,28143929,1145400742,133208,439342336,401954,107722,2478824282,97888,9.66,3.56,3.42,0.23,0.0,310089546,148930000,160924000,324502799,7
537074846,27491460,299790625,440451,302487536,430812,19029332,54116199,1198433753,289335,541616881,528780,124669,2255692562,98338,10.15,3.83,3.67,0.32,0.0,324430841,164990000,158990000,338846795,7
644942354,28632140,504401064,433739,504567113,438365,18907946,52758037,1332463229,311611,640583666,615022,139672,2881456716,98332,11.25,4.26,4.07,0.35,0.0,359144220,196750000,161794000,373231363,7
738179221,28545739,300983032,457166,301616419,453472,18528226,52565355,1306351431,332941,746266141,431211,290975,2563204458,98335,11.11,4.17,3.99,0.35,0.0,352687700,180140000,172134000,367010689,7
632728295,27796148,299828580,436584,302758409,431764,19122547,53569141,1200871802,293767,640057439,414277,132564,2154303797,98340,10.26,3.89,3.72,0.32,0.0,323735527,157116000,166122000,338015003,7
405487481,31456696,201134133,129875,201055722,123588,126950,49008193,449675881,13555,407632517,2068,3534,1634266779,424,3.92,1.57,1.53,0.06,0.0,121770010,119536000,1992000,136207548,7
812225541,21186206,654064677,587980,652029039,583771,19000142,42805258,1800310107,712937,809270721,373935,301212,3582694486,97887,15.0,5.77,5.54,0.43,0.0,486266147,305043000,181025000,500550228,7
510660720,26286026,352217960,523747,350440452,525559,25102502,47473958,1441279290,669673,508483672,487515,106026,2365920387,97897,12.37,4.66,4.44,0.39,0.0,389930660,199361000,190345000,403873032,7
203599092,6366694,99822511,78646,99836225,78402,111612,10591263,216075113,7024,207083425,739,1422,932142316,331,1.81,0.74,0.72,0.03,0.0,58579816,58333000,0,72688662,7
642668605,28063270,301723507,443072,301722697,437393,18868541,52650868,1222766834,305784,637697586,597040,131385,2370611257,98333,10.47,3.92,3.74,0.33,0.0,332099059,165820000,165820000,346409157,7
542257728,20440796,502312414,403549,498551784,408807,18630247,40402208,1246100471,235139,536222265,219175,106017,2780793997,97885,10.55,3.94,3.78,0.33,0.0,336166635,175488000,160446000,350205865,7
644579187,28406624,300613314,442750,301954044,452000,18857490,52286660,1328022399,304091,641781628,409026,122381,2183513476,98337,11.35,4.3,4.13,0.35,0.0,358185212,184865000,172874000,372597162,7
438413880,15628661,297587712,404170,297454011,402984,8374554,27056316,1086279345,129643,439628486,396490,103843,2267778854,97896,9.23,3.42,3.3,0.22,0.0,293179548,138962000,153957000,307545636,7
307537027,12766512,201010667,101750,199574509,98629,141737,27261437,320460785,11096,305267557,999,2222,1440711232,430,2.7,1.12,1.09,0.04,0.0,86754303,86516000,0,101503197,7
206311052,6445006,101058188,79269,100179591,79808,107571,10550777,217135524,7850,205895835,715,1368,935969858,325,1.84,0.74,0.72,0.03,0.0,58676009,56446000,1980000,72837130,7
634323055,27761682,299332436,435518,301555445,427812,19020343,53441079,1202863130,290169,646582460,421719,154801,2255368669,98335,10.34,3.9,3.72,0.33,0.0,325413341,153912000,170902000,339562662,7
638525036,28307406,302654531,457688,303406661,460483,19254214,53620487,1350289438,306721,637288489,631446,142231,2264011605,98340,11.52,4.4,4.22,0.35,0.0,364266015,200796000,162835000,378780304,7
506196007,31689727,202048449,135152,201814826,136887,140527,50837974,537535018,17237,507957883,2446,4134,1934523133,424,4.58,1.83,1.79,0.07,0.0,145487249,145256000,0,159695775,7
711861541,20740267,554210256,613194,552337699,614074,19360752,43734732,1600943912,676467,708980934,494044,106986,3072644261,97890,13.56,5.23,5.01,0.4,0.0,432851778,246782000,185835000,447313315,7
440515634,16261420,299362277,394136,299127728,391763,8276569,27244965,1093837927,129482,440134782,438295,105633,2283777778,97887,9.27,3.45,3.32,0.22,0.0,295463621,138106000,157121000,309680836,7
643741700,28680902,301312287,440911,301156100,443887,18677014,54638529,1334042358,311315,643289940,422796,125630,2188342725,98332,11.36,4.37,4.18,0.35,0.0,360712902,209129000,151093000,374925964,7
511621604,25418789,202301836,146584,201165743,148747,152311,47512747,425217226,13453,506572499,1529,2625,1639205534,327,3.75,1.51,1.46,0.06,0.0,115352972,115025000,0,129591765,7
403019135,31485437,201641099,163706,202152841,162402,132883,50774241,705252689,21109,405133660,3244,5097,1622104843,433,6.08,2.33,2.25,0.1,0.0,190140438,188893000,999000,204632565,7
510873605,26517749,349464441,521588,348490444,525151,25204985,47528996,1301495780,613325,513024964,297652,296832,2482585961,97886,11.03,4.2,3.99,0.37,0.0,350142288,154962000,194952000,364384029,7
507468466,12691481,200911558,112331,200380657,109661,120703,27383493,350196673,9840,513056207,1899,3129,1533414957,326,2.95,1.23,1.2,0.05,0.0,95141428,93890000,998000,109492197,7
191112769,16312552,106266238,332357,105671351,340377,8679705,26334379,777501186,123915,188352549,420103,173033,830024839,97899,6.55,2.4,2.29,0.18,0.0,209243552,66977000,141952000,223573299,7
632855332,27940233,301394510,433865,304092044,436490,19200766,53702236,1192204054,298245,636044556,411269,125594,2042530946,98339,10.23,3.82,3.65,0.32,0.0,321422483,144974000,175969000,335571692,7
507964383,20613511,350003545,595340,351010966,601931,18842770,42887264,1899778423,626212,511796877,490068,109196,2665717793,97887,15.82,5.98,5.74,0.44,0.0,511878487,324757000,186860000,526249252,7
647577070,40569437,303031753,459160,303227698,462138,25762950,70874319,1339991200,406661,640803740,595617,138976,1993390276,98438,11.58,4.38,4.19,0.39,0.0,359033409,187807000,170824000,373386761,7
633661863,28015746,299343517,442753,301871199,436238,19166205,53716120,1206529713,291794,646153928,393971,125199,2251744983,98334,10.26,3.91,3.74,0.33,0.0,325205727,169885000,154896000,339368087,7
439367712,20614404,300532870,418223,301077983,419020,18720183,40854283,1302665961,233934,436795410,521781,111192,2165315962,98133,11.02,4.18,3.99,0.35,0.0,354066822,172411000,181433000,368253637,7
442158168,21160839,301027184,436021,301176625,436291,19135163,41465088,1401223288,239465,436678623,408138,107036,2074465372,97885,11.73,4.48,4.29,0.36,0.0,378237477,214981000,162986000,392759366,7
204674963,6399293,100644349,81079,99932528,81208,129089,12358354,218195608,8089,205106673,719,1295,932009172,234,1.8,0.73,0.71,0.03,0.0,58934356,56684000,1988000,73100703,7
214874486,13316057,105083946,90675,101082498,92688,416547,23900832,252154062,13949,205419358,10273,5221,951700129,2094,2.08,0.87,0.86,0.04,0.0,67747772,61442000,5946000,81974000,7
303375515,6503543,201022576,136941,200961369,136438,147788,12886699,523950038,16427,304364087,1694,3076,1423575153,330,4.35,1.78,1.72,0.07,0.0,141882643,140638000,997000,156135611,7
646381453,28180209,301560913,474549,300570016,477238,19371632,54425736,1440448291,312695,645508163,586780,138331,2101946812,98336,12.12,4.57,4.38,0.37,0.0,391418894,225946000,164960000,405526384,7
845609602,28216328,403561999,483456,403809115,475637,19076515,53864631,1540720390,314751,839673188,593822,129313,2586433766,98333,13.05,4.99,4.79,0.39,0.0,415671163,252423000,162628000,429904557,7
507878497,20554548,349865317,529855,350061597,528426,18588722,40971132,1382767625,606481,508912013,487233,105773,2258503380,97891,11.81,4.49,4.31,0.35,0.0,373322325,183021000,190022000,387656305,7
307674488,12722012,200059034,89149,200198029,92341,126538,24639996,277955933,9308,307159435,1376,2215,1130110530,334,2.4,1.01,0.97,0.04,0.0,74858220,74622000,0,89012771,7
644325285,28785784,301432358,450428,301015620,455587,19114092,53743550,1337219538,308928,646578763,406825,122638,2297311467,98334,11.38,4.32,4.13,0.35,0.0,363818723,185701000,177713000,378094790,7
745857352,28521319,402696154,460068,402940055,452478,19070717,53262873,1337422503,314148,739562482,522495,122756,2880961268,98332,11.32,4.3,4.12,0.35,0.0,360201849,196810000,162843000,374513043,7
636598640,28273925,302204827,422330,303448450,421358,19173085,53384530,1187150578,300132,633982604,664319,151295,2051366892,98333,10.19,3.88,3.71,0.32,0.0,320379169,157036000,163037000,334805691,7
409077773,6486726,101799015,95980,101186461,98720,135293,11026872,319021303,10641,406841890,865,2157,1335570709,325,2.67,1.07,1.04,0.05,0.0,86498763,83199000,2971000,100664165,7
202308758,12458333,14657677,92180,14535868,85073,128599,24629516,235504585,8414,206547905,1265,2177,681962550,337,1.93,0.77,0.75,0.03,0.0,65351721,64112000,1001000,79506796,7
635832273,27588754,302834625,434777,304527110,429900,19284082,53256411,1192457545,303846,632768784,586278,140125,2050868251,98332,10.25,3.87,3.7,0.33,0.0,321280464,161887000,158889000,335531018,7
304036958,25198451,200038353,115828,200052782,116218,152847,43448259,366140160,10757,307136852,1176,2152,1333038428,329,3.2,1.28,1.25,0.05,0.0,99033025,96685000,1993000,113351900,7
439059270,15617803,297744842,392572,297957600,388074,8717718,27528045,1091604827,132520,439913700,387269,105875,2271571599,97884,9.31,3.47,3.33,0.22,0.0,294569850,145150000,149155000,308879456,7
510655485,12761016,200519963,115780,200144711,111937,144683,29381256,399417141,12922,510935772,1864,3334,1741197179,425,3.32,1.39,1.36,0.06,0.0,107991114,104738000,2992000,122345420,7
304302196,50275010,201032915,110272,201279061,108806,155705,87511597,388268322,13163,304919552,1658,2963,1225347690,529,3.52,1.45,1.4,0.06,0.0,104918666,102678000,1993000,119157011,7
441580361,16115680,299001476,381515,297738592,383726,9262887,28199640,1049252347,134818,440953897,420173,302303,2092869657,97886,8.86,3.32,3.19,0.22,0.0,282333783,145035000,137033000,296748587,7
635043903,27903614,298911905,445409,300851082,445943,19220423,53796196,1205978672,296622,646877744,635693,131794,2254614167,98338,10.33,3.93,3.76,0.33,0.0,325769290,157782000,167768000,339910926,7
515686926,26829426,357599876,554988,353952297,566473,24794457,47259938,1320077716,695071,506277575,299080,164639,2593012874,97886,11.45,4.35,4.14,0.37,0.0,355503850,164046000,191054000,369758844,7
402857416,12569756,100308971,102072,100299750,101094,122877,25374166,303415806,8338,411483799,1473,2773,1229151647,334,2.55,1.07,1.05,0.04,0.0,81557252,79300000,2007000,95777365,7
377047409,6348664,197200210,118732,198955957,120296,227099,13017537,340260910,10701,372815741,1503,2775,1447128912,228,2.81,1.14,1.11,0.05,0.0,90701047,87287000,2975000,104913013,7
304051806,50570720,200471033,110342,200809907,108976,164412,89902811,383440203,12451,306771691,1824,3474,1230662838,529,3.44,1.41,1.38,0.05,0.0,103727663,100397000,2982000,117893697,7
438036678,16703013,297917442,429612,299124898,430260,8782968,29868067,1420271829,136685,441318397,397571,108444,2575884896,97893,12.02,4.54,4.38,0.27,0.0,384680294,236585000,147741000,398850960,7
439361108,16175536,297360293,377577,297798366,376951,8586503,27811528,1015222615,127945,439406525,464212,105094,1973187185,97899,8.67,3.21,3.09,0.21,0.0,274191911,128940000,144933000,288663704,7
301476652,6323365,295590285,256642,296858705,251271,106678,10752313,244338667,7192,306426635,1321,2138,1071935401,234,2.04,0.83,0.81,0.03,0.0,65788870,64481000,1007000,80168706,7
338184920,16114237,297256551,378226,297740767,381885,8803657,27654265,1115017607,132135,340977983,375301,106099,2382470289,97904,9.48,3.46,3.33,0.23,0.0,302092265,161902000,139915000,316677684,7
644126885,28302612,302627174,441495,302531844,436834,19263507,52808076,1229418472,315680,637475107,581586,142258,2368064095,98333,10.59,3.96,3.78,0.33,0.0,333218802,160816000,171803000,347514404,7
648017826,20903074,303837310,419013,303612537,421274,18753727,40760059,1180546941,313453,625043810,601702,139591,2076851570,98240,10.12,3.78,3.61,0.32,0.0,318796543,165268000,153249000,333087702,7
785048005,21731040,454922401,4398109,455819753,4394816,6778402,33773424,1610919220,430407,789165995,127381,641504,2473491557,6624,13.7,5.14,4.97,0.29,0.0,434850846,376581000,57935000,449172376,8
208945123,7619443,122308852,447818,126247435,466539,3988480,16944764,405252121,42246,222795964,23916,19819,772939757,4627,3.5,1.32,1.27,0.09,0.0,109069480,100657000,8052000,123142534,8
720803664,6624175,428910474,3868746,434153508,3882361,3146797,17135299,1449564690,273989,735867777,82337,621041,2242272419,4419,12.31,4.61,4.47,0.23,0.0,390106456,330712000,58948000,404664904,8
344234683,9719216,202190476,3350726,198920156,3305657,5870836,21052224,1098630352,279223,332509416,231959,771163,1188176732,16911,8.91,3.34,3.22,0.2,0.0,298711763,222262000,76089000,313022249,8
267921440,8510688,158159575,3474418,159151814,3459933,4359415,16773130,552076173,91046,270689229,70207,15619,1018311084,6792,4.69,1.76,1.7,0.12,0.0,148956659,141664000,6983000,163320724,8
551325662,5923353,214690357,3329048,214828852,3352862,3290157,16145848,813143857,51361,552091781,23882,20969,1562612141,4231,6.85,2.58,2.5,0.14,0.0,220292810,211997000,7999000,234547772,8
243399212,8084810,140978323,2449321,135836167,2446845,4347875,17233620,505185696,87501,245533579,31283,20750,855843971,7357,4.27,1.62,1.56,0.11,0.0,136738226,122430000,14049000,150985781,8
355842880,7428800,150128125,539940,151258273,555325,3596951,15883341,579620500,54750,363921406,25526,11383,1021271407,4825,4.89,1.83,1.78,0.11,0.0,156963882,145745000,10980000,171441275,8
370908541,8404281,209714143,3247722,209761285,3216210,4067703,19158485,1071774782,268608,366795633,458165,215874,1253439289,4427,8.93,3.25,3.14,0.19,0.0,288311108,225842000,62232000,302649751,8
218545660,7934063,131998752,484648,131702596,477621,4316483,18257991,405297711,96805,208389050,34150,10266,789101094,4233,3.46,1.29,1.25,0.09,0.0,109155733,101778000,7053000,123306391,8
345151130,10338259,209003239,3384707,211982017,3351605,4676068,18623704,651013253,58806,349532411,42676,15956,1324528396,6776,5.61,2.12,2.04,0.13,0.0,176054964,164738000,11049000,190370899,8
742953887,16568542,419281293,1501172,418975517,1498016,5623460,28079166,1399323362,380079,754036777,108615,616763,2246956753,3286,12.04,4.51,4.36,0.25,0.0,377298177,311738000,65154000,391767748,8
724763390,6571242,426302105,3871608,431643965,3902299,3114142,16892432,1435420187,268436,736654741,268931,620818,2245226879,4423,12.19,4.54,4.39,0.23,0.0,387395503,308072000,79018000,401697902,8
768511222,8998331,448314961,4356966,448118033,4355272,4492552,21028049,1543997919,273007,769761288,346303,621746,2480550076,6381,13.12,4.92,4.76,0.26,0.0,417630872,346350000,71071000,431941740,8
277154597,10743334,158416417,2601505,161345161,2578216,8374119,25590162,590884680,3170499,284922114,28936,14551,985430403,6673,5.18,1.93,1.86,0.15,0.0,159966602,147611000,12049000,174638683,8
714002439,7472958,423091962,1470081,427527231,1482373,3712606,18959501,1428377483,281138,728518163,38275,621651,2238413771,4618,12.14,4.55,4.41,0.23,0.0,385297229,316891000,68191000,399633212,8
236117750,16735435,131312596,485477,131654878,473400,6423411,27262756,451461856,231623,223663431,28331,23090,779184531,4236,3.94,1.47,1.42,0.13,0.0,121450096,110066000,11006000,135737743,8
245810162,8585043,140726982,2500132,145024288,2467456,4202162,17819366,490387942,40380,251657999,44784,15468,825604520,7953,4.18,1.55,1.49,0.11,0.0,133607637,121312000,12031000,147829240,8
236627112,5967125,135804648,2509548,140233576,2524662,3091502,13360219,470004194,58534,247125202,39033,11959,842591077,4624,4.03,1.49,1.45,0.09,0.0,126665944,118428000,7961000,140899510,8
275569938,8197252,154507044,2758136,157369915,2705656,4776691,17147836,525711601,65448,289281631,29615,13023,966477646,6778,4.5,1.68,1.62,0.12,0.0,141886270,128654000,12965000,155934507,8
275186487,12147603,153909869,2523227,149226874,2507044,10156813,27713290,581468802,3363170,268801836,55590,17040,907497300,9903,5.09,1.9,1.82,0.16,0.0,157512311,137208000,20030000,171747631,8
288283211,6291797,167315848,2908636,167606067,2910801,3616029,15537367,650264738,89214,288279743,44793,16117,1059060269,6776,5.5,2.05,1.99,0.13,0.0,176376286,161046000,15004000,190859678,8
283164765,28167655,177089969,2885309,180594610,2895860,19781319,48259006,1024596512,1162614,294128803,65082,20064,959932735,7749,8.26,3.0,2.87,0.29,0.0,276713236,263422000,13020000,290947924,8
269223432,8122717,146223080,548543,145886027,547260,4328976,16657831,465956183,48824,273296690,40693,13173,988534724,7948,3.96,1.48,1.43,0.1,0.0,125887139,106666000,18940000,140381451,8
275727186,18261477,173563953,2923789,173045763,2916526,7394614,28481981,616901302,245820,273106765,34470,29110,1083781242,6571,5.44,1.95,1.87,0.16,0.0,170289548,154025000,16002000,184500051,8
252689170,8428561,148434051,2761872,150928173,2739339,4054244,17838492,536398807,83617,258583771,26492,11196,885876628,4621,4.55,1.67,1.62,0.11,0.0,144701693,138346000,6015000,158976087,8
298052803,8785318,193201184,9131949,196998868,9041158,6770726,22169761,758153440,52513,305424141,33796,29806,1041975468,6670,6.57,2.49,2.41,0.16,0.0,204825332,192597000,11974000,219081417,8
234537894,7967938,153065047,3236299,152143443,3233178,4446337,17537238,509953063,54585,225829761,37835,23632,861994433,5018,4.34,1.59,1.54,0.11,0.0,137777605,126450000,11039000,152232949,8
356051663,7450987,177892051,2778213,177490438,2755951,4220986,18232660,617009959,67561,347859156,31881,12867,1107779116,4623,5.28,1.96,1.9,0.12,0.0,165711688,155360000,10023000,180199058,8
348951292,10512010,222994903,3012324,218153697,2996403,8572341,20806947,937959063,143670,342214085,281743,70802,1338889581,63026,7.92,2.9,2.78,0.2,0.0,253258161,153011000,100007000,267749471,8
802256226,11794484,451079300,3730323,456846769,3726591,11631802,32903692,1738031822,1066580,813709079,386251,645165,2366959561,9899,14.82,5.51,5.33,0.32,0.0,470258659,388017000,82003000,484824130,8
248624408,8370482,184095155,3204304,187216752,3218215,4023716,17935998,566791752,53949,256489328,23100,19764,1103707199,4424,4.85,1.83,1.77,0.11,0.0,153089138,144819000,7990000,167344504,8
285322537,5743769,192607354,5116329,195867353,5096539,4035471,15542377,595787865,37184,292290559,37351,11392,1005369745,4623,5.14,1.96,1.88,0.12,0.0,161870741,152580000,9034000,176137167,8
418322731,10192394,192774766,487518,187934090,490471,5009309,19905087,643631177,57869,421892216,25685,13040,1490442466,5800,5.6,2.12,2.05,0.13,0.0,174321583,166048000,8002000,188802558,8
292906906,6060668,148604105,2723850,152591043,2776453,3095335,15164733,555078981,63703,301705131,30514,11594,921137747,4624,4.7,1.74,1.69,0.1,0.0,149796328,140428000,9027000,164297075,8
264309790,16188154,151597179,2844621,156172100,2872237,7554736,27549358,547189333,238345,274096495,32958,13857,923269716,4624,4.77,1.76,1.69,0.15,0.0,147739357,133506000,13948000,162206874,8
755119016,29916524,433847283,4073103,434621823,4077627,12183459,46857737,1601109464,794110,755841287,148866,749591,2249871267,6787,13.83,5.15,4.96,0.34,0.0,434438968,366172000,68032000,448896395,8
224869496,6079820,136609593,2741769,140508312,2757984,3309759,13752694,470848329,51683,235755572,25036,11339,827364097,4621,4.02,1.49,1.44,0.1,0.0,126571695,120292000,6014000,140855344,8
325411689,8003419,166709602,487905,166673582,486752,3481461,16519512,513717836,64817,330935688,74056,13320,1157766141,6387,4.45,1.67,1.61,0.1,0.0,138449221,129141000,9009000,152804418,8
226120612,16376423,123837397,451834,126562532,473618,6554435,26866787,456704665,253294,240126445,18924,13093,758698750,4885,4.01,1.49,1.43,0.13,0.0,122794032,114480000,8033000,136929597,8
224218108,15330634,136751121,2750711,140918879,2763653,7216571,25990942,511035086,237024,234606808,23367,13216,792748632,4625,4.46,1.66,1.59,0.14,0.0,137940500,127674000,9974000,152189185,8
495691759,8455741,211779290,3314974,214981055,3306451,4247742,20241324,783272487,96049,498106432,61290,20413,1531815969,6662,6.73,2.56,2.47,0.15,0.0,212060592,204750000,7025000,226265332,8
341752196,8264605,189184265,3291301,189521955,3288439,4521456,17591483,622644611,53158,340729749,43117,16856,1250891358,6387,5.32,2.0,1.94,0.13,0.0,168279853,158997000,8999000,182521226,8
246066736,8254824,140390872,4091225,143967232,4062644,4216028,17737903,529819123,50032,253605607,23703,11452,863594537,4627,4.53,1.71,1.66,0.11,0.0,143529531,133199000,10014000,157690363,8
236522906,5866215,139321217,2714680,143741329,2729062,3077218,13378022,463725698,68770,248373087,30836,11870,875370664,4622,3.96,1.48,1.43,0.09,0.0,124915800,114555000,9961000,139373761,8
237264732,6497672,137949142,2762999,141521179,2736446,3615673,14318712,484778408,275957,244034912,30024,11853,839935870,4621,4.13,1.52,1.46,0.1,0.0,131221444,125840000,4993000,145705260,8
1019332528,38168106,448257240,1953132,452106941,1986347,4672657,58182176,1583161250,80504,1020785718,21333,18504,4568333799,1704,13.56,5.28,5.11,0.27,0.0,424458646,422111000,2000000,438752689,8
312905326,8451516,168583569,2960167,169402040,2976619,4957184,18788063,613255785,152344,310114116,38651,28547,1179448431,5649,5.26,1.97,1.91,0.13,0.0,165542735,151206000,14019000,179738712,8
951276252,17881046,516571975,5906027,518159814,5906601,5863988,34593418,1860574422,1167888,959394522,102279,632060,3087607156,5014,15.88,5.99,5.8,0.32,0.0,501656476,441460000,59926000,516023571,8
283880795,8227129,156627806,3354114,156953408,3388000,3774462,17108085,556388996,76096,285995597,72155,14945,1009164218,6659,4.75,1.78,1.73,0.11,0.0,150054343,143788000,5991000,164595404,8
271816615,19695060,153727983,943842,158706516,962686,6769721,30381741,953400107,350937,284771582,442143,635306,902629825,4631,7.98,2.87,2.77,0.2,0.0,256770653,188642000,67871000,271070691,8
340221905,6120266,166890702,2762581,169954550,2763694,3200615,15073568,582347150,65774,345440477,29696,11240,1076750377,4622,4.97,1.85,1.79,0.11,0.0,157923401,146570000,10967000,172149087,8
366974226,10247812,224289456,3547808,226087189,3525932,6764569,24635523,819736100,2609601,370990094,28781,16068,1318536691,5377,7.01,2.5,2.4,0.17,0.0,225393808,215131000,10006000,239706389,8
240465385,6041149,149875191,2790138,148430519,2772839,4294091,15415850,475518232,62983,227828374,28115,11183,858034985,4424,4.01,1.49,1.44,0.1,0.0,129060558,116656000,11964000,143466726,8
259893095,8032291,152053677,2824649,156282500,2864523,4096476,17149096,507904123,66310,270826527,22241,13507,946491273,4426,4.36,1.6,1.56,0.11,0.0,137404378,129036000,8002000,151647246,8
747708053,16819748,415999674,1478958,416132472,1480881,6050803,29100473,1407175218,428498,759909571,181657,619527,2226753073,3290,12.15,4.52,4.38,0.26,0.0,379828881,310414000,69092000,394169169,8
228117024,17572151,131185475,2434365,135080837,2449099,6726831,28092331,462196944,200381,237961197,30244,12518,764074669,4746,4.11,1.52,1.46,0.13,0.0,124480305,113134000,11013000,138753894,8
697160876,8886762,420511654,3753943,421015554,3762607,3953976,19911118,1426646021,281304,708678495,275022,621680,2188531145,4617,12.02,4.51,4.37,0.23,0.0,386880812,319667000,66930000,401278501,8
791600457,17826617,471938133,6189520,472674328,6142283,6440316,35775449,1660785546,1177018,802877343,265381,623499,2477921646,5033,14.25,5.32,5.16,0.29,0.0,449832858,364374000,85087000,464069404,8
244116523,8047138,138618028,477509,138538341,463797,4307121,17969195,394316087,38677,232686882,33093,19303,788447777,4237,3.43,1.27,1.23,0.09,0.0,106107267,96860000,8987000,120416908,8
475431900,33871131,227996273,2765071,227705556,2737643,18995704,62219033,905057471,2368867,478126425,44831,38094,1471420516,8734,8.07,2.96,2.83,0.28,0.0,244320273,227013000,17000000,258743695,8
341703516,16731726,211568026,1010483,222626043,1027995,11898465,34944866,1262759162,985008,351795302,208886,628646,1172771682,9351,10.4,3.69,3.55,0.28,0.0,341840715,256439000,85146000,356198409,8
331741627,8288279,169938885,3101083,172912679,3062070,4804306,18117286,592282614,89562,326114309,44040,29486,1129418507,6583,5.07,1.91,1.84,0.13,0.0,160636760,147359000,12943000,175067080,8
704755163,6782334,423936034,4038809,426979559,4050694,3111081,17358529,1453460805,268592,720316863,147626,625825,2217150783,4616,12.34,4.61,4.46,0.23,0.0,392404114,332997000,58999000,406910943,8
238526203,8010841,139841362,2631801,142511011,2554237,4633948,17181650,483111499,53208,250206396,15502,14270,865497344,6778,4.16,1.55,1.49,0.11,0.0,130643062,119374000,10942000,144909235,8
398007746,5938688,179295867,3416203,179679985,3439004,3493365,16048386,708110015,67605,398817113,33458,12809,1262137845,4234,6.06,2.29,2.21,0.13,0.0,191206154,180928000,9996000,205620126,8
286093223,7993637,157901515,3270135,157959988,3233623,3926843,16785639,566661064,55780,281558040,33177,11747,1096798296,4232,4.84,1.83,1.76,0.12,0.0,153130358,146819000,5992000,167326730,8
435717887,11317860,187890230,2929926,186263564,2903646,8525718,27186341,826555398,133516,427410322,41124,20303,1399863070,11072,7.09,2.66,2.57,0.19,0.0,223754113,205442000,18038000,238022060,8
245661587,6300673,135301601,2569456,138062086,2585693,3950554,14601003,466244865,61410,254348749,28210,11382,828616749,5138,4.02,1.5,1.44,0.1,0.0,126416692,113241000,12913000,140766627,8
743452488,8150074,437150909,3889468,439484960,3908589,6787729,23594448,1492144658,427143,759608356,322926,632227,2336882774,4038,12.74,4.78,4.62,0.26,0.0,402833204,333463000,69096000,417157522,8
749672932,6874768,449415614,3914977,453329172,3912821,4389155,19075787,1496118626,287153,754169528,79658,638047,2349574916,6769,12.76,4.75,4.59,0.25,0.0,403202845,335924000,66985000,417481465,8
475871000,15174895,251491722,8221068,253675671,8181518,12752631,40825712,1110395693,849149,479838040,35714,31558,1673481003,4042,9.51,3.48,3.36,0.25,0.0,300145539,286810000,13036000,314501945,8
786182166,7082366,444325487,4456001,444285055,4438893,3997652,19865473,1620764550,279869,792947286,108108,629208,2477118451,4616,13.83,5.15,4.99,0.26,0.0,437763791,378413000,59064000,452248313,8
795916629,18641959,454731709,5950506,454077147,5931732,7363004,33563781,1624802292,375021,800219031,363173,623170,2458787999,4617,14.01,5.27,5.1,0.3,0.0,438808116,376341000,62056000,453284493,8
722812552,8411157,434422725,4014330,438082396,4006057,4324254,20745451,1478483785,274321,727601440,413579,638549,2254446173,6772,12.56,4.68,4.53,0.25,0.0,399931183,335537000,64102000,414299976,8
845928907,13148637,493956821,4501832,493314077,4501498,12969857,35705379,1762039743,783006,845075491,78676,832972,2505900282,7943,15.02,5.57,5.39,0.33,0.0,477229006,392728000,84156000,491619675,8
392289268,7471192,175540440,669112,178059427,681483,3489095,17413672,661628723,201997,402652560,23399,12388,1324459803,3655,5.58,2.1,2.03,0.13,0.0,179484286,171116000,8005000,193860672,8
717207987,6618227,427423275,3928445,429136219,3948404,3479467,17218448,1425815752,269952,728612954,231314,624803,2208800921,4615,12.15,4.59,4.44,0.23,0.0,385904726,322624000,62926000,400355337,8
249233873,6209169,144693300,499522,145164311,498900,3305819,13997070,453479732,43741,240803975,29548,18987,981763610,4429,3.9,1.44,1.39,0.1,0.0,122629322,109311000,13037000,136830048,8
239374412,7840423,141005274,2576690,143506882,2530457,4274610,17007428,491523841,59023,249461907,29319,25054,851642199,6585,4.22,1.59,1.53,0.11,0.0,133370178,123019000,10001000,147987973,8
144612791,184698,75080556,78995,75015366,77764,152566,1117002,148989577,5161,145100091,1578,1613,371129599,379,1.26,0.5,0.49,0.02,0.0,40805976,38531000,1975000,54868736,9
144682303,203304,74591548,77181,74577415,76583,164593,1167237,152172305,5016,149415581,1539,1267,372273234,380,1.29,0.51,0.5,0.02,0.0,41190314,40808000,0,55117717,9
38313733,190476,20866030,58552,20891514,61238,158920,807210,51698078,2176,58561658,910,7689,118418021,2338,0.44,0.17,0.17,0.01,0.0,13803530,8635000,4797000,27979048,9
161236363,1655962,105467429,118992,101698344,120459,2418565,4811080,204179219,49663,160884818,22809,20583,544575945,6232,1.76,0.68,0.65,0.05,0.0,57410870,45030000,12008000,71805882,9
46967386,514061,24405370,59743,24281600,58945,422442,1232409,55747675,5087,48268811,9964,7757,131290155,2088,0.46,0.18,0.17,0.01,0.0,15546861,11480000,3826000,29803195,9
63827337,294119,30981533,61375,25089102,63878,623809,1497511,64336821,12351,41623093,15658,8006,163567341,3123,0.59,0.21,0.2,0.01,0.0,17575395,14158000,3033000,31978924,9
37985840,231489,20656899,64565,20736705,57346,132347,551762,39431900,1647,43946636,1961,1851,119078514,384,0.32,0.13,0.13,0.01,0.0,10308818,7057000,3024000,24501437,9
1804459,150860,4202344,35618,5775920,36633,118584,514217,14854502,2659,6873025,3601,?,?,455,0.09,0.04,0.05,0.0,0.0,3641285,1135000,2271000,17748634,9
137618518,239143,75588225,73682,75595938,73447,140136,1087239,152558651,4286,143389184,2180,2084,364671299,371,1.3,0.51,0.5,0.02,0.0,40914439,39658000,991000,55047520,9
150082574,311077,78962568,78317,75723991,77996,369292,1455277,158103815,8760,144404780,3448,2229,388730977,1375,1.33,0.53,0.52,0.02,0.0,43022310,39693000,2977000,57344749,9
1220659,198011,4974546,43786,7054557,36449,116350,518827,17776540,2440,10909044,956,2861,21275222,452,0.15,0.06,0.06,0.0,0.0,4669637,3554000,888000,18786461,9
41234525,397928,19248386,64013,19181776,63104,265454,798126,48027693,4120,57957071,4121,5353,122192457,1356,0.39,0.15,0.15,0.01,0.0,12764529,12526000,0,26907945,9
41330316,223409,20720493,62022,20807431,61815,154074,644727,44190783,1822,52257481,1342,1079,122851776,432,0.38,0.16,0.15,0.01,0.0,11661232,9282000,2062000,26090483,9
1349941,147400,5226921,37934,7281231,36454,85244,380283,15361304,3563,6872673,1140,?,?,382,0.15,0.06,0.04,0.0,0.0,3814910,3602000,0,17871241,9
139516420,236060,75852400,75639,75997230,74663,141025,1156660,161272373,5328,150958736,2258,2185,375709753,2348,1.38,0.54,0.52,0.02,0.0,43373851,40057000,3004000,57364973,9
144796134,188042,74993307,74002,74996690,73823,151861,1169076,152177816,5000,146821381,1532,1291,376428612,383,1.29,0.52,0.5,0.02,0.0,41320386,40099000,1002000,55782324,9
71073365,183965,35338430,68149,35965360,69976,162180,881386,62675557,4702,68881514,3805,3191,192824593,612,0.52,0.21,0.21,0.01,0.0,17351121,16072000,1004000,31574626,9
140444545,443657,76609262,76803,76665274,79499,337445,1508076,160482510,5602,149810761,2784,2409,373315926,1358,1.4,0.55,0.53,0.02,0.0,43445505,37048000,6007000,57729395,9
1317574,172822,4022420,35026,5530153,34455,108195,474701,13015220,2172,7981472,2124,?,?,407,0.12,0.05,0.05,0.0,0.0,3647667,1706000,1706000,17576510,9
145987231,289301,77348864,78633,77253228,78496,176940,1244239,154967546,5117,147769430,3512,2911,376640710,624,1.41,0.53,0.5,0.02,0.0,41912260,39678000,1983000,56315184,9
137062043,272073,75794848,74734,75834083,77173,174887,1160657,153520033,4911,142987077,2388,2908,367918496,623,1.35,0.54,0.51,0.02,0.0,41146911,38775000,1988000,55312548,9
70098637,237073,37080754,68487,36451278,70286,164237,893071,64330367,4006,66518708,3251,2781,194058514,656,0.55,0.22,0.22,0.01,0.0,17999908,15761000,1970000,32297415,9
76518055,248195,38818147,73156,37008857,72259,370625,1281260,70860817,8198,67104622,5589,3318,202140477,1599,0.57,0.23,0.23,0.01,0.0,19194800,14983000,3995000,33214676,9
138555094,242779,75828629,76057,75749725,75231,179538,1176888,155771008,5470,143127719,2181,2143,369320125,622,1.32,0.51,0.5,0.02,0.0,42093353,37853000,3984000,56319100,9
141953956,616343,100417362,81183,99316864,80079,433662,1496699,167250668,8416,164424920,10468,11675,502151055,2331,1.43,0.59,0.58,0.03,0.0,45108544,37853000,6972000,59537533,9
76317032,260329,38541595,72304,37477614,70596,364912,1251764,70752158,8029,69193070,4045,4641,200202620,1601,0.62,0.24,0.24,0.01,0.0,19102704,12898000,5953000,33127758,9
136486204,234894,75863039,73581,75899079,73675,148220,1010126,150138215,4539,142692612,2357,2249,363766812,375,1.28,0.51,0.49,0.02,0.0,40702729,40364000,0,55007252,9
70315612,163542,37910793,68024,36560690,71815,116645,718827,65025923,3204,71485951,2070,938,209899886,175,0.59,0.23,0.22,0.01,0.0,18224050,16949000,997000,32588890,9
1220933,166550,4019669,39432,5782562,35277,117330,493722,13754967,2472,8291686,1307,?,?,452,0.12,0.05,0.04,0.0,0.0,3781797,3514000,0,18091409,9
43618927,507657,23735391,61599,23864833,63130,438629,1248476,55097342,4617,49839515,10175,7920,132855991,2089,0.47,0.19,0.18,0.01,0.0,14657264,10284000,4113000,28897549,9
137066875,246871,75576428,77147,75613060,75898,158991,1048883,150869858,4450,143346066,2018,2438,366438378,417,1.29,0.51,0.5,0.02,0.0,40766189,37469000,2958000,55121150,9
65956051,158700,32026101,60290,25833218,62315,448911,1269671,55493905,10357,40316475,8676,7137,153144989,2350,0.48,0.19,0.18,0.01,0.0,15870392,10724000,4874000,30211565,9
52147673,690653,32073470,62850,34015009,60614,862672,1885457,71627573,17197,33919575,36977,17689,127597723,4067,0.62,0.24,0.23,0.02,0.0,19686131,14310000,5110000,33779107,9
40459509,196920,21287680,58559,21278830,60811,152366,771969,48735486,2255,55386156,1738,5728,117963798,1364,0.41,0.16,0.16,0.01,0.0,12811443,10591000,1925000,27110181,9
47578906,169493,21702874,59930,18902742,58434,269171,901085,47699941,3338,48427567,905,507,133398635,1124,0.39,0.14,0.14,0.01,0.0,13074114,11851000,987000,27169631,9
45311002,207934,20299730,58653,20316939,60740,168304,672904,46343802,1941,53492983,607,971,122526086,387,0.37,0.15,0.15,0.01,0.0,12262327,9040000,3013000,26345744,9
64154469,455355,40441431,91813,43442582,81866,379506,1111442,84749047,25466,66395375,10062,18237,189215675,4047,0.72,0.29,0.28,0.01,0.0,22579372,17180000,5053000,36934017,9
10894120,70159,1836642,57545,5710963,40322,123828,555403,18403466,10283,11661716,8099,8540,34404989,1392,0.17,0.05,0.05,0.0,0.0,6030050,3070000,2046000,20397818,9
8422795,243637,8746352,41973,12204099,31205,183419,548977,28295837,4741,11087372,9846,6388,46533295,1285,0.23,0.09,0.08,0.01,0.0,7470388,2709000,4516000,21584372,9
137739039,243365,75915995,80547,75824524,80038,161424,1131593,152384810,4447,142711753,2419,2041,362810613,376,1.29,0.51,0.5,0.02,0.0,41108065,39852000,996000,55313104,9
137640130,275128,75757861,75627,75810606,75686,172631,1226624,155829060,5228,142966506,2956,2942,367880495,623,1.29,0.5,0.48,0.02,0.0,42534491,39327000,2949000,56830799,9
1837733,157679,4498410,36404,6380695,35305,105076,457007,15216709,2168,9726590,1244,?,?,380,0.14,0.04,0.03,0.0,0.0,4261054,2002000,2002000,18603280,9
1966503,158750,4391526,34861,5596397,35802,107976,489730,15483897,2297,11482505,2371,?,?,402,0.12,0.04,0.04,0.0,0.0,3984953,1880000,1880000,18300786,9
41659439,190394,22175206,61553,22180564,60891,137373,744541,47326562,2149,51473759,1614,5196,118333451,1359,0.4,0.16,0.16,0.01,0.0,12774137,11410000,1037000,26977202,9
2121315,170408,4509223,34898,5785727,35102,117209,486223,14213320,2247,13212931,2682,?,?,451,0.12,0.05,0.04,0.0,0.0,3645000,1127000,2254000,17764642,9
64547388,228370,35371816,73414,35028016,73542,163771,886785,62675956,3962,68250798,2929,3795,187071200,612,0.55,0.22,0.22,0.01,0.0,16751455,15416000,1027000,31136423,9
67014299,205681,36266617,56216,36253212,59799,163259,865140,65066974,5838,68115758,6266,2210,189924173,881,0.55,0.19,0.17,0.01,0.0,18835551,16636000,1957000,33155418,9
40571313,222604,21437544,65813,21467993,64823,131093,600332,42439588,1734,46048145,1800,1647,117728165,377,0.35,0.14,0.14,0.01,0.0,11450227,9081000,2018000,25571574,9
45440458,103926,21521467,59524,21660225,59844,127285,629751,42747209,2405,55635803,623,777,137688519,180,0.4,0.16,0.15,0.01,0.0,11839733,9679000,1935000,25997971,9
68181984,423563,29695253,60049,23539581,61336,639564,1591568,56428577,6258,50787034,13677,3741,170308896,2350,0.46,0.18,0.18,0.01,0.0,15234516,8996000,5997000,29304039,9
13070238,865039,16346070,67823,16663674,68860,897493,1822402,60410667,11011,11504658,34907,26344,57870616,6279,0.48,0.18,0.18,0.01,0.0,16279394,4009000,12027000,30381725,9
70377434,243329,39051296,68538,37196263,70505,160184,869124,69147375,13755,64722392,3893,3157,204915362,1586,0.6,0.24,0.23,0.01,0.0,18444807,15206000,3041000,32517583,9
1065363,149577,3861373,37318,5625567,36583,111023,491533,14164935,2431,6156765,1591,?,?,403,0.12,0.05,0.05,0.0,0.0,3638593,2251000,1125000,17984424,9
152821010,352756,78772595,76981,76211535,78233,418383,1625834,160722626,7450,148706524,2805,1873,392754371,1369,1.35,0.54,0.53,0.02,0.0,43290788,40007000,3000000,57759410,9
71446541,138566,35457057,60075,35305127,60318,133650,833031,59906387,6804,68642385,2194,2005,191771192,634,0.53,0.22,0.21,0.01,0.0,16597650,15320000,1021000,30813575,9
136567701,262408,75431963,74515,75518798,76281,184886,1175434,154102115,4709,143954613,2155,2537,366585602,618,1.32,0.53,0.51,0.02,0.0,41499376,36323000,4908000,55589911,9
1001799,111024,3154543,38333,5596654,34407,105135,449959,14147257,4402,8615817,3156,?,?,624,0.12,0.04,0.04,0.0,0.0,3757420,1170000,2340000,18003417,9
1083730,145344,3740633,38686,5782615,35186,116194,494025,14079227,2698,11010821,1251,?,?,451,0.12,0.04,0.04,0.0,0.0,3755935,3527000,0,17877507,9
135610646,241765,76373866,77090,76414749,77024,153386,1131767,155410298,4471,145427323,2049,2709,364556458,621,1.33,0.53,0.51,0.02,0.0,41820975,40515000,1012000,55718980,9
50328087,169788,22217056,61457,21909231,61221,172926,751167,44316180,2725,54067228,819,678,134108495,432,0.38,0.15,0.15,0.01,0.0,12216947,9988000,1997000,26311347,9
41111404,391773,20886472,64792,21063424,64521,277771,1021430,48513025,2789,58220555,5568,5926,133018222,1369,0.4,0.16,0.16,0.01,0.0,13179664,10950000,1990000,27426974,9
46377981,195482,19853986,58764,19930797,61066,174866,686127,45729165,2202,54326904,730,976,122821198,391,0.42,0.16,0.15,0.01,0.0,12035704,9800000,1960000,26199187,9
40278404,220580,23340136,61314,23176845,59994,143419,636717,44969640,2056,47120406,2420,2981,117116021,623,0.35,0.14,0.14,0.01,0.0,12178896,10947000,995000,26289942,9
137900260,242358,75768817,75166,75521082,75216,147619,1071589,151386257,4646,141943825,2528,2338,361405183,375,1.3,0.51,0.49,0.02,0.0,40823949,38585000,1978000,55087157,9
144193240,189773,75531896,69285,76428357,91485,191074,1433031,162691294,8969,143346999,3272,2054,371235686,446,1.34,0.48,0.46,0.03,0.0,46907932,44935000,1679000,61167607,9
64993782,195108,34765144,70248,34857006,70309,132896,840341,62117429,3751,69513179,2195,2299,186837077,390,0.52,0.21,0.21,0.01,0.0,16304259,15043000,1002000,30280476,9
48055429,457305,21330029,68683,21277544,68369,407478,1242367,53610405,2681,64256000,4755,5594,138358059,1376,0.43,0.17,0.17,0.01,0.0,13889588,9592000,3836000,28265395,9
115959625,231884,72876508,75715,73027328,75299,143072,1144180,160676313,5473,118318970,3223,2229,417185263,378,1.34,0.54,0.53,0.02,0.0,43542699,39221000,4022000,57836812,9
140005405,351719,76450233,79312,76498775,79345,252000,1322491,157805156,5933,144171757,7801,5285,372323829,1362,1.38,0.53,0.52,0.02,0.0,42607437,40262000,2013000,57016544,9
2221236,201786,5492392,43217,7047408,37549,116713,537254,19742109,2309,17345009,989,2374,25602860,447,0.15,0.06,0.06,0.0,0.0,5006713,3778000,944000,19280930,9
142672764,1295904,85001576,92724,84123439,91879,610226,1652801,203913509,13644,148163734,16697,24083,404816062,6292,1.73,0.67,0.65,0.03,0.0,54661868,42507000,11862000,68843990,9
654817,92818,3030437,35958,6251313,33792,81571,388398,12104736,2581,14402400,1444,?,?,148,0.09,0.04,0.04,0.0,0.0,3343927,2085000,1042000,17553558,9
138174471,235899,75487243,75345,75549571,74728,144098,1089227,151594519,4587,142397032,1832,2383,362970681,373,1.28,0.5,0.49,0.02,0.0,41112779,38784000,1988000,55203534,9
43657068,327210,22585291,62754,22715068,62685,251660,932706,49078217,3252,48327150,6013,4319,128620014,1119,0.41,0.16,0.16,0.01,0.0,12915670,10557000,2111000,26999657,9
51455660,232801,23577694,67900,20814419,68605,359486,1061119,53756776,4252,53522980,1419,531,146757298,1374,0.44,0.17,0.17,0.01,0.0,13810989,9702000,3880000,28058952,9
18355791,623389,6986498,67094,5387244,49747,387018,1071367,33292485,18704,14462944,9946,5559,50053344,2362,0.27,0.11,0.1,0.01,0.0,8869459,6702000,1914000,23052701,9
1210576,185683,4446764,40914,6694639,37755,124827,519056,15313495,4727,9825428,1375,?,?,654,0.12,0.05,0.05,0.0,0.0,3957159,1865000,1865000,18012881,9
42388259,168972,22571979,59274,21776704,60130,131711,605177,44010911,1655,54220347,713,892,137116083,181,0.36,0.14,0.14,0.01,0.0,12237156,10013000,2002000,26483629,9
141172498,200102,75578867,78211,75312497,73819,148310,1022272,147002178,5774,142599271,2184,3847,363198503,374,1.32,0.5,0.49,0.02,0.0,40175252,37961000,1946000,54515639,9
2670169,167199,4353558,34727,5759046,35278,114125,503389,13888991,2599,12821839,1982,1703,1300678,454,0.12,0.04,0.04,0.0,0.0,3810810,1788000,1788000,18067201,9
280184130,2479009,173151579,879634,168953998,862639,2745438,7535174,431237272,171199,272219478,24417,10229,859904786,3522,3.6,1.38,1.34,0.09,0.0,117370645,112069000,5003000,131804208,10
120916975,2948057,86747981,296787,86161530,309682,2328542,6426917,266049949,125116,123049471,22679,15577,429750405,4376,2.17,0.83,0.8,0.06,0.0,72670616,64370000,7922000,86981469,10
110950427,3186698,74923210,284132,72538888,304361,2965848,7074807,273872510,176284,109323108,20877,17517,399138098,5797,2.27,0.84,0.81,0.07,0.0,74024363,63552000,10087000,88293474,10
108396560,1092748,76291165,295305,75748882,269677,821930,3971911,174957930,17485,105103676,8839,7316,364166499,2023,1.5,0.58,0.57,0.03,0.0,47626297,46269000,1005000,61884232,10
104082068,953354,63191995,841545,65903980,688468,568265,3592283,178102227,17634,112254798,10089,9111,359477034,1894,1.5,0.6,0.58,0.03,0.0,47620035,42383000,4928000,61899130,10
124937468,3458357,90584089,662263,88371325,672904,3625491,8354835,314348071,228163,125446313,28619,18687,464750794,5752,2.63,0.98,0.95,0.08,0.0,85257249,72911000,11985000,99677928,10
90638716,905679,61926951,722285,64291920,573533,633173,3603180,168887633,12683,93219427,8463,6697,321103059,1989,1.42,0.55,0.55,0.03,0.0,45595882,39287000,6044000,59956260,10
99276251,2283574,70365274,331764,71563297,297981,2542939,6551453,250181236,200330,102645185,13281,10347,360880874,3522,2.03,0.74,0.72,0.06,0.0,67386233,59085000,8011000,81889761,10
101283154,1972840,70586142,354177,70561770,307594,2231828,6336366,237616305,131565,101981978,14761,10433,369379852,3261,1.98,0.74,0.71,0.06,0.0,64388244,56101000,8014000,78814101,10
106593964,2128742,73178434,786042,72552768,760417,1811030,5526087,256083618,162471,108443755,14654,10268,386889473,3521,2.11,0.77,0.75,0.06,0.0,68881062,63553000,5043000,83290292,10
92082650,1016352,61621383,594985,62994271,491389,783771,3715489,168753756,15567,95099742,7044,4750,321469489,2024,1.41,0.54,0.53,0.03,0.0,45748603,43455000,2021000,59966849,10
100877310,2350881,70939976,334870,70280730,302377,2493207,6528834,250488861,198365,102951196,16837,10850,370135558,3619,2.06,0.76,0.73,0.06,0.0,67302072,58041000,9006000,81662734,10
279349849,2870551,176084538,574251,171862296,557959,3138343,8537886,442696110,190050,270490522,28710,14785,862373849,5034,3.74,1.46,1.42,0.09,0.0,118998118,108801000,9981000,133402336,10
303066758,1676605,189556088,1203307,189327491,1235558,1041598,4139483,412108167,21544,312530918,17742,8668,944241040,2995,3.51,1.42,1.38,0.07,0.0,111484810,106253000,5011000,125791775,10
116774663,2712375,85062972,300978,84557632,306615,2200486,6114121,263163130,183468,118365569,9510,9536,410579390,3519,2.19,0.82,0.78,0.06,0.0,71291560,67962000,3043000,85568694,10
102100488,2028635,72104911,348747,74095466,303667,2271097,6488350,243963485,128329,104653493,12319,9528,377585293,3308,2.02,0.76,0.73,0.06,0.0,65609113,60328000,5027000,80055893,10
109420711,3202161,74451116,292553,73354880,290800,3163702,7550424,280064145,189596,110624031,25684,19063,397033068,5990,2.28,0.85,0.82,0.07,0.0,75661010,66357000,9048000,90059529,10
279332353,2783630,173330843,693860,169511710,713878,2420243,6905512,420738627,124932,275702506,20835,13326,858799354,3842,3.5,1.37,1.33,0.08,0.0,113946074,109668000,4024000,128253725,10
147406958,4315095,113653562,3229598,105879329,3376008,2715342,10081438,436388932,150221,149232118,30997,24197,541171452,6449,3.51,1.36,1.31,0.09,0.0,118586999,110395000,8028000,132753313,10
161444369,3492334,140295558,566071,137128202,592960,5100487,9485328,415972363,399696,158197421,22179,24631,655962306,5993,3.43,1.28,1.24,0.11,0.0,112097509,105769000,5986000,126512908,10
274277565,1742994,171743197,1273772,173223532,1369393,1227459,4753937,412037912,85073,273563856,20980,13079,835423487,2767,3.51,1.38,1.35,0.07,0.0,109666447,104420000,5020000,124116901,10
151662809,2489921,99812237,864661,100922498,836279,2136105,5515220,313218354,84952,161759626,23252,19682,565037581,6315,2.59,0.99,0.96,0.07,0.0,84612679,76455000,7943000,98841192,10
105238646,3065923,72785285,313035,70264034,333408,2541910,6781391,262028628,159143,106795361,13943,14167,377027115,4694,2.12,0.8,0.78,0.06,0.0,71218903,64886000,6083000,85536106,10
284007896,2619501,177847106,797222,172798128,765679,3085293,8305452,438761502,193455,265587218,28515,14043,857071867,4300,3.74,1.44,1.39,0.09,0.0,118665293,112316000,6016000,133042577,10
105544038,1175296,73754549,277183,73581989,246237,784374,4258751,174246507,21779,106216669,6997,8723,357526424,2226,1.44,0.57,0.56,0.03,0.0,47019505,44722000,2032000,61208744,10
276583745,2849508,171953072,761543,173611746,745130,2835994,8068824,458062024,187067,275454340,27901,18698,854469023,5988,3.84,1.5,1.45,0.09,0.0,123523359,112179000,11017000,137808106,10
110325047,3200701,75128104,293898,72738781,282650,3178429,7577012,280204898,193146,109585686,21816,22129,400341322,5991,2.33,0.85,0.82,0.07,0.0,75670478,61507000,13888000,89888845,10
147438718,4349025,109607900,685618,107933201,609117,6344401,11526420,443283363,582722,144123458,27927,24198,546657285,6253,3.65,1.31,1.25,0.12,0.0,119697704,106535000,12943000,134015392,10
276714439,1727956,170931455,840267,170651782,835839,1319970,4912123,370528315,19336,283968388,21689,12132,863265086,2992,3.17,1.28,1.24,0.06,0.0,99835699,94600000,4978000,114202474,10
264967022,1052634,158444317,670667,155158305,718859,621189,4583167,336608142,17113,267247462,18199,10038,794625539,2016,2.91,1.15,1.12,0.05,0.0,91261792,86017000,5001000,105633174,10
268228062,1257282,163322554,1118367,160961528,1200076,590616,3431314,350335903,18797,260667578,19019,8678,804870204,2019,2.96,1.21,1.18,0.05,0.0,95225107,90975000,3998000,110041921,10
85403883,880896,72210387,706835,74129254,570422,569055,3560144,163645602,13725,86293081,7697,6548,376088688,1893,1.37,0.55,0.54,0.03,0.0,45078230,39825000,4978000,59423641,10
269744003,1262410,163591253,1191749,160438262,1297376,613963,3522859,349939575,18972,261997596,17586,6343,804455517,2018,3.04,1.21,1.18,0.05,0.0,94806903,93552000,1005000,109112523,10
123054660,3994386,93108778,374078,92875865,394504,4198744,9173104,361957585,166208,120921382,82410,58477,475044359,17323,2.97,1.09,1.04,0.09,0.0,98399108,71098000,27037000,112736721,10
111563393,3084395,76826648,309904,74210828,299687,3204494,7669179,282064034,191530,110145264,20802,19963,407438780,5801,2.33,0.85,0.82,0.07,0.0,76541443,65338000,10889000,90765573,10
96651027,1350148,63641989,416206,64132610,465730,1032383,4108213,175492992,18096,105146302,19279,13274,362628031,2869,1.42,0.5,0.48,0.03,0.0,50950739,45682000,4965000,65306521,10
94341403,951208,61659356,665438,63728883,546630,681496,3821897,169220169,22170,95928474,10445,6357,325942264,2071,1.4,0.54,0.53,0.03,0.0,46209940,37164000,8802000,60886170,10
104035913,1559584,72444538,610546,67468139,739603,872847,3286514,192155182,20466,106407243,17656,12301,378383601,3000,1.62,0.63,0.61,0.04,0.0,52419537,45120000,7018000,66728506,10
281303146,2513191,173015998,874182,168009393,878588,2649256,7347374,430605208,169613,269891363,28056,9914,859398935,3515,3.68,1.42,1.37,0.09,0.0,116522091,108232000,8017000,130773330,10
276294660,2617994,170821402,834806,167210395,856266,2604410,7239684,429170411,174176,275454509,20658,10857,852620020,3517,3.68,1.42,1.37,0.09,0.0,116309124,108041000,8003000,130645575,10
264939196,1399303,161904388,1099952,160906351,1160524,639090,3636054,353269087,20806,264997856,17925,7659,797878505,2018,3.04,1.22,1.18,0.06,0.0,95656877,89392000,5959000,109960007,10
268702196,1302583,163275355,1139046,159917846,1224840,657449,3544039,351074625,19703,262736653,19789,6537,805881161,2020,3.09,1.22,1.18,0.06,0.0,94992011,91743000,3024000,109134969,10
273460665,2293072,169673255,776407,170067972,699616,1374511,5812514,370975536,25716,285418187,23698,16639,858670450,3452,3.2,1.29,1.25,0.06,0.0,100145522,88883000,10985000,114436824,10
292783145,3335698,185641037,889679,183353072,900129,2768170,7578381,475161475,163624,292208711,36462,15669,909245685,5798,4.04,1.55,1.5,0.1,0.0,128270764,120016000,8001000,142525943,10
353254805,4782765,244946235,1045981,247448658,1042245,6040138,12361312,673924631,575737,334851971,39817,42045,1133059359,7686,5.66,2.1,2.04,0.15,0.0,182152421,165901000,15990000,196451801,10
110247764,3027996,76572487,313340,73467203,297718,3237459,8358937,279139021,198243,106152330,15952,14307,399584754,5990,2.23,0.78,0.74,0.07,0.0,78593538,69295000,9038000,92982107,10
134497026,10150759,103051243,3385544,103403505,3421203,9702398,23914246,719549901,1349789,135758324,36982,41771,490217880,7147,5.83,2.06,1.97,0.19,0.0,194181063,184928000,8996000,208567049,10
128275262,3032704,88727325,312440,87188553,299617,3075600,7867685,294628154,192427,128363766,20026,17328,448141038,5798,2.42,0.88,0.86,0.07,0.0,79331099,72041000,7004000,93567554,10
139971773,4092162,100338463,308648,99063616,312176,4079657,8350215,347819740,329365,135311725,25846,16931,495637051,7035,2.89,1.05,1.01,0.09,0.0,93503554,77172000,16035000,107919605,10
110388280,3240675,74681997,289882,72384880,288304,3117807,7538294,279977133,191580,110049530,21412,18544,402204605,5992,2.31,0.84,0.81,0.07,0.0,75149499,65904000,8986000,89434399,10
274874563,2883856,173320141,999114,174669911,980746,2829701,8229738,462052920,187902,276124239,29300,17547,853336588,5788,3.94,1.49,1.44,0.1,0.0,124171376,108918000,14988000,138572883,10
96249116,1031910,60619770,699094,64813907,555676,668404,3925350,171552206,22967,99739587,10222,7995,334254410,2071,1.42,0.54,0.52,0.03,0.0,47417322,44055000,3003000,61653857,10
110369606,3225371,74826398,289225,73235635,283407,3116848,7511219,278193079,189556,109850636,21077,21381,398334919,5991,2.29,0.85,0.81,0.07,0.0,75541032,65236000,10036000,89852737,10
114370268,2322421,79530896,583249,78500829,573414,2675643,6063995,273763300,168439,115779642,17991,14163,427378759,4142,2.28,0.84,0.81,0.06,0.0,73612553,64414000,8918000,88074114,10
110818116,3185636,74931459,293061,72329278,285980,3141441,7594545,279946650,192976,109793510,27250,18628,403066288,5990,2.3,0.84,0.82,0.07,0.0,75079298,66743000,8090000,89372777,10
275293983,2902815,172703811,717517,174057783,689052,2775524,8535751,448823962,192656,270745602,29553,243780,844922462,4630,3.78,1.47,1.42,0.09,0.0,121042132,111786000,8982000,135582844,10
306745849,2687580,200738719,1075090,198591018,1165905,2199455,6479835,468966401,106531,313977709,27179,17089,966614892,4233,3.99,1.57,1.51,0.09,0.0,127220804,115903000,10990000,141589063,10
277890493,2749433,174348354,966305,170632852,942842,2710967,7796044,460778702,184213,274369149,34793,15944,862694717,5794,3.94,1.52,1.46,0.09,0.0,124096861,112847000,10985000,138490375,10
100899450,2304498,71581801,337238,71180876,306214,2449811,6694497,251956390,208029,102544817,13222,10263,368642018,3523,2.06,0.76,0.74,0.06,0.0,67601369,59236000,8032000,82098852,10
112355386,3140947,75244785,298863,72515110,285045,3170259,7591517,277519307,191918,111124935,28206,20019,404582735,6184,2.31,0.86,0.82,0.07,0.0,75313002,64067000,11011000,89598020,10
90788223,938038,58392308,708751,63238597,562031,700840,3770230,174764109,18982,97702850,11490,7514,318623564,2022,1.43,0.56,0.55,0.03,0.0,46954492,43699000,2979000,61429829,10
109316584,2493364,73110216,364377,71052580,352903,2662184,6998802,263960130,177497,107978509,24916,12499,380699996,4302,2.13,0.78,0.76,0.06,0.0,68861759,60596000,7947000,83141018,10
102811894,2311208,71376117,340576,69200542,309972,2431793,6306765,247791127,195775,101928701,10600,11059,371754300,3521,2.07,0.76,0.73,0.06,0.0,67497897,59188000,8025000,81950200,10
147668242,6748817,111426787,2038076,108404353,2021085,6912828,16505518,579236717,862445,146457171,26800,21431,523450811,5606,4.72,1.65,1.6,0.15,0.0,157002861,144748000,11979000,171448780,10
206064698,13295986,163962676,788229,159998163,776749,3586713,9446973,481179953,53856,206115735,26186,21354,704536597,7928,3.91,1.47,1.42,0.1,0.0,129696654,117470000,11946000,144118886,10
301908673,4544744,207189002,796533,207629723,743970,4882953,10892720,525354914,325380,297080350,38944,27860,979727002,7034,4.47,1.7,1.64,0.12,0.0,140526926,128191000,12017000,154849147,10
264117476,1329582,160899671,1151002,158578302,1281266,606222,3588943,351079711,22166,268030720,16776,8717,801149674,2016,2.96,1.21,1.17,0.05,0.0,94950896,86692000,7971000,109410513,10
90256075,946152,60126310,679207,63138659,538385,691013,3642299,169521610,14730,93856066,12327,7898,315119760,2219,1.42,0.56,0.54,0.03,0.0,45816011,42569000,3040000,60220743,10
115300414,2823934,86426918,615024,84496003,599856,3571013,8213751,297673342,221637,109039405,27433,21690,427098865,6483,2.48,0.92,0.88,0.07,0.0,80298404,63912000,15978000,94759158,10
115327836,2485896,80146649,728617,77255856,663667,2916167,6899572,274211557,188642,111610013,22785,13515,418460548,4137,2.36,0.86,0.83,0.07,0.0,74558691,67134000,7014000,88887819,10
277538601,1522476,173910240,1074527,172033427,1051019,1226170,5000258,370244580,23004,265775175,22876,10368,840429041,2995,3.17,1.27,1.24,0.06,0.0,100206432,91877000,7989000,114367894,10
267231216,1281130,161672497,1002212,157475220,1061739,621710,3805044,345728893,19851,264031754,16475,7745,803090363,2020,2.94,1.18,1.16,0.05,0.0,93493417,88082000,5004000,107740458,10
375457703,15108625,266391066,1211936,265325180,1237659,3022903,9359742,679089859,173577,382147086,32853,21338,1190402164,4820,5.62,2.15,2.07,0.13,0.0,183082860,176854000,5995000,197251520,10
104309874,1612294,68547261,725776,66176121,808256,867415,3393219,193101964,19592,108316515,17625,12450,377317389,3000,1.58,0.6,0.58,0.04,0.0,52657041,49317000,3019000,67094314,10
98250631,1260390,66991114,220374,65678381,194724,624293,3498536,158508208,12875,95827210,7134,5456,335435831,2023,1.35,0.52,0.5,0.03,0.0,42961153,39645000,3049000,57164256,10
276346685,1563838,172222103,739329,169207809,783080,927495,3672259,352552110,18313,276610781,13419,10653,841054352,2866,3.04,1.25,1.22,0.06,0.0,96021430,88767000,6981000,110523335,10
92415312,1025703,59958247,791567,61254463,629200,757433,3748686,177256299,16663,96571753,12195,7844,334034955,2803,1.46,0.57,0.56,0.03,0.0,47959386,43732000,3975000,62028238,10
99004719,2123737,74665995,489509,73943229,480009,1581790,4553335,213288533,18178,95110487,20664,27413,353543502,7173,1.81,0.7,0.67,0.04,0.0,58137217,40214000,17654000,72540978,10
291567845,2397522,184241370,878238,181019803,857849,2977173,8256458,446829036,181545,290955681,21904,11044,899590803,3522,3.81,1.48,1.44,0.09,0.0,120120141,110879000,8990000,134438274,10
123713036,3011177,86829811,329785,84634738,315374,3229874,8079119,291621508,188659,124264294,19924,17751,443072177,5894,2.43,0.9,0.87,0.07,0.0,78660405,65307000,13061000,92981463,10
65449247,10890195,33825450,5051864,34554183,5098093,98076,1853757,243656421,6755,66724182,1321,1996,142514158,200,1.97,0.78,0.76,0.03,0.0,65777233,64495000,992000,80014826,11
94464219,24615226,30885312,5182508,35876887,5020931,120076,17184612,258113324,7032,103409198,1549,1831,187177782,227,2.14,0.87,0.84,0.04,0.0,69374591,68117000,1001000,83587957,11
65767128,14172138,28152382,5115025,29178660,5119486,128600,1328111,207527341,5748,67829816,691,1516,151008160,177,1.65,0.65,0.63,0.03,0.0,56026415,55797000,0,70125031,11
84195151,26455826,38241752,6118198,38246219,5919675,433432,2125242,358318679,15830,82790301,20453,5132,277502016,2891,3.05,1.19,1.16,0.05,0.0,97388013,92120000,5006000,111814829,11
64978037,13958695,27250419,5175781,27197856,5176233,108734,1286551,212856066,6290,65821328,735,1652,148891530,175,1.71,0.67,0.64,0.03,0.0,57297934,57042000,0,71789600,11
65377116,24444112,41721195,9056659,42628652,9059108,120210,7465415,363175880,9756,67047053,1236,2337,199028459,185,2.92,1.18,1.15,0.05,0.0,97973107,95696000,1993000,112192301,11
766142616,24054698,604274464,5805315,603361370,5788620,201461,21984773,1139290749,58498,765738704,4233,8883,2596838892,222,9.65,4.07,3.96,0.16,0.0,308594507,307439000,998000,322880872,11
65642003,14290182,28276446,5118532,29138064,5120807,112808,2925072,208209878,5791,67460425,652,1235,150502331,176,1.67,0.65,0.62,0.03,0.0,56152525,55924000,0,70236606,11
65617631,5998891,29211491,4996360,29204210,4998120,115259,1145196,199450104,5725,66741176,1364,1996,137856722,182,1.59,0.61,0.59,0.03,0.0,53302801,52070000,1001000,67667761,11
66789257,13817409,28257889,4730724,29670611,4758026,144125,3823801,198071686,6272,69022524,580,1707,133673873,244,1.57,0.57,0.54,0.03,0.0,56249788,55960000,0,70447346,11
65865657,14053918,29065097,5197853,29048630,5199559,108946,3703500,209496669,5744,66524145,658,1293,137594872,175,1.67,0.65,0.63,0.03,0.0,56787939,54543000,1983000,71086518,11
68374819,6217452,30573987,4901149,35297588,4737696,106812,1245191,207043439,5588,77667052,1159,1317,173821581,177,1.66,0.64,0.61,0.03,0.0,56212066,54886000,997000,70416727,11
71047916,7683199,33313162,4324324,34562308,4378342,119210,2307112,238892865,7898,72984672,1508,1937,279499600,186,1.92,0.75,0.72,0.03,0.0,64465080,64212000,0,78737269,11
2105658,150855,3698610,60300,3481457,60412,64379,401048,12303135,1591,4156024,1420,990,1319795,210,0.12,0.05,0.04,0.0,0.0,3397192,2086000,1043000,17485973,11
276344504,63658771,173214920,40215367,177972100,40010621,164261,10531967,1617993593,42136,285457958,5550,10687,725718623,182,12.54,4.78,4.63,0.22,0.0,437753994,436565000,1001000,452038549,11
65087156,13310041,28337754,4414445,29207695,4474076,116883,3729529,218855077,7752,67672967,1434,1857,137656464,237,1.73,0.63,0.61,0.03,0.0,61713126,59481000,1982000,75784245,11
65705460,13303551,28778983,4520084,29125439,4516011,120602,3213107,215046424,7047,67211660,451,1377,151124899,223,1.71,0.68,0.66,0.03,0.0,58099233,56850000,997000,72446296,11
67666945,11010395,30493143,5777352,35269519,5614324,114096,2228725,234133831,7691,77602588,2132,1932,154639750,206,1.86,0.71,0.68,0.03,0.0,63257373,62017000,1000000,77495911,11
67118600,6068567,27390130,4383108,29161242,4403260,104470,1948217,184434342,6688,68325777,1091,1652,165457715,182,1.51,0.59,0.56,0.03,0.0,50996850,47733000,2983000,65434704,11
83791712,21146237,29551877,4621953,29770377,4708217,105473,14644800,232775721,7530,85921535,1272,1985,177851063,211,1.86,0.7,0.67,0.03,0.0,65377006,64148000,1002000,79752487,11
128513819,13384872,54450451,9211284,54547989,9222389,132348,1971285,409083600,10717,129431793,1056,3157,282320970,175,3.38,1.31,1.27,0.06,0.0,110142109,108880000,998000,124365527,11
65905029,13735882,28790571,4822071,29119835,4822726,113351,3303532,214049134,6557,67001546,590,1430,151329116,223,1.71,0.67,0.65,0.03,0.0,57599132,53375000,3953000,71860400,11
91740716,28339288,59197989,9538510,61098095,9500207,204501,9722415,359199862,11343,94584540,1483,2319,251691353,215,2.88,1.1,1.07,0.05,0.0,97120291,95755000,997000,111535640,11
77826555,6142731,28179041,4794069,29609958,4772222,116066,1210371,199283954,5872,79319572,564,1433,177247206,195,1.59,0.61,0.59,0.03,0.0,54698268,54442000,0,68853402,11
65872475,13402915,28900275,4678194,29124837,4638948,109755,3154295,223124587,7180,66494890,1204,1413,137436402,226,1.78,0.7,0.68,0.03,0.0,60294149,58041000,2001000,74539297,11
65749072,13670379,28868371,4778334,29269649,4786688,120800,1176163,200107489,5466,67062099,594,1787,163666390,213,1.59,0.62,0.6,0.03,0.0,53905040,52704000,994000,67905150,11
64279068,23892870,36880876,5864559,38524058,5874989,117626,20850235,311329930,9591,65730967,726,1932,191378695,201,2.68,1.04,1.01,0.04,0.0,84711914,84368000,0,98929566,11
94488171,13136399,41600522,4724727,41551137,4737678,99766,2325099,247243017,6177,95401403,1172,2035,215724738,174,1.99,0.79,0.77,0.03,0.0,66765388,64530000,1985000,81143911,11
73259370,24462327,43123500,9594176,47831628,9367793,129282,7759642,333736882,10070,84511375,1902,2931,207627410,179,2.65,1.03,1.0,0.05,0.0,89787718,87553000,1989000,104176150,11
74966678,21407975,48295039,7045204,49080514,7023896,127892,16211774,326911907,10333,76202926,1890,2333,223024004,222,2.65,1.06,1.02,0.05,0.0,88410210,86144000,2003000,102847701,11
75304735,21372227,48669990,7000448,48944064,6950116,125830,13349532,322760934,9730,75577440,1693,2064,223412606,223,2.59,1.0,0.98,0.05,0.0,87962429,86724000,996000,101920490,11
774021567,37189482,616285614,5791507,616594507,5777723,161963,38576536,1199487793,39183,776916726,4191,7384,2673704083,262,10.27,4.36,4.24,0.17,0.0,324177918,321972000,1999000,338672026,11
65330089,27984978,41006480,9317947,42228063,9338047,105129,13867649,336381501,9862,67565172,1231,2480,199435775,197,2.65,1.02,0.99,0.05,0.0,91003015,90704000,0,105110091,11
65620402,7618946,30031424,4718087,30274656,4724159,188194,2514920,205784793,5564,67122552,676,1247,164178314,160,1.61,0.62,0.61,0.03,0.0,54974359,53585000,992000,69338565,11
801644915,23733262,654459022,5791870,653691734,5777326,185302,21740549,1208334605,33044,802554528,5503,9534,2753290961,239,10.29,4.31,4.19,0.17,0.0,326241250,325034000,1000000,340428874,11
66073076,6109258,34562370,5314035,34306781,5278333,123319,1592012,207720727,5551,66136477,595,1616,157183801,188,1.67,0.63,0.62,0.03,0.0,56621874,55383000,1006000,70830865,11
272976242,41296493,224640876,8907985,223496945,8901896,17140663,28734746,1335710526,271316,262641463,555356,126938,1188590416,117351,11.05,4.03,3.86,0.31,0.0,361277963,188526000,172481000,375628791,11
65749408,14182511,28566224,5101486,29094213,5099348,112840,2458093,206843027,5891,67052308,623,1327,150761266,174,1.69,0.66,0.63,0.03,0.0,56036018,54854000,997000,70033201,11
65636147,14123036,28952546,5099831,29156418,5101015,107845,3927475,207177784,5587,66701698,631,1299,150630645,177,1.69,0.64,0.62,0.03,0.0,56132386,53882000,1995000,70327554,11
134081519,11841694,59710212,9658346,59629349,9628653,125458,1931031,410138038,10355,134948075,1381,2908,298620520,184,3.26,1.25,1.21,0.06,0.0,110954778,108698000,1994000,125171769,11
67921054,13655864,30864108,4561543,35478831,4431394,111470,2833549,228648520,7313,76657712,2137,1800,158398039,208,1.84,0.72,0.7,0.03,0.0,62120205,60873000,997000,76339726,11
101101654,18531043,61871619,5691407,65643405,5526147,114279,6258065,266387713,8515,109866598,1439,1703,270773549,185,2.23,0.86,0.84,0.04,0.0,71996184,70748000,996000,86236801,11
761152435,24040890,607832781,5807188,608031036,5771103,178763,19827428,1134783873,35874,768759133,4889,7643,2636576810,217,9.66,4.07,3.97,0.16,0.0,305873817,302497000,2995000,320228521,11
68411835,13730834,31195783,4623491,35169671,4443532,109440,3257630,220553002,7087,76510104,1681,1401,159499277,218,1.82,0.72,0.69,0.03,0.0,60155876,57955000,1964000,74488752,11
70738870,13489060,19137837,2200805,21286129,2300818,369546,1266289,145657336,6698,71977509,1408,1508,136248830,996,1.14,0.46,0.46,0.02,0.0,37540283,33728000,2976000,51962443,11
73788119,38956918,31720242,5319814,31116526,5234802,495859,45764701,461432542,9052880,75000135,27314,22093,197873194,3547,3.81,1.53,1.49,0.07,0.0,123430794,116187000,7011000,137673401,11
1540180748,39577744,1264622176,11474593,1265967154,11447428,181803,37439647,2270581186,59323,1544951316,9329,16391,5365718861,227,19.24,8.01,7.78,0.31,0.0,611233912,609913000,999000,625693047,11
65333858,7543096,29861012,4692310,29880272,4694294,107567,1999507,202124229,5425,66404994,580,1635,163173726,159,1.62,0.63,0.6,0.03,0.0,54510472,53265000,1005000,68831027,11
65607826,14181657,28484514,5110693,29208754,5104037,139650,2993337,208342542,6630,67313512,855,1734,150592069,174,1.66,0.66,0.65,0.03,0.0,55909794,54664000,993000,70088760,11
745157564,24172717,603017495,5761384,603337540,5758800,164340,21095540,1094852478,28995,747567196,3713,7101,2575268211,231,9.31,3.95,3.85,0.15,0.0,295819535,295588000,0,310291476,11
66186549,23310362,53349837,8406709,53949594,8406382,132531,9343737,364358681,9696,67315519,1037,2864,237982558,193,2.95,1.17,1.13,0.05,0.0,98325570,97079000,1000000,112535355,11
73303978,28315455,42480554,9576911,47308286,9359491,110465,13958353,342247665,10530,85337465,2112,2749,219535082,189,2.7,1.04,1.01,0.05,0.0,93038012,91777000,997000,107261197,11
56382900,7650328,38987256,7804351,38870742,7761369,112222,1428490,279681071,8148,56220155,1335,2351,168311394,162,2.28,0.85,0.82,0.04,0.0,75479975,74208000,1002000,89949347,11
117754956,12286107,49268206,5687642,48103196,5421169,328501,4134695,248926990,10222,118913291,6329,2286,295378364,1351,2.03,0.81,0.79,0.04,0.0,67816883,63607000,3975000,82317429,11
762364701,23573354,602853201,5746750,603339532,5745487,152749,30422610,1094374830,27766,765377048,3577,6953,2616209077,218,9.35,3.96,3.86,0.15,0.0,296112334,292953000,2989000,310374691,11
81443953,22238786,30092816,5008999,35426209,4815508,112445,15268615,251041274,6929,91952235,1285,2078,203547303,207,2.04,0.82,0.8,0.03,0.0,67686424,66436000,991000,81943084,11
65276123,9743352,34567228,5094790,34511246,5107067,114326,1236269,238280685,7307,65613858,1141,2061,168124946,174,1.92,0.76,0.73,0.03,0.0,64498237,64238000,0,78666757,11
750106755,23775070,608457974,5836129,608721309,5830187,140790,19925869,1132723239,28034,753564224,3370,7798,2592044825,214,9.57,4.01,3.9,0.16,0.0,305601868,304371000,1001000,320014365,11
135798801,20830517,43353417,5086443,47504247,5100646,113128,1472030,261693562,6687,137374093,1248,1539,319293090,169,2.12,0.84,0.82,0.04,0.0,70748519,68499000,1985000,84974872,11
66176848,14288416,28399336,5004889,29258541,5001650,119599,5465375,210751239,6198,67277779,451,1324,150041193,214,1.72,0.67,0.65,0.03,0.0,57061428,56815000,0,71280135,11
65557796,13337894,29237647,4664508,29103474,4646275,115472,7662986,225238423,6690,65843528,1103,1561,136826604,174,1.82,0.73,0.7,0.03,0.0,60599276,59333000,1005000,74965588,11
65890419,13894776,28996104,4730404,29065570,4711220,119928,3501540,205450804,5596,66897310,616,1239,151823565,213,1.65,0.64,0.62,0.03,0.0,55717938,54422000,1007000,70012254,11
744275734,24122343,602705271,5803718,603911691,5802405,175018,24339506,1136710754,28087,747940030,3151,8556,2565999331,221,9.59,4.05,3.94,0.16,0.0,305851438,302179000,2991000,320141018,11
78489333,24049856,29623597,5241552,30025899,5243419,125853,18869270,253966963,6978,79690843,822,2024,189680762,232,2.09,0.83,0.82,0.04,0.0,68278383,68024000,0,82694169,11
67934511,7827820,30485374,4726070,35592829,4653228,233304,2711970,231460069,7790,77403345,2001,1926,154314473,192,1.83,0.68,0.66,0.04,0.0,65108738,63853000,997000,79500776,11
81133147,24181648,31452879,4800543,36343568,4694258,115978,16965434,268598690,8254,89923433,915,1599,170296674,209,2.19,0.89,0.86,0.04,0.0,72880408,72638000,0,86967549,11
68821756,14483934,29150364,5106426,34013180,4869767,108298,3086610,211226108,6773,79957742,1177,1408,164811801,170,1.68,0.67,0.66,0.03,0.0,57342502,57136000,0,71512352,11
84543532,6542499,48877947,4701180,49152122,4712533,112681,1455758,250258801,6726,85444724,1148,1942,395404750,185,1.97,0.77,0.76,0.03,0.0,67383991,66115000,1001000,81699131,11
70655875,13674124,34631916,5752663,34519599,5752915,98712,4109023,234345496,7134,71222246,1309,1915,171694419,222,1.87,0.73,0.7,0.03,0.0,63617049,63404000,0,77823014,11
785350223,23574197,608352612,5759069,609461116,5755662,261539,21452069,1117588422,29420,785477919,4293,7141,2635032204,247,9.54,4.04,3.92,0.15,0.0,302025732,301805000,0,316140676,11
92176098,21859440,32035831,4563807,36822878,4514859,99861,14523281,241806574,7331,99186654,2087,1930,175633099,217,1.95,0.78,0.76,0.03,0.0,65190664,63908000,998000,79525881,11
55669710,19158282,31546736,4643772,32004393,4647459,142999,13584253,262498010,8279,56535914,1723,1598,165915775,331,2.32,0.92,0.89,0.04,0.0,70978557,69705000,995000,85405518,11
80178351,24650683,27862094,5241555,30612012,5192021,131810,15876239,250362856,8352,82763142,832,1813,160748234,261,2.06,0.81,0.78,0.04,0.0,68131211,67922000,0,82327569,11
197260118,19812370,83463014,8626117,88273425,8566015,114227,2582196,517957894,13960,194830530,2090,3119,537537419,173,4.16,1.64,1.6,0.07,0.0,139780149,139545000,0,153916352,11
65687182,12929731,29377542,4301996,29228239,4317475,120453,3110527,218297322,7122,65596340,879,1747,137260909,221,1.76,0.69,0.66,0.03,0.0,59435060,58193000,986000,73630566,11
65267715,10945476,41725776,5413538,41620019,5408429,117624,1369722,228857549,7177,65611400,1419,2043,186376109,213,1.85,0.73,0.71,0.03,0.0,61891231,60576000,1009000,76274524,11
757970500,27785553,604450673,5746653,604693181,5739172,150983,29610453,1110327976,28889,759928414,4480,7735,2575597795,232,9.51,3.98,3.87,0.15,0.0,300432471,299245000,1000000,314545178,11
90834313,14895030,29488730,5434567,29690230,5179063,389824,4902348,235471357,13958,87375811,12108,5936,191112936,2526,1.91,0.75,0.73,0.03,0.0,63674495,59370000,4025000,77899840,11
71280183,7664434,29270132,5648514,29339966,5623942,116967,1605498,264694820,8025,71562038,793,1701,239785482,202,2.11,0.82,0.8,0.04,0.0,72283555,72003000,0,86779550,11
746200358,22556903,603004299,5771982,602946624,5770762,194159,21256802,1094830576,31397,748334897,3961,7153,2590702645,222,9.31,3.94,3.84,0.15,0.0,295791690,295413000,0,310106486,11
220601990,27527963,162908942,533063,164369050,534916,748047,9550932,572753035,27116,219560002,25260,17297,708792874,4040,4.39,1.63,1.58,0.09,0.0,154210531,146026000,8001000,168628281,12
392791997,8971122,258969238,907220,263912198,931744,1095086,4561826,660602694,34003,402717834,45211,12755,1185789142,4816,5.42,2.09,2.02,0.1,0.0,178588029,174398000,4009000,192644908,12
320231107,603314,197765332,766975,197745631,768362,224053,2157232,367980328,12406,325095326,22065,3665,954827111,522,3.19,1.29,1.25,0.05,0.0,98843598,98647000,0,113011545,12
146390635,14249011,101042816,417656,104332897,424809,693654,2985362,337914743,18685,153191766,11092,6975,466044270,2477,2.7,0.98,0.95,0.05,0.0,91050347,88819000,2018000,105236366,12
164714353,15935040,142142772,755862,139400029,756462,1407416,4480848,426467336,27266,162993341,22758,19306,611251934,4820,3.4,1.25,1.22,0.07,0.0,115202266,106874000,7990000,129727194,12
99223842,1371261,74566177,136885,71063510,130702,653691,2949613,150267096,8367,91842581,4076,1737,340063615,1696,1.26,0.5,0.48,0.03,0.0,40469911,39229000,1005000,54858521,12
316109429,627764,196957960,564055,196213060,548082,221325,1955264,349431679,11659,324268382,9649,3259,952451414,521,2.98,1.15,1.12,0.05,0.0,96912767,92707000,3987000,111296330,12
315182390,678678,201312816,670343,200658337,669399,214492,2223237,360868838,13545,322566203,18059,5519,958587692,995,3.11,1.24,1.2,0.05,0.0,98529052,97306000,1003000,112840456,12
454844486,19611387,292951468,960205,290444839,983256,3280292,10043614,873382705,72771,462559816,82931,30262,1437597052,10648,7.17,2.74,2.64,0.16,0.0,237050982,229889000,6996000,251512749,12
318501118,511384,195966838,524447,194170332,514731,202842,1862244,344596666,14220,317960964,14082,3993,942145154,518,3.03,1.21,1.18,0.05,0.0,93178162,91931000,1010000,107273730,12
95081477,538506,61543128,70307,63182540,94804,276026,1953964,129736083,6698,96616300,1879,1834,337587330,917,1.02,0.39,0.38,0.02,0.0,36230125,33961000,1997000,50381218,12
134514296,7462330,110489762,491021,109493995,487046,677970,3233373,273996923,15246,132015781,9411,6837,467973159,2477,2.28,0.85,0.82,0.04,0.0,74008236,65785000,7973000,88196196,12
109091751,1151665,78842864,2140463,81264481,1882552,266913,2310520,219561904,12555,118282239,11125,9382,450536178,1944,1.76,0.68,0.67,0.03,0.0,59963619,54722000,4974000,74394731,12
319543784,1082405,197988836,549850,195197631,527788,317777,2420428,352082719,15133,322865350,15234,4065,953568911,909,3.02,1.24,1.21,0.05,0.0,95268595,92093000,2970000,109611272,12
312508417,561775,196580147,528810,194061810,527701,213487,1989961,347367481,10005,311110224,15206,3533,927114139,518,3.0,1.23,1.2,0.05,0.0,93952052,92685000,1007000,108153488,12
320895166,1125170,198708150,539807,194814721,520485,284242,2392338,353411145,17115,322867221,13118,3856,958674806,909,3.03,1.23,1.2,0.05,0.0,95112567,91874000,2995000,109609468,12
92466486,309469,61177194,89339,64155908,123002,291147,1956953,123505723,7595,94641085,2243,1948,314062313,917,0.99,0.37,0.36,0.02,0.0,34790372,32464000,2029000,49286657,12
325866595,1183006,215752350,638988,214162463,628017,341823,2871806,371721294,16302,330223527,25267,11257,973382061,1938,3.22,1.32,1.28,0.05,0.0,101192493,97940000,2998000,115522463,12
96469893,321724,63902583,88074,65991705,119558,266114,2287775,129904362,11843,96207989,1819,1815,323925938,915,1.11,0.43,0.42,0.02,0.0,35115699,32843000,1990000,49518922,12
327010227,1090328,216940814,626093,214203954,627369,343739,3050068,372210775,16672,328496715,26239,7072,974087435,1937,3.2,1.31,1.28,0.05,0.0,101052838,98678000,2013000,115396862,12
93267252,304256,63335653,107055,66349868,126413,208752,1386730,123670717,6215,93619730,2449,1871,302937808,525,0.99,0.4,0.39,0.02,0.0,33487814,30233000,3023000,47741699,12
325100062,1138527,215622656,630476,214020479,622736,348756,2854471,370986797,17076,330061632,20710,9246,970893538,1939,3.18,1.3,1.26,0.05,0.0,100486920,97336000,2979000,114696164,12
91946364,359985,64504779,114144,66881565,137782,181980,1379856,122067764,5283,91567034,4094,2194,298834130,524,1.02,0.4,0.39,0.02,0.0,33704420,32422000,1013000,48090058,12
91821324,366273,64867830,97504,66502794,117796,181655,1365931,127544205,4985,91695268,3295,3085,306379657,523,1.06,0.43,0.41,0.02,0.0,34485269,33217000,1006000,48884797,12
394037870,8949623,260163915,911748,264876991,927773,1058049,4592635,655099311,33914,400255519,47124,10216,1181428605,4817,5.35,2.05,1.99,0.1,0.0,177813139,171578000,6020000,192419211,12
395101290,10965536,295034230,1630121,300053472,1649138,1450775,6118393,719432479,40264,408259480,40801,32958,1375626109,6378,6.04,2.35,2.28,0.11,0.0,193968954,184686000,9033000,208305866,12
89850525,1184924,75765868,162631,73406568,127280,298272,1881846,150352129,8631,96936929,9820,6395,325503590,1948,1.22,0.47,0.45,0.02,0.0,41256700,36991000,3999000,55651895,12
326271415,1151383,214679196,620722,213622996,614567,366329,3053623,374267350,15936,330785250,23505,9085,966429831,1940,3.18,1.32,1.28,0.05,0.0,101695693,95406000,6025000,116246249,12
91926753,1209399,76352761,176735,74202346,142913,358931,1894870,149958957,9869,96754154,10837,8007,325426020,1944,1.26,0.51,0.49,0.02,0.0,40425211,38136000,2007000,54940674,12
369953418,1633097,231623948,935519,228469761,912363,770027,4474176,429955126,17725,355701545,11618,4522,1062408946,1692,3.7,1.51,1.47,0.07,0.0,116713040,112414000,4014000,131162035,12
181477514,15977563,130920045,468223,128050468,466308,1357594,4360652,423326402,28119,179189473,31837,8503,596318552,4823,3.34,1.28,1.24,0.07,0.0,114393473,105103000,9008000,128905072,12
396176354,10710493,258803270,1026156,263218531,1038701,1542510,6039074,720240917,43594,410897437,54989,11777,1203880235,6378,5.86,2.27,2.2,0.12,0.0,194826128,186514000,7979000,209410321,12
96131369,278947,64090320,96841,65658498,120301,200583,1375644,126092198,8837,93907924,1916,1643,312519246,525,1.06,0.42,0.41,0.02,0.0,33922943,30783000,2979000,48155640,12
325820234,1140934,215593002,629436,214343416,633994,362160,3066950,373758261,15967,330969163,22467,8813,971139106,1938,3.18,1.31,1.27,0.05,0.0,101584590,99348000,2007000,115820261,12
328923289,1033402,211821907,588045,211055806,599897,351135,3130962,383980788,17130,329877044,23729,7042,974707631,1938,3.3,1.34,1.3,0.06,0.0,103632808,99330000,4013000,117982372,12
105337197,483874,80602095,86532,78127438,107474,212428,1782225,151614701,6954,100731971,7404,4500,356370807,1039,1.24,0.51,0.49,0.02,0.0,40679943,39390000,1010000,55032144,12
143196765,1808169,102482878,2081912,107267915,1835275,1978366,5071929,358050721,99554,155904275,43343,27536,576813708,11198,2.87,1.12,1.08,0.06,0.0,96317154,76016000,20004000,110758924,12
161745401,17112823,145245081,752663,142621973,739042,1362253,4271765,433012756,28356,159245468,18549,8895,596985203,4822,3.46,1.28,1.24,0.07,0.0,117003628,106823000,9983000,131523136,12
91197281,1209871,75590808,189141,73060915,152963,282364,1838996,150069189,9183,96694095,8757,8321,335533464,1945,1.23,0.5,0.48,0.02,0.0,40607772,36377000,3932000,54940040,12
90088945,2641133,78254074,237273,78462039,212745,494619,2927302,165264836,15147,101158497,21231,13324,338364374,3749,1.39,0.55,0.53,0.03,0.0,44506091,36220000,8049000,59015881,12
327895388,960525,212607625,594018,211924855,613196,415773,3232911,384575306,16491,329772831,20692,9134,976491815,1940,3.28,1.35,1.31,0.06,0.0,104362158,100010000,4000000,118709421,12
317954038,565620,196415796,544393,193257509,536578,203234,1821396,347946858,10937,318550623,13421,3599,954068277,521,3.03,1.23,1.19,0.05,0.0,94547610,91232000,3007000,108709183,12
475595295,17507191,327872160,2483717,331110908,2467201,10672825,33734411,700479049,125882,483609642,50161,20536,1664357974,5597,6.03,2.43,2.35,0.16,0.0,188668310,178386000,10021000,203104524,12
327421976,27235883,236077621,976408,236396361,976947,5065008,13565022,950609371,75149,338260673,98204,36300,1138791005,15928,7.55,2.79,2.69,0.18,0.0,255944279,232729000,22973000,270237670,12
141843727,9243283,103570578,443697,105892030,451185,800356,3500918,376645190,17803,142878413,20160,14180,446985409,3258,2.98,1.07,1.04,0.06,0.0,102244112,94957000,6996000,116503822,12
328535862,1267886,215933767,644641,214020964,630905,416073,3148205,384200625,17147,334480546,26588,8898,984350881,1937,3.31,1.32,1.28,0.06,0.0,100697150,92480000,7955000,114908033,12
329213242,2368473,201265650,749107,197089528,733153,640942,3368253,368228165,28073,324954876,14871,4440,957230329,1690,3.19,1.3,1.27,0.06,0.0,99322208,94018000,5000000,113719547,12
93111394,370993,64456034,115323,66649922,128842,203602,1404308,122522643,5589,93570103,2732,1817,299678168,527,1.05,0.41,0.4,0.02,0.0,33345130,29209000,3894000,47656893,12
143935561,9360348,103001937,448170,105128298,453242,819221,3185723,370923051,19450,144330261,17903,13446,449095250,3257,2.97,1.05,1.02,0.06,0.0,101810802,92594000,8960000,116162775,12
309758024,779025,199227078,559095,198323965,556338,245710,2162152,358137034,11433,313601186,13634,6081,925363116,1033,3.13,1.26,1.22,0.05,0.0,96571204,94268000,2005000,111021724,12
109591700,2139638,84529116,171400,86699360,200399,669678,3606194,178382921,11539,124326435,13616,12827,373434255,3751,1.46,0.57,0.55,0.03,0.0,48808841,36634000,11881000,63237540,12
179979121,16316351,146942231,469105,142552945,465121,1395377,4484615,429365585,30224,175051752,32529,13825,598062014,4822,3.39,1.29,1.25,0.07,0.0,115831427,105517000,10049000,130204439,12
174201903,12632694,142896083,496485,146308334,510036,1056060,4636424,443107206,28413,175603204,31992,8931,685548385,4811,3.5,1.3,1.25,0.08,0.0,121676358,113370000,8026000,135921603,12
323575406,5400244,192871188,388908,199966526,348840,2973787,9468607,412238474,22134,342111692,38895,30788,967747059,8018,3.45,1.38,1.34,0.08,0.0,111761887,99593000,11951000,126157765,12
143616226,1652891,88332020,175280,85952040,176690,839872,3749437,186405977,13642,137427573,4804,2271,443024404,2478,1.52,0.58,0.56,0.03,0.0,51069930,44646000,6088000,65373347,12
141384233,14051340,103343359,421756,103446430,427508,723109,3064840,327251420,16238,146959338,13100,8457,439498798,2478,2.67,0.96,0.93,0.05,0.0,88456573,82136000,6009000,103048667,12
106274263,1205125,80203930,2501226,80292295,2568426,270121,2247712,229009853,10528,117329903,9675,6659,440602115,1945,1.8,0.65,0.63,0.03,0.0,65452237,62156000,3007000,79948228,12
326105395,1068836,210509281,588237,212474739,594564,285813,2985734,387337328,16578,318246755,24247,9438,968237365,1940,3.31,1.29,1.24,0.06,0.0,107207922,99772000,6984000,121574304,12
329122767,1707758,210032435,745912,215790556,763968,508626,4916879,393827052,22233,319419659,30886,17350,972691289,3743,3.42,1.39,1.35,0.06,0.0,106026778,98770000,6983000,120595160,12
90569255,1101704,76648747,168498,78062499,154289,282345,2170740,159393993,11921,99847627,12995,7472,331615241,1944,1.37,0.52,0.51,0.03,0.0,43752942,40439000,3032000,58211969,12
89004313,1235385,77274079,179059,75164833,140918,295974,1945637,151034823,9229,97890310,7553,8396,330664887,1944,1.23,0.46,0.43,0.03,0.0,42046357,38837000,2987000,56333581,12
332437899,2783891,220552331,776197,212300217,749878,1122098,5219691,424336903,28387,339858260,33254,17075,1010011189,6300,3.71,1.44,1.4,0.07,0.0,114503661,105198000,9017000,129006111,12
83450826,1219051,92661814,187816,93024654,166984,257582,2205359,165456625,10957,89749321,11384,9028,393659215,1941,1.42,0.56,0.54,0.03,0.0,45180124,40041000,4883000,59417885,12
96881579,627883,65106889,125520,66887978,134557,321613,2137715,123164721,6221,93022195,1603,2462,309256199,914,1.03,0.41,0.4,0.02,0.0,33249290,30020000,3002000,47654170,12
395004473,8946329,293559091,1585017,295172589,1600488,1236005,4941393,670621617,29444,410840421,37011,9891,1377877665,4815,5.69,2.21,2.15,0.1,0.0,181128025,172848000,7992000,195508047,12
394553713,8908803,258537845,892205,262771007,903269,1097062,4615906,655450012,34301,403755201,36952,20932,1190392518,4816,5.42,2.09,2.03,0.1,0.0,178214757,167946000,9996000,192630164,12
181618714,11962882,133333745,492568,130200478,484367,1917527,5118801,487890295,33562,182067222,39996,25023,598160508,6386,3.96,1.39,1.34,0.08,0.0,132578320,123319000,9023000,146853591,12
329432950,1018659,214863585,765082,215164323,769900,463757,3397507,384608289,19213,331077026,14785,10063,974979348,2330,3.35,1.33,1.3,0.06,0.0,103701536,99426000,3977000,117917791,12
88772524,617775,67726424,1389475,71717005,1122598,262349,2342432,169132709,12671,102693849,9892,9250,343416881,1905,1.38,0.55,0.53,0.02,0.0,45672409,41357000,4034000,60106075,12
91193978,2617056,80151996,184263,79192867,163975,497268,3089974,165463442,15896,100856529,20035,17172,338800761,3748,1.38,0.54,0.52,0.03,0.0,44756535,36618000,7917000,59049330,12
444647699,6952707,309341600,811084,310860106,854887,3728204,13291888,608527098,63303,449770901,63233,56548,1453733009,8629,5.25,2.07,2.0,0.11,0.0,166690523,150235000,16025000,181177419,12
91563696,2568276,79964477,190818,77984827,165261,470943,2881199,165041683,15245,103417567,20775,11845,338533198,3749,1.38,0.54,0.53,0.03,0.0,44590252,36247000,8055000,59013321,12
95938540,2515073,80254863,204129,77724209,183627,566802,2804842,162580801,14948,106672589,22246,12801,339693107,3749,1.37,0.53,0.52,0.03,0.0,45138942,39871000,4983000,59589296,12
90783832,2732248,79414591,185891,77351501,155356,487848,2800547,159973191,13410,100199745,22974,12526,344718090,3750,1.32,0.51,0.5,0.03,0.0,43138217,34924000,7982000,57426973,12
330511204,951161,212376594,593487,211974437,613800,360352,3186694,383097635,18108,329267111,23580,8757,972596227,1940,3.33,1.32,1.29,0.06,0.0,103571767,94235000,9022000,117828726,12
396127952,10675464,259669913,1002014,263842532,1014327,1492260,6163607,722314004,42509,409292833,47192,26743,1198740127,6379,6.05,2.21,2.14,0.12,0.0,194945862,184665000,9981000,209534852,12
92715705,1154675,75303758,150196,72287474,115717,285629,1934119,151548900,8717,95908881,12643,8837,338598027,1945,1.27,0.49,0.46,0.02,0.0,40044844,32797000,6957000,54659998,12
95394224,197304,62747694,98872,64522969,135229,201021,1426115,122612177,7527,93332013,2153,1890,313555351,527,1.05,0.41,0.4,0.02,0.0,33497361,31264000,2017000,47735629,12
89556871,1154047,77185208,154869,78168058,144681,275787,2201672,160778751,9387,96132854,10321,8578,325864917,1946,1.32,0.51,0.5,0.02,0.0,43298953,40035000,3002000,57584821,12
328959656,1093689,216259523,632179,213961437,625316,336486,2988154,369010607,17663,330109776,20145,8353,977563563,1938,3.23,1.3,1.26,0.05,0.0,100463242,96225000,4009000,114601607,12
77935661,106259,44451691,62863,45106057,63360,110349,723097,85950062,3170,80626421,1453,1183,225199917,129,0.71,0.24,0.23,0.02,0.0,25827914,24573000,1023000,40059210,13
81292483,302622,49226398,73898,49268046,69377,144328,792120,95798416,3618,86417571,4457,1273,256483294,325,0.81,0.33,0.32,0.01,0.0,25840812,24625000,985000,39997056,13
29450425,108747,16006471,58830,16094146,57441,103505,502987,38285368,1590,31306561,615,731,96050665,133,0.3,0.12,0.13,0.01,0.0,10475273,9338000,933000,24581200,13
27559498,151207,15931075,63004,16002028,57996,103567,508498,39148268,1478,30108655,681,769,94535333,137,0.35,0.13,0.12,0.01,0.0,10292274,9025000,1002000,24410569,13
83825490,63699,45590318,62670,43408914,64453,127225,746821,83743236,4457,81893122,1840,1370,242737979,129,0.79,0.31,0.3,0.01,0.0,24937207,21515000,1955000,39029948,13
80217856,519047,47764136,75160,47864921,70765,172672,875898,98684278,3983,89221750,2231,1218,261585903,520,0.85,0.34,0.33,0.01,0.0,26437537,23151000,3019000,40525736,13
82106427,348138,50209451,79298,50362191,66023,117349,762967,94235466,3454,86931539,4575,1422,263356983,325,0.8,0.32,0.31,0.01,0.0,25506606,22096000,3013000,39605201,13
80792808,332983,49996651,73458,49582797,67297,142776,803649,94652735,3402,86700943,5235,1214,263442810,327,0.79,0.32,0.32,0.01,0.0,25284062,24071000,1002000,39558501,13
28434607,111861,16840443,55316,17073835,55915,114185,592872,39008514,1471,30524241,296,627,93671278,133,0.35,0.11,0.1,0.01,0.0,12145613,11919000,0,26468372,13
30166598,128618,15820842,59815,15814065,60601,135488,607402,41151851,3267,33244846,579,707,103320400,327,0.37,0.15,0.13,0.01,0.0,11104809,9806000,980000,25022799,13
79941497,322726,50266951,74182,50880118,74066,134086,1051140,95052890,3374,87655240,2735,1372,261190311,325,0.79,0.27,0.25,0.02,0.0,28913762,26593000,2045000,43180174,13
26940969,157878,15779383,60492,15810229,57431,102798,505153,39348994,1239,30285336,841,995,94374784,133,0.31,0.12,0.12,0.01,0.0,10549758,9202000,1022000,24642534,13
80847811,340432,50141128,71541,49166459,62771,122422,743638,93331857,2538,86591740,4892,1215,264456469,324,0.8,0.32,0.31,0.01,0.0,25404533,24163000,1006000,39820853,13
83443730,535015,54320409,136825,54095274,131537,204889,1401221,107599702,3271,91721257,11928,784,269623667,323,0.86,0.32,0.31,0.02,0.0,27184396,25937000,997000,41581408,13
80779224,310141,51528962,90189,51468832,78090,140970,788190,97115460,5070,87271902,4317,1139,255555256,322,0.86,0.34,0.32,0.01,0.0,25813061,22669000,2956000,39870630,13
79219850,329854,51617374,85200,50919842,69005,130934,779082,96164691,3591,86370315,5735,1177,258068388,323,0.81,0.33,0.32,0.01,0.0,25704705,25460000,0,39593411,13
77157821,154665,45068461,64796,44914218,55598,88912,668913,90269524,3338,79497889,5035,1569,228868224,129,0.77,0.31,0.3,0.01,0.0,24052879,22841000,993000,38082744,13
27828559,149469,16660650,59133,15945551,58197,99596,497950,39455947,1396,31344573,790,808,99171136,137,0.35,0.13,0.12,0.01,0.0,10908345,9721000,972000,24992187,13
1534326,112986,2788120,29123,2692726,29062,75452,354628,9602558,2087,687026,?,?,?,227,0.09,0.03,0.03,0.0,0.0,2536219,2301000,0,16704305,13
81247020,332315,50316980,74971,49905822,67216,130244,791178,93765359,2911,86259523,4842,1278,263954482,328,0.76,0.31,0.31,0.01,0.0,25377019,22058000,3007000,39645356,13
25247929,157297,15304421,63271,15325122,52127,97261,480693,38176099,1210,30313223,648,767,94890490,133,0.3,0.12,0.12,0.01,0.0,10216240,8923000,991000,24389659,13
76889045,213588,44665717,68064,44550890,54940,113099,721940,90173206,4415,81790565,4719,1580,236232981,322,0.77,0.3,0.29,0.01,0.0,23887228,21673000,1970000,38181034,13
78996125,188493,43851396,67030,43835044,60437,147321,811148,90826724,3819,83139830,4232,1359,238797251,519,0.76,0.31,0.3,0.01,0.0,24460011,22202000,2018000,38597850,13
33768527,130359,25993918,51411,25966667,52958,103469,651902,53098970,1750,37687511,438,557,144768093,133,0.45,0.17,0.16,0.01,0.0,14350267,13235000,945000,28556979,13
32226937,512048,20243159,66017,20019863,68360,176982,835765,48525086,2551,39453211,455,385,128567897,524,0.41,0.16,0.16,0.01,0.0,12959342,12639000,0,27250806,13
29054751,127889,16164993,62402,16210654,62464,109599,525624,39238372,1423,32082527,800,761,98202290,135,0.3,0.12,0.13,0.01,0.0,10484403,10177000,0,24648749,13
34257841,300170,22410608,66219,22712360,67491,133799,876658,49881797,3504,37428617,4416,1182,128543453,591,0.42,0.17,0.16,0.01,0.0,13701250,13487000,0,27920227,13
78930009,124153,44981354,64392,44795694,58279,95579,662878,86551467,2974,79612512,3055,1152,229123921,127,0.73,0.3,0.29,0.01,0.0,23722364,23429000,0,37809536,13
75550725,156238,44503278,61982,45235996,53825,94904,635966,88035895,2971,80529975,3875,1087,231386980,128,0.74,0.3,0.29,0.01,0.0,23568338,22312000,1014000,37643729,13
76587236,193609,44817063,64208,44620248,56298,115089,711350,88991825,2403,80180325,3691,1244,231694715,324,0.73,0.3,0.3,0.01,0.0,24270307,22129000,1924000,38515056,13
77886608,223867,46432369,74552,46283703,70836,268349,915672,96755527,2814,82564644,4343,1332,234848983,324,0.8,0.31,0.31,0.01,0.0,25015846,23699000,1030000,39214867,13
25982423,159114,15593764,60557,15701561,52829,95136,472906,38689794,1170,29609139,761,757,92386108,136,0.34,0.13,0.13,0.01,0.0,10224156,10006000,0,24414552,13
75678589,161417,44729073,62748,46044966,54058,92450,647751,87523410,3013,79121018,2278,1251,226892244,130,0.77,0.3,0.29,0.01,0.0,23488371,23237000,0,37811706,13
28344091,151779,17027654,61145,16599677,56569,100345,503991,39552622,1449,32542365,707,839,99409182,134,0.33,0.12,0.12,0.01,0.0,10856714,9488000,1054000,25274048,13
24816600,158559,15611560,61801,15671623,50837,91656,469767,39080765,1214,29426287,746,815,91895371,137,0.31,0.12,0.12,0.01,0.0,10358767,10085000,0,24675377,13
25912303,164795,15342564,62357,15424020,50978,86706,472559,37439254,1246,29705504,672,770,92591861,136,0.3,0.12,0.12,0.01,0.0,9966693,8777000,975000,23965146,13
82616622,312628,50064551,74895,50022978,66977,124045,773569,93707573,3180,86732275,5573,1268,263201377,323,0.79,0.31,0.31,0.01,0.0,25234070,23972000,998000,39324664,13
76487280,161341,45320319,66107,44468014,57448,90641,677475,88018461,2651,79225466,2101,1171,232126142,130,0.74,0.29,0.29,0.01,0.0,24083970,22825000,992000,38398056,13
78291269,133836,44602360,67026,44654309,56506,96754,661586,86827987,3082,79209140,2722,1160,226434408,128,0.76,0.3,0.29,0.01,0.0,23403101,22140000,1006000,37569564,13
78450814,129898,44723806,63893,44703848,56957,99634,675041,87249383,2956,79974637,4002,1162,230094276,129,0.73,0.3,0.3,0.01,0.0,23794782,23494000,0,37891484,13
76578400,148631,44680029,62255,44775472,55376,91791,663569,90305002,2536,80180039,4964,1323,231137457,131,0.79,0.31,0.3,0.01,0.0,24139152,22920000,996000,38204657,13
77001732,144357,44678479,64822,44669581,56332,95623,664813,88285491,2674,80283190,2466,1104,231102785,128,0.74,0.3,0.29,0.01,0.0,23680006,22499000,978000,37863384,13
29248022,232613,15470841,60761,15613020,61077,161143,631797,41785960,2365,34101359,636,875,100953499,523,0.38,0.14,0.13,0.01,0.0,11025841,9779000,977000,25368864,13
29244524,496027,23289460,77220,23264161,75006,146930,888939,51058453,2338,37852658,3994,1128,115145719,524,0.44,0.15,0.15,0.01,0.0,13453826,12158000,1013000,27547201,13
85405514,476440,52740910,95240,51238340,94967,192928,1083098,95424031,7722,88580806,1720,933,261434945,517,0.82,0.33,0.31,0.01,0.0,26453462,24130000,2010000,40611024,13
80411078,305255,48697940,73922,48716560,69067,142623,806008,96237148,3700,87465428,2825,1222,259702130,325,0.82,0.32,0.32,0.01,0.0,25984572,23801000,1983000,40057771,13
40955411,185772,26002483,55856,25843432,55660,169348,853959,50855881,6047,40828541,510,364,144304341,522,0.43,0.17,0.16,0.01,0.0,13653380,12312000,1026000,27848083,13
78818389,124707,44755292,68147,44785322,60211,109536,712488,86635531,3227,79311540,1986,1170,227649153,126,0.77,0.3,0.29,0.01,0.0,23528184,22226000,966000,37577475,13
90957974,412910,54570412,90578,54575525,83825,148850,1069932,106534203,4810,97748885,4468,911,281000905,423,0.92,0.37,0.35,0.02,0.0,29095979,25813000,2978000,43177577,13
83005950,315043,50210224,77209,50417203,72787,214658,889071,95938949,3458,87188732,4518,1269,261751243,325,0.82,0.33,0.31,0.01,0.0,25360516,22951000,1995000,39875984,13
78344898,123132,44912140,63147,45055185,56127,102832,718221,87678606,3395,79068729,3369,1366,226922456,127,0.76,0.3,0.29,0.01,0.0,23683248,23344000,0,37925203,13
78746702,122437,44999139,62912,44847998,57649,96221,674224,87731846,2770,80067636,4425,1135,229351361,128,0.77,0.31,0.3,0.01,0.0,24108119,22792000,990000,38177888,13
76214012,152267,44382682,63673,44324600,56325,97507,670555,86644816,2476,79652418,1548,1116,228309857,127,0.7,0.26,0.26,0.01,0.0,24111852,22776000,990000,38382232,13
79418547,109089,44745997,62914,44691202,56243,96770,674498,85876986,3226,79698997,2263,1193,229279065,129,0.75,0.3,0.29,0.01,0.0,23550650,22183000,1008000,37617285,13
78255206,127544,45313979,63450,45588674,69801,168316,813392,94449396,2905,81680470,3420,1232,230890021,127,0.78,0.31,0.3,0.01,0.0,24318161,23872000,0,38500596,13
82654646,284031,51905204,89771,51765475,86100,156526,857554,95849384,5332,88271474,6110,1000,256440077,322,0.8,0.32,0.32,0.01,0.0,26100497,25814000,0,40343683,13
78788078,120190,44338563,63290,44444903,54572,95152,648716,85742591,3051,79128471,2018,1112,226780812,127,0.77,0.3,0.29,0.01,0.0,23194977,21050000,1913000,37490149,13
75677822,161260,44408296,65677,45726385,54790,95102,640100,86327186,2893,79767427,6273,1170,228400701,129,0.74,0.29,0.29,0.01,0.0,23063351,21807000,991000,37355307,13
81782348,156237,44781836,64547,44113679,63769,151403,813690,89285112,6677,82742855,3437,1172,236171582,520,0.78,0.31,0.3,0.01,0.0,24410310,23144000,1006000,38599635,13
76184831,158735,44614025,63933,44689808,57343,95262,676853,89994079,2297,79338253,4503,1087,227441044,130,0.8,0.31,0.3,0.01,0.0,24359835,23078000,1003000,38700533,13
75712638,166037,44469922,63942,45348300,54488,91758,705978,87733601,3553,79392780,3426,1553,228263317,130,0.72,0.29,0.27,0.01,0.0,23415894,23198000,0,37412108,13
75128857,155470,44974535,62892,45611591,55901,98428,670188,88159691,2927,79220703,2170,1209,228289414,127,0.74,0.3,0.29,0.01,0.0,23836027,22473000,1021000,38012819,13
35863648,186659,27838790,35587,27800381,35999,86515,693214,54512003,1653,38549483,441,497,149084624,260,0.45,0.18,0.18,0.01,0.0,14332611,13106000,1008000,28430501,13
28624464,128068,16147937,60554,16226625,57784,104462,506163,39020329,1495,31021687,666,773,95233445,136,0.33,0.13,0.12,0.01,0.0,10448824,10285000,0,24470749,13
77318799,148256,45122015,63601,45045136,61948,96298,688780,88651366,2815,80206183,3540,1106,228678361,129,0.72,0.27,0.27,0.01,0.0,24376737,21258000,2898000,38476752,13
76056058,152922,44735179,62655,44966093,56493,98417,675745,86961041,2653,80013970,2776,1122,229463130,128,0.72,0.27,0.25,0.01,0.0,24404421,23192000,1008000,38340723,13
30222020,85178,15702644,59810,15827182,57106,105729,523973,38110300,2177,31680624,699,764,98223608,134,0.34,0.14,0.13,0.01,0.0,10438033,10212000,0,24723068,13
76805498,160052,44839977,65685,45404722,56465,93441,662530,87561736,2579,78867832,3074,1120,227120548,128,0.77,0.3,0.29,0.01,0.0,23479283,22186000,1008000,37784441,13
82077803,510305,52413081,91756,52365605,85435,149255,774296,94755225,3203,85974000,5330,1956,252136031,518,0.81,0.32,0.32,0.01,0.0,25837276,24592000,1024000,39922109,13
28355722,131123,15898069,61481,15909732,58981,104936,496015,39137746,1430,31032766,692,694,94977305,134,0.31,0.12,0.12,0.01,0.0,10326615,9063000,1007000,24759833,13
76465004,157782,44575917,62570,44721450,55490,97487,658318,88117443,2535,78973575,3746,1239,227061616,128,0.75,0.3,0.29,0.01,0.0,23703901,21496000,1954000,37859169,13
80836103,309783,48805801,73624,48846788,69010,143158,779818,96531862,3425,86994804,4792,1235,259036606,323,0.86,0.33,0.32,0.01,0.0,25732651,23508000,1959000,40068948,13
85015069,478184,48934021,72704,49067072,72774,162858,1394661,96602111,5323,89799057,2016,846,258446866,518,0.78,0.27,0.26,0.02,0.0,29084839,27801000,1029000,43281016,13
25455969,160712,16794126,62954,16896083,59933,125769,512812,38433593,1400,30381225,648,1004,92744766,135,0.3,0.1,0.1,0.01,0.0,11181590,9915000,991000,25558993,13
28280626,139771,16155414,61035,16112220,60335,105007,494724,39110236,1410,30955087,787,842,93821828,142,0.33,0.13,0.12,0.01,0.0,10470522,10274000,0,24550414,13
83725597,384660,51488131,80098,50977745,75113,139569,995745,98428947,5654,87229632,9144,2280,261416992,779,0.85,0.33,0.33,0.02,0.0,26616476,25281000,1011000,40908971,13
75294059,158018,44917856,62414,45900909,53520,94612,655378,87752475,2979,79289518,2468,1124,228635295,129,0.75,0.3,0.29,0.01,0.0,23586284,23359000,0,37694851,13
77910682,171543,44617457,64069,44719692,60158,120282,744883,91933263,4685,82093634,4153,1196,235909196,325,0.81,0.31,0.3,0.01,0.0,24466542,22092000,2008000,38479170,13
77689237,132476,44325977,64538,44108392,56584,96245,683595,88227801,2935,80091635,2390,1075,230363977,128,0.75,0.31,0.3,0.01,0.0,23744584,23428000,0,37919551,13
78662838,320022,49125381,72568,49691937,73448,138517,995304,96921222,3270,89285990,3503,748,257651396,325,0.81,0.29,0.27,0.01,0.0,27648537,25378000,2030000,41847213,13
234780918,21474190,293679036,6511562,285209688,6398663,4342408,13329853,625564896,66604,217631388,54199,15482,1419102814,10351,5.1,2.0,1.93,0.12,0.0,169037675,153783000,14978000,183482368,14
98856967,11815784,190893162,17089273,193649177,16614978,1433737,12962707,637153989,48766,102710168,41963,14879,796399317,8296,5.04,1.82,1.76,0.1,0.0,174521879,160256000,14022000,188951727,14
70143447,1414290,160942513,16428760,159277649,16353731,359786,4031471,549201305,18470,71023439,7907,5642,552319199,1604,4.32,1.53,1.48,0.08,0.0,148178489,144876000,3018000,162253924,14
137119515,19206537,227714225,16708494,229194601,17046143,1515907,14514360,798444752,49175,140008217,59846,16864,902080236,8307,6.28,2.41,2.33,0.13,0.0,215544060,205219000,10010000,229907083,14
234394737,24436865,287300712,6572641,287848035,6372888,3928348,12448970,644337234,67680,229051810,48878,14962,1392781286,10350,5.2,1.99,1.92,0.12,0.0,173688612,155347000,18040000,187978733,14
102021917,20508590,249596624,17825411,249514619,17994269,1141486,16142296,748755220,39339,104105200,13824,12632,947520627,4229,5.87,2.23,2.15,0.12,0.0,201429058,193156000,8006000,215468458,14
16403132,701595,21646943,60043,19981808,61183,578257,2093885,46616529,8115,16897564,10468,2773,105547567,2306,0.39,0.15,0.14,0.01,0.0,12451139,9069000,3023000,26749508,14
146851970,17587110,256409030,17936334,258152364,17726136,2343047,11240946,827689653,58788,146977097,41300,13830,1060613881,8300,6.62,2.41,2.32,0.14,0.0,223474993,209157000,14010000,237749913,14
29331471,683695,15873704,97568,15074146,100537,747948,1840785,109601527,10821,27330030,8114,3583,107832073,2184,0.88,0.32,0.31,0.02,0.0,29929698,26481000,3055000,44299559,14
98327601,23503718,206850631,14969517,207116843,14537577,1073106,15721840,723876932,40403,103107823,12466,8424,883839842,2185,5.68,2.14,2.07,0.11,0.0,195817846,191398000,4008000,209978670,14
110101763,1618231,220087421,15949582,223755787,15628037,727011,4985447,643272844,24322,109600925,16037,8270,861432811,3627,5.12,1.83,1.76,0.1,0.0,174427799,169075000,5002000,188637858,14
73867210,1578627,133800389,2437595,137886393,2409500,374450,2665728,231670074,16254,74190244,24059,9949,487520266,3347,1.83,0.7,0.68,0.04,0.0,63326374,58026000,5002000,77831250,14
56234400,1603996,30577494,363931,31777155,361110,1003943,2937735,174874091,21393,61042767,37244,10676,193280445,8302,1.47,0.54,0.51,0.03,0.0,48205803,34628000,13240000,62584470,14
157032258,13448994,169851051,4845510,171694988,4649235,2778193,10318943,435079014,53634,145743966,45902,12946,814082172,8301,3.5,1.36,1.32,0.08,0.0,117551670,103148000,14020000,131746492,14
81669034,3330994,177790467,16240820,181083971,15956240,1566628,7796770,686047001,39645,78725827,24569,15757,632084443,7142,5.54,2.02,1.96,0.11,0.0,186091322,174817000,10988000,200523717,14
85136901,20323528,162431318,4099557,161827838,4321166,1223889,17225908,369407014,24389,86257622,28280,6718,595289719,4229,3.03,1.16,1.12,0.07,0.0,99690293,92487000,6961000,113911534,14
113846637,25607528,217765501,18233503,216359723,18259612,909731,21742529,781204647,29787,108063553,22873,11452,997863191,4235,6.18,2.29,2.22,0.12,0.0,210955366,201586000,8981000,225418614,14
149976780,18091338,281822324,18003826,272328237,17892684,3068314,11423047,829438942,68010,152928408,39895,14805,1171576943,8301,6.58,2.55,2.46,0.14,0.0,223588842,206267000,17022000,237845821,14
75852818,1469703,169623169,20999142,167618797,21072795,394773,5058900,732978309,24653,75095017,11032,6421,654691935,2031,5.77,2.15,2.08,0.1,0.0,199136045,193845000,4996000,213613116,14
576565151,16901238,522976820,6684376,533217794,6694225,2396945,10644187,1006261914,46763,590148877,34132,27714,2454073994,6284,8.62,3.43,3.32,0.16,0.0,271436102,256065000,15003000,285840049,14
85965922,215375,124276761,12835520,124418529,12896463,106952,2326398,608416985,15906,85940806,1709,4208,490996715,137,4.64,1.72,1.67,0.08,0.0,164773655,163403000,1002000,179062165,14
152230296,18086035,260475840,18112087,254600633,18475351,2936920,10879884,820780715,55255,152233815,46367,18733,1109019848,8297,6.53,2.4,2.31,0.14,0.0,221582470,209294000,12016000,236068407,14
88523838,2744817,209993233,15631790,208705270,15607726,1389191,6987572,661978864,34435,86439625,29793,20239,770675041,7146,5.13,1.93,1.87,0.1,0.0,178761239,164297000,14025000,193221503,14
135697108,10992559,155968584,5117486,153925516,5124442,2995333,9691995,408233516,35717,128153152,48772,11847,755820188,8302,3.36,1.29,1.24,0.08,0.0,109972592,91725000,17946000,124421468,14
161939943,17383890,178069959,4955453,178075658,4974157,2676916,9835934,462662077,47797,150576253,46915,12257,891116742,8295,3.77,1.44,1.39,0.09,0.0,124447795,107161000,17025000,138993061,14
64040969,2735835,90415691,2556600,91831793,2551391,1313111,4792697,241938837,24650,64859875,19598,8674,427171106,7172,1.97,0.75,0.72,0.05,0.0,65399326,54063000,11013000,79809415,14
151430682,1612224,218733017,3495763,210618053,3679574,618566,3623643,374823752,17171,152731980,21966,11926,1017364113,3343,2.97,1.13,1.1,0.06,0.0,100823709,92584000,7964000,115336569,14
79714780,6056784,134820969,12872025,135139484,12700122,6078905,8215980,705364465,90763,88467751,91639,41549,530397861,35216,5.55,2.0,1.92,0.13,0.0,190894433,131425000,59191000,205201235,14
190276572,16212777,263415854,18284594,264971453,17623440,2783616,10922019,798011158,58774,191281759,38896,18767,1195456962,8297,6.32,2.32,2.24,0.13,0.0,216162212,203813000,11989000,230523492,14
116287569,16767354,222530407,15668253,224789879,15747761,1903573,13470532,713394647,41388,116052394,36934,17739,921062118,8303,5.69,2.12,2.04,0.11,0.0,193377775,180125000,13009000,207522932,14
149438509,17450127,257056852,17527409,257942681,17329198,2975383,11578993,885739043,61313,148845852,22593,16659,1216596300,8305,7.17,2.63,2.54,0.15,0.0,239151271,220780000,17982000,253582261,14
84821784,246616,124065478,12726488,124093646,12717976,109271,2336592,597125806,15931,85121061,2030,4137,487626891,136,4.56,1.68,1.62,0.08,0.0,161746879,161477000,0,175803627,14
189894847,16365973,261443329,18580824,264001241,17885827,2480209,10571355,801469904,59211,191074047,52421,15689,1174794360,8297,6.37,2.34,2.26,0.13,0.0,216212955,196921000,18992000,230232437,14
85593281,239878,124164386,12734672,124524476,12772863,128722,2435828,606888411,15905,85722643,2596,4450,488740473,135,4.63,1.69,1.63,0.08,0.0,164294419,163132000,994000,178464210,14
190120602,16746090,255868241,18929421,261666569,18710771,2508319,10733127,800413118,47756,188858770,40361,31337,1149138235,8303,6.5,2.38,2.3,0.13,0.0,216348590,201914000,13994000,230767359,14
41401746,183889,98186594,13022124,97951916,13022453,135076,2111053,485393107,14521,41469019,2060,4368,385195691,136,3.7,1.37,1.33,0.07,0.0,131306922,130032000,1000000,145686017,14
169315396,17683539,255506179,19203685,255051921,19012603,3224055,11461169,810150231,63713,176447015,44876,15119,1172398692,8299,6.37,2.35,2.27,0.14,0.0,220048280,206725000,12982000,234169496,14
78293322,91807,76813121,673188,76434996,691905,103918,1171763,213791824,7737,78224492,727,1363,401962868,135,1.7,0.64,0.62,0.03,0.0,58510119,58287000,0,72821941,14
147597673,16186254,260840655,18497634,263864169,18271740,2622725,10801804,794463943,58544,150527011,50803,29346,1064838149,8298,6.35,2.3,2.21,0.13,0.0,214838245,200518000,14036000,229178423,14
110651522,19609215,213481237,15854458,213350382,15676783,2461281,20861631,738277706,51933,116847261,31072,10529,854933428,8300,5.91,2.19,2.12,0.12,0.0,199106372,183840000,14986000,213617765,14
190131387,16072093,260355316,18295167,262616996,17596315,2742313,10906489,800398470,60048,191298476,49562,17676,1200729616,8297,6.36,2.32,2.24,0.13,0.0,216963515,204546000,11973000,231377084,14
156433571,16275089,176385597,5117811,183636992,4932780,2929362,10352204,446280633,48401,150546460,48664,20049,879528278,8301,3.64,1.38,1.33,0.09,0.0,120072001,105817000,13975000,134447171,14
173901493,16974990,263688098,17703883,254843077,17586866,2045939,11568288,833024536,59348,165245504,29677,17159,1158769968,8301,6.68,2.44,2.36,0.14,0.0,225770670,212316000,13019000,240250024,14
192229052,17892652,287253525,20079934,274050931,20187984,1480842,9501113,769370729,65154,194360995,35030,33678,1141053469,8301,6.18,2.28,2.2,0.13,0.0,207597437,198196000,9008000,221952462,14
40162814,198239,118949480,12616876,120442751,12664875,114832,2023899,494018037,13770,40452016,1526,3733,394395882,136,3.78,1.38,1.33,0.07,0.0,133908885,132553000,1004000,147833719,14
115768373,14527136,135947453,2987913,138174553,3055758,1732329,11087587,321817791,29649,110470719,53359,16767,639106402,8301,2.62,1.01,0.97,0.06,0.0,86506521,71164000,15034000,100832884,14
130900492,11583108,135516063,5071673,135422974,4960198,2806346,10136900,402534274,43981,127109889,47338,12198,683608568,8301,3.27,1.27,1.22,0.08,0.0,108674243,88471000,19881000,122939393,14
84155461,2516121,81542276,4926227,88552752,4686715,1085364,5964422,281043210,22005,91928068,26039,9542,392891015,4202,2.22,0.84,0.82,0.05,0.0,76055986,70694000,4978000,90234675,14
193529453,16224095,254731477,18712899,258384118,18326609,2361426,10586614,860490999,58024,197089286,38914,27448,1327776397,8296,6.91,2.52,2.44,0.14,0.0,232059147,222715000,8988000,246381153,14
148624925,16473894,253275849,18483929,256259119,18456495,2434048,11201858,863051886,47639,144992264,53071,31841,1058785280,8303,6.96,2.54,2.46,0.14,0.0,233627273,220327000,13019000,247850765,14
63905074,783351,94006787,2082289,91947861,1941429,214321,1892459,183849517,12113,68436420,12069,4361,444723931,1736,1.45,0.56,0.55,0.03,0.0,49251008,44974000,3997000,63742486,14
136335912,19686459,230873348,16927200,227958334,16551911,1900507,15491054,740885876,50190,140942890,37154,18371,1044885422,8307,5.9,2.2,2.13,0.12,0.0,200769563,190436000,10022000,215264708,14
89451003,879158,109162536,13243326,109078664,13097967,931635,2996495,523651380,28103,89259200,28430,18373,556630027,4265,4.06,1.52,1.46,0.08,0.0,141365890,134996000,5999000,155706871,14
151641003,17717533,181558837,4991615,178536994,5013537,2738844,10742743,451801803,45775,146172984,44507,12413,889153263,8302,3.64,1.4,1.36,0.09,0.0,122638331,107229000,15032000,136879708,14
146006353,16578308,172957260,5136777,177940114,4917623,2849555,10287481,440654991,47320,143214792,49810,12667,844201748,8302,3.59,1.38,1.33,0.08,0.0,120064044,109682000,9971000,134495092,14
200331081,15010885,298691056,24020012,293806203,24308686,3453809,12477474,1000407397,61652,195989224,47232,28076,1254082321,10349,8.03,2.91,2.81,0.17,0.0,270035887,254667000,14980000,284472098,14
38006741,193002,95642973,12606568,95858538,12603446,101045,1844703,455229408,12069,38327624,1893,3517,319516697,135,3.45,1.25,1.21,0.06,0.0,122747688,122468000,0,136985842,14
154402026,17690625,262722076,18601520,253418516,18628518,2228175,9704722,833214518,57422,147115315,48666,13546,1209468876,8302,6.73,2.46,2.38,0.14,0.0,225348637,214056000,11002000,239510732,14
100284739,1855171,139707569,13481337,136461254,13239050,3858703,6417952,656526092,62278,100428135,102903,26530,564367636,20356,5.09,1.89,1.82,0.11,0.0,176946021,146569000,30116000,191339979,14
172611822,18964255,301327623,18299851,300344380,18234002,2328417,9566764,844272021,49225,168281818,48095,18430,1236183745,8301,6.77,2.48,2.39,0.14,0.0,228442777,210085000,18007000,242714614,14
159511254,5248360,228391043,18255654,230635299,18458665,2991512,10785875,799751382,56545,147773196,45174,19721,882013581,8303,6.46,2.38,2.3,0.13,0.0,216429399,203099000,13006000,230759584,14
79494359,1646584,95792804,2965113,96114209,3008321,498293,3072462,232115950,15019,80187986,20462,7338,448101455,3621,1.84,0.71,0.69,0.04,0.0,62986249,54689000,7954000,77379273,14
136356077,19789904,221024130,18394539,220761078,18233986,2417791,20778561,863881672,53691,140643948,34373,44784,985272078,8302,6.9,2.66,2.58,0.14,0.0,233548599,218056000,15003000,247953959,14
148167120,17391596,264335837,18396646,267769380,18039504,3022353,11227272,827797253,59988,154330600,35135,19063,1190942078,8302,6.65,2.43,2.34,0.14,0.0,223439686,212160000,11008000,237814046,14
120789271,16399565,151444862,3170386,151736610,3185993,1799247,12028889,360650225,33064,113598153,43677,11276,715959668,8303,2.94,1.15,1.11,0.07,0.0,97680032,83327000,14055000,111989717,14
148109692,15773199,262317120,18266427,258032166,17788109,2666805,10640540,792348742,58710,149330877,45334,18476,1047013089,8296,6.35,2.33,2.24,0.13,0.0,214218405,199924000,13994000,228502752,14
83112516,899224,120410506,1710051,116275796,1631782,274844,2241601,199409285,11670,87861367,13257,3188,518860267,1744,1.62,0.6,0.58,0.03,0.0,52053898,46798000,4978000,66562862,14
105885457,22457493,216506017,17874816,213284734,17373508,1174641,19804650,754612364,46134,110294077,17879,13870,852583436,4236,5.93,2.22,2.15,0.11,0.0,204392720,199102000,5002000,218716257,14
130292236,3741618,127906148,3326251,120905137,3490569,1994443,6681419,351180560,40195,122242684,71390,16150,643297183,12136,2.95,1.11,1.07,0.07,0.0,95796098,72391000,23125000,110096718,14
52539792,226226,101238029,12925047,101578746,12962099,125743,2082110,465624826,12103,51680026,1256,2920,327301549,130,3.51,1.24,1.21,0.06,0.0,126467991,123216000,2981000,140822419,14
36879378,328924,56875693,6437930,59400882,6129379,505567,1913722,226191139,12980,46172724,9157,4436,252753594,2303,1.79,0.64,0.62,0.03,0.0,61841581,56527000,5047000,76037895,14
78320708,3491993,59943449,3609887,58124379,3592689,961013,5112277,248922114,28585,81532629,42240,12583,372306109,7147,2.04,0.78,0.75,0.05,0.0,66778154,56469000,10083000,80923965,14
113203754,18157025,230892214,16686175,228792473,15902614,1815202,14381083,699992735,53361,122163571,45669,18451,891848295,8301,5.49,2.08,2.0,0.11,0.0,189136381,174850000,13988000,203500209,14
114325020,18439454,224204901,15935498,221158691,15800999,1673692,13168258,733265814,47054,114042879,41949,12693,1032852868,8296,5.83,2.18,2.11,0.12,0.0,198084482,183841000,13987000,212373708,14
36413048,206079,79910635,11343271,80563707,11334356,138939,1761980,365392593,10367,35657746,1388,2301,292549900,138,2.78,1.04,1.01,0.05,0.0,98209796,96924000,999000,112383285,14
251605304,747488,221907693,7452591,221073643,7453796,211445,3362478,613614383,18083,253258231,11334,5515,1362981510,1191,4.91,1.94,1.88,0.09,0.0,165909717,163554000,1994000,180200407,14
146036051,15986331,258178548,18651761,261290447,18021130,2637020,10731981,799585288,59432,149899258,45890,14612,1069997762,8302,6.39,2.34,2.25,0.13,0.0,216495172,199250000,17021000,230708147,14
89747095,2561265,207407337,14380912,212984899,14104399,850870,8283381,750842863,29833,90175008,47857,16674,839448418,3347,5.68,2.24,2.16,0.1,0.0,188903975,181521000,6981000,203152448,14
89345406,2742746,101774412,2669190,98115962,2795624,1205977,5112958,268029123,25509,87717913,34787,8787,501289412,7146,2.21,0.84,0.81,0.05,0.0,72495936,56169000,16048000,86721953,14
111019099,5020132,179353748,18707307,169501284,18536090,2572532,10724065,709051691,57804,112562960,51498,28412,732621024,8297,5.68,2.09,2.02,0.12,0.0,192161996,182908000,8995000,206661612,14
109869288,730759,79172426,1749455,78471994,1890924,223674,1669480,193716010,6342,117536814,6100,5633,363811488,1041,1.59,0.62,0.6,0.03,0.0,52341597,49045000,3002000,66713331,15
90711291,594866,92629871,1905032,93347078,1793312,175131,1485080,182682583,7110,94742823,7197,3937,422846217,522,1.52,0.6,0.58,0.03,0.0,49787674,46450000,2964000,64170285,15
93878163,552924,98564974,1695456,98503402,1722880,209149,1507998,190398105,6313,96948709,7778,4052,436958160,524,1.54,0.56,0.53,0.03,0.0,54157418,50883000,2993000,68435543,15
425005537,669378,263875224,2257444,265113173,2125405,297555,2759936,492093024,14351,430446050,16776,4916,1241184057,520,4.28,1.72,1.67,0.07,0.0,133203578,127851000,4994000,147704118,15
110237424,1005335,75092158,1912691,76925928,1739269,278096,1995477,184758343,7882,114608356,2133,2345,363275805,919,1.55,0.6,0.58,0.03,0.0,49933288,44690000,4965000,64293381,15
448142140,5628881,287542991,1373228,292325176,1364849,2054821,14092439,725566276,259702,458676790,28276,15348,1328519464,2474,6.16,2.32,2.25,0.12,0.0,195796298,191359000,3986000,210288181,15
418882759,619785,263782923,1987854,264742191,1927584,235469,2751440,493618557,15279,423065392,15369,4930,1225141728,522,4.23,1.69,1.65,0.07,0.0,133380252,131035000,2000000,147717870,15
109660866,554076,76532950,1654036,76461973,1632107,224696,1513677,189168381,7035,114997017,3253,2364,362741251,524,1.55,0.6,0.59,0.03,0.0,50910605,48613000,2025000,65052000,15
113285154,721696,78550912,1681671,78086578,1793500,226643,1629283,193573691,6401,120461944,6038,5919,383109169,1040,1.58,0.63,0.6,0.03,0.0,52537050,49162000,3009000,66761037,15
112194275,746727,76226724,1843656,71676500,1964256,199057,1661874,186894622,7384,120949365,7108,5601,367238251,1041,1.53,0.6,0.58,0.03,0.0,50800072,47478000,3030000,64786363,15
111685746,926172,77489480,1696645,76897922,1649449,302505,1868397,190707147,7808,113358681,2279,2390,363177571,916,1.58,0.61,0.6,0.03,0.0,51174763,48827000,2034000,65679294,15
447252287,5591693,281963197,1383567,282316462,1381774,2002231,13213920,717414219,269374,439973100,31855,13991,1303858249,2472,6.04,2.28,2.21,0.12,0.0,193086489,186747000,5991000,207501173,15
421878415,1260083,262002716,2180014,262408290,2182795,384918,3274917,508446524,15883,431738883,15713,11736,1231732279,1939,4.36,1.75,1.71,0.07,0.0,138031543,131674000,5985000,152075997,15
110797097,743768,74671437,1731319,71380779,1844931,186480,1652316,187846616,7677,118754421,7318,5568,360601937,1041,1.61,0.6,0.58,0.03,0.0,50633982,46210000,4018000,64828007,15
424760876,1221902,270281682,1916954,273239513,1799764,255334,2800572,505632107,14775,427871564,17454,7781,1272837400,910,4.45,1.74,1.69,0.07,0.0,136637698,130410000,5972000,150963009,15
108144694,731283,79129688,1692304,78687783,1659189,244569,1715836,199703984,6348,117326466,6395,5370,360019400,1043,1.63,0.63,0.61,0.03,0.0,53990175,49628000,3970000,68313753,15
110811513,588467,72556257,1851260,72484666,1745644,208284,1491287,186055429,6851,116503980,3240,2384,359707602,523,1.53,0.6,0.58,0.03,0.0,50633215,48299000,2012000,64774096,15
112447445,974936,75016474,1846430,74258538,1741037,272355,2041097,185431494,14136,115187915,2937,2304,366643917,915,1.54,0.58,0.57,0.03,0.0,50249829,44984000,4998000,64704714,15
127137036,971822,81415503,1600438,82657511,1510131,316942,1909817,194905036,7132,131504688,2459,2919,402596132,916,1.6,0.62,0.61,0.03,0.0,52376153,48208000,3935000,66841545,15
109139433,575210,77168632,1917061,77221433,1842179,205482,1481300,189942087,7385,115545707,3365,2355,362388879,526,1.56,0.6,0.58,0.03,0.0,51126404,47871000,2991000,65499930,15
160119577,2023177,120741650,4394038,116072101,4756896,379332,3771396,309814847,11468,162634350,9565,8814,553520087,1699,2.55,0.98,0.95,0.05,0.0,84410209,82159000,2003000,98776609,15
125973871,1238129,82286620,1648609,82098965,1618461,333111,2203547,203474666,8110,137413718,7654,9682,403825991,1945,1.69,0.66,0.64,0.03,0.0,54496459,49212000,5021000,68779974,15
111956183,991920,70323627,1786371,71521394,1668654,274095,1995374,186598289,7902,117806112,2849,2362,366212867,914,1.54,0.59,0.58,0.03,0.0,50123213,45858000,3987000,64658882,15
451750786,984579,263258292,2228092,266262344,2025766,371198,3441854,528972664,17220,460319210,14757,5201,1309218189,909,4.6,1.86,1.81,0.07,0.0,142927070,138543000,3986000,157419866,15
427176861,654755,268700200,1885147,271623574,1794727,248575,2611054,503560449,14154,430335829,14671,5930,1263828477,519,4.36,1.76,1.7,0.07,0.0,136132698,133879000,1998000,150532305,15
936445783,6317694,679838893,2050208,683962875,2101374,3319507,15827326,1144686176,128751,950373003,28734,18588,3102573855,4356,9.97,3.99,3.88,0.2,0.0,308432199,301113000,7002000,322842089,15
111721016,744907,75622216,1654085,72475233,1803412,198528,1652304,191899601,7342,119470870,6603,5523,362414616,1042,1.56,0.61,0.59,0.03,0.0,51817669,50528000,1010000,66259942,15
128360959,946193,86809821,1687802,87213530,1486057,296834,2045493,198648485,12445,131159938,3195,2264,403602581,914,1.67,0.65,0.62,0.03,0.0,53417712,49113000,4009000,67632217,15
121601388,948922,85874215,1782425,86287619,1552913,331627,2388217,205548861,14047,125351077,2826,1840,396376146,916,1.7,0.65,0.64,0.03,0.0,55263910,51877000,2992000,69548013,15
426408481,965676,263674260,2333946,259948433,2422921,310946,2994353,500197407,15576,424411564,11985,5858,1236823274,912,4.36,1.74,1.69,0.07,0.0,135516397,132162000,3003000,149763879,15
119124604,728711,87600716,1724963,87559124,1656333,231014,1906621,209636238,7061,129802401,6731,5221,423184502,1042,1.74,0.68,0.66,0.03,0.0,57066645,46848000,9967000,71405049,15
153587923,1674559,118182062,4354410,113555013,4471532,503403,3924865,314884424,11246,158457273,8372,8913,528831434,1697,2.57,0.99,0.96,0.05,0.0,85733446,82391000,3014000,100163558,15
110611820,554797,79742205,1728854,80272572,1585018,221439,1478267,196527133,6414,115212827,2575,2436,362888158,527,1.64,0.61,0.6,0.03,0.0,53140970,50837000,1993000,67229999,15
103210890,674148,101473521,1620396,102254005,1627649,243857,2026867,202112957,8492,106897457,7605,4793,485507641,1038,1.63,0.59,0.58,0.03,0.0,57359754,54104000,3005000,71762206,15
109835558,1004049,74640195,1904127,76554795,1740551,292195,2009422,185419430,8283,115374779,2370,2630,365014961,917,1.54,0.59,0.57,0.03,0.0,49813834,46582000,2973000,64183134,15
147517959,4772295,108576683,1446904,109339456,1524316,3569800,12585016,289340977,103210,136227995,21708,13482,507928979,2868,2.42,0.94,0.91,0.07,0.0,78200715,69870000,7985000,92517643,15
430073455,798972,266064791,2076865,269439865,1916598,251743,2711372,508457773,14690,437510934,18347,9144,1258983512,1034,4.45,1.75,1.7,0.07,0.0,137685120,131256000,5966000,151904171,15
116020839,617715,88620165,1788963,90245280,1578841,219350,1639900,203658541,5995,122924313,5176,3204,387407145,526,1.68,0.64,0.62,0.03,0.0,54785222,53523000,1009000,69020376,15
421288459,799517,263977764,2287334,262441164,2276424,206007,2648672,496915663,15893,428483994,19806,8616,1235668869,1035,4.3,1.71,1.66,0.07,0.0,134734344,131405000,3009000,148900083,15
436855820,1286830,271024230,2281405,271641585,2293832,378191,3562276,523844401,15773,455216854,18927,11544,1281031656,1939,4.57,1.82,1.76,0.08,0.0,141540843,137144000,4004000,155749701,15
119369334,552058,82215032,1685669,83509186,1529282,241069,1577089,201750783,6057,126018954,2931,2252,394152826,524,1.63,0.64,0.63,0.03,0.0,54429506,51164000,3009000,68793593,15
112730724,609730,76147231,1687099,73134767,1856424,199418,1538719,184600199,7036,116739202,3768,2744,357646513,526,1.48,0.55,0.54,0.03,0.0,51058639,49769000,995000,65217104,15
107008333,579097,77104480,1728483,78662119,1595760,212650,1471694,194501371,5545,112958455,3057,2422,356149025,524,1.59,0.62,0.6,0.03,0.0,52713052,51412000,1008000,67050829,15
110276328,585716,78154045,1938492,77023784,1826611,209404,1466876,186265833,7018,115656214,3245,2703,362844059,526,1.55,0.59,0.57,0.03,0.0,50523267,49218000,1004000,64680851,15
109045303,621035,75652731,1897101,74692155,1801850,191984,1448302,185178077,6686,114455051,4247,3477,357761138,524,1.56,0.59,0.57,0.03,0.0,50000171,46742000,2983000,64394293,15
118391193,726259,83374354,1695604,83077351,1611521,222368,1922671,205921242,6756,127560866,6675,4923,393288767,1043,1.7,0.66,0.65,0.03,0.0,55702639,52436000,3025000,69942620,15
109993896,1228750,78580677,1691149,78389454,1675807,309902,2085646,198000189,7367,120583810,8808,9785,366375636,1948,1.65,0.64,0.61,0.03,0.0,53431046,46011000,7001000,67863635,15
118841165,1067970,85321271,1720671,84373502,1578669,329163,1881341,203310890,12767,123816633,2912,1987,420529467,913,1.67,0.65,0.63,0.03,0.0,54949655,50581000,3967000,69222842,15
115864670,938248,76272799,1953184,72336676,1885542,287265,2238099,180783591,15863,116112679,4347,2882,375756508,917,1.49,0.58,0.56,0.03,0.0,49040975,46683000,2029000,63280616,15
99912011,691980,100241070,1708998,100006196,1596228,205348,1875230,206001687,7273,105887212,9725,5805,466187713,1039,1.73,0.67,0.65,0.03,0.0,55720268,51546000,3965000,70180572,15
115543405,830409,83579705,1701329,83965151,1527035,233585,1744049,197020763,6261,119881284,5047,4041,401979330,720,1.63,0.64,0.62,0.03,0.0,53372185,51061000,2002000,67704785,15
121858616,943614,82653726,1693775,83939190,1483366,328360,2004708,200738808,7228,126192810,1798,2123,400512277,917,1.62,0.6,0.59,0.03,0.0,54691444,51379000,3022000,69140380,15
430503808,789585,266996473,2035360,271651628,1925648,191798,2593606,501324730,15702,433019876,19633,9235,1269265735,1033,4.38,1.74,1.69,0.07,0.0,135749526,135486000,0,149953067,15
427709229,812796,267430144,2009628,271721004,1917611,212169,2700120,504413614,15593,432962286,17100,9012,1269373393,1033,4.34,1.73,1.69,0.07,0.0,136359014,136030000,0,150775946,15
115638042,608926,83138931,1630547,85257505,1377895,223927,1515366,199809042,6138,119568470,2673,2508,394122145,526,1.68,0.64,0.62,0.03,0.0,53516719,50259000,3015000,67820405,15
117559834,570704,83402329,1644868,84064870,1626816,234556,1800173,199900740,6660,125974327,3120,1961,396364658,525,1.61,0.58,0.56,0.03,0.0,56926920,54664000,1987000,71214865,15
425284041,963522,263426138,2198069,261134850,2184627,321462,3001980,503592695,15719,424314172,12228,5383,1234398172,911,4.35,1.73,1.69,0.07,0.0,136254700,133804000,2012000,150607764,15
134335315,515124,96787945,1693612,95589557,1707340,230581,1644259,206278309,7179,131958921,2741,1940,437761520,525,1.74,0.67,0.65,0.03,0.0,56319063,54128000,1968000,70650871,15
109486177,539690,77471110,1750232,77640883,1608330,223978,1576676,195021102,6971,114950612,3710,2421,360831247,525,1.61,0.62,0.59,0.03,0.0,52409599,49137000,3008000,66646550,15
422998032,615662,264195202,2000315,264232737,1956359,219852,2572935,491300006,15317,421526286,14230,4956,1227140362,519,4.29,1.69,1.64,0.07,0.0,133837417,133602000,0,148022885,15
425243928,1273381,271717107,2283100,271613197,2287425,402397,3488850,522300485,15454,447663186,14462,11698,1265748399,1939,4.58,1.82,1.76,0.08,0.0,141443268,136190000,5007000,155835728,15
115254217,737792,83296622,1686943,82875295,1605881,345651,1867555,203717766,7068,124736495,6635,5451,385905343,1042,1.69,0.63,0.62,0.03,0.0,54272065,52871000,997000,68638339,15
420154771,578338,263167839,1978445,264401736,1968190,212116,2701038,493946874,14592,424348779,13837,5082,1227370196,519,4.31,1.71,1.66,0.07,0.0,132987438,129732000,2993000,147315957,15
148051368,4651761,106279550,1497420,103329182,1504850,3350410,12197321,295669824,104994,142049729,9812,8834,514181106,2871,2.5,0.93,0.9,0.07,0.0,80167901,69888000,9984000,94599713,15
122591212,957482,82556825,1667328,83734146,1519871,298474,2113163,198210500,13376,126385036,2170,2342,395789684,916,1.71,0.66,0.63,0.03,0.0,53141784,49875000,2992000,67625213,15
431165060,640414,271950745,1970307,273343567,1874160,218711,2596077,499404125,14824,432822038,13724,4943,1292620198,518,4.32,1.72,1.68,0.07,0.0,135672377,133304000,2004000,149856965,15
417757874,633326,263881737,1985064,264565370,1921245,215559,2683889,493802489,14457,422907060,17033,5308,1224530267,520,4.3,1.71,1.66,0.07,0.0,133709937,130509000,2988000,148017824,15
108856605,724760,78373664,1702163,78235191,1646467,222946,1648341,199637962,6290,117848785,5164,5600,363230833,1042,1.67,0.64,0.62,0.03,0.0,53577535,49247000,3939000,67808945,15
110979625,674524,79321387,1684472,79118196,1708554,252937,1670542,198664740,8069,118997924,6140,6055,366534134,1041,1.66,0.64,0.62,0.03,0.0,53740724,51450000,2017000,67898284,15
417235786,810133,262386399,2148147,263633240,1994356,192637,2725287,505183127,14481,424859192,21624,8325,1225402391,1035,4.31,1.75,1.71,0.07,0.0,136982747,134781000,1996000,151295350,15
428295936,1205934,269879489,1880378,271768771,1870023,277817,2826189,504923404,21420,432122930,20081,5809,1289392299,908,4.46,1.78,1.72,0.07,0.0,135987772,129717000,5986000,150405417,15
307269557,18963395,231139749,12519142,231403609,12426373,9083136,45257835,1002797194,555867,324853531,58123,37868,1114813355,11166,8.24,3.16,3.06,0.2,0.0,270934954,250657000,20052000,284945903,15
420623623,653149,261353217,1996342,263879804,1974987,232601,2561371,497612069,15243,424577015,15296,4936,1229249636,520,4.28,1.72,1.68,0.07,0.0,134865848,131608000,2991000,149178876,15
120675907,1038434,86812949,1762721,84255451,1705431,303430,2795514,201545865,12659,123272262,3215,1892,423056142,914,1.69,0.65,0.63,0.03,0.0,55646662,53365000,2013000,69859389,15
446388727,5683651,300855674,3072023,300422015,3063880,2949524,13811449,813089196,428408,450609355,37171,22205,1374241293,3256,6.94,2.61,2.53,0.14,0.0,218656967,216328000,2003000,232891179,15
108686294,1189355,75708953,1804694,77926524,1801176,250015,1802215,193472200,8859,113594698,8327,8936,357243450,1697,1.6,0.62,0.6,0.03,0.0,52128185,48845000,3052000,66248769,15
110345744,549896,78131997,1707610,77509631,1609209,236360,1554550,197036397,6395,115340703,3259,4004,360879543,526,1.63,0.62,0.6,0.03,0.0,53667120,50408000,2965000,67937219,15
112124384,579418,81683801,1695563,83206724,1470388,216155,1526163,197057854,8293,118424413,3320,2383,395829713,524,1.62,0.62,0.61,0.03,0.0,53150954,49872000,2992000,67414533,15
119015032,729161,88831407,1784390,88332323,1665838,244340,1998321,209560008,7663,128363135,6856,4928,402722989,1041,1.74,0.66,0.65,0.03,0.0,56189256,54915000,998000,70705308,15
433066754,669827,268840401,1929847,270336965,1884723,211885,2543218,503143883,13706,436310966,16025,4903,1265985259,519,4.4,1.77,1.72,0.07,0.0,135888168,132637000,2991000,150266514,15
305590072,367204,204579645,1136943,203846766,1138523,315277,2394235,529012570,16431,306101601,5158,6563,1541549367,1107,4.27,1.55,1.5,0.07,0.0,143034147,140298000,1990000,157435603,16
306818967,310204,205571417,1116003,205308140,1117051,283895,2472748,539509827,16769,305119248,1932,4212,1545275964,1112,4.11,1.54,1.49,0.08,0.0,145815978,142549000,2990000,160039818,16
212262816,378629,312598683,1109218,304208566,1081019,638428,2728394,369041259,32509,206604267,11908,5295,1601446418,2083,2.95,1.18,1.14,0.05,0.0,99451982,98146000,1001000,113916826,16
311952838,397348,208199018,1142938,205936793,1125610,519180,2986805,591106715,37641,306753203,7875,7317,1254892318,2086,4.53,1.7,1.64,0.08,0.0,159168940,151831000,6992000,173726422,16
319627874,357204,210300135,1100216,204637816,1078416,503676,2363893,371213473,16646,309163397,8577,4174,1503643377,2088,2.96,1.14,1.1,0.06,0.0,101361934,96072000,5003000,115794676,16
920599472,945411,609872820,1446452,606744707,1446705,584897,4908170,1122117571,54316,911225841,46615,23055,3278687646,6426,9.78,3.95,3.85,0.16,0.0,303381951,292949000,9998000,317735149,16
462546834,51016910,412713903,190057,415708382,189397,41286890,113287712,860270800,436997,461317183,30597,25859,1927339250,5996,8.02,3.03,2.82,0.48,0.0,231788030,218430000,12966000,246053584,16
1621412366,779218,612303848,1451359,611073999,1442417,649303,5513837,1280118493,42311,1598874263,20190,18717,4569498405,2955,10.58,4.31,4.19,0.18,0.0,345815802,339818000,5996000,360047280,16
305218453,333427,204077991,1135661,203511248,1135826,215005,2358788,528723898,16900,306001210,5603,6955,1540961914,1110,4.3,1.57,1.52,0.07,0.0,142728148,140533000,2007000,157086651,16
310271353,433696,207664465,1130609,205556987,1118963,475374,2792936,546285074,18078,305886066,5986,5817,1460120129,2083,4.22,1.6,1.54,0.08,0.0,147516176,143380000,4010000,161813996,16
304734173,325256,204165002,1133605,203672121,1136022,223172,2358277,529645041,16875,305937032,5181,7156,1541899711,1110,4.29,1.56,1.51,0.07,0.0,143505385,141328000,2004000,157692067,16
412484012,444851,207081250,1156822,205703194,1146915,541335,3279586,678468232,21592,406791117,5773,7137,1352775983,2083,5.19,1.92,1.87,0.1,0.0,182941952,179840000,2997000,197294414,16
318454703,322128,211935047,1122715,205804872,1095100,507327,2379640,375134220,17779,303382277,13003,7586,1480227032,2117,2.99,1.18,1.14,0.06,0.0,101140780,97795000,3024000,115471265,16
311136445,391034,207503156,1130929,205301339,1121856,537312,2929430,589443443,20779,306017018,5214,6304,1253954153,2085,4.51,1.68,1.63,0.09,0.0,158853083,153621000,4987000,173177577,16
310208408,397086,206797833,1133110,205784340,1117298,495329,2754125,538404951,21034,305760851,7822,8255,1452651832,2089,4.15,1.54,1.48,0.08,0.0,147575120,143423000,4011000,161969135,16
310669287,426966,407997130,1132736,401544078,1120176,459825,2792372,559654965,19566,306262497,5322,6394,1763826908,2085,4.47,1.77,1.71,0.08,0.0,151125236,147965000,2999000,165562912,16
307529561,322896,205299813,1126639,204309282,1124878,298609,2553602,562857245,17280,305808182,3061,5011,1342636824,1109,4.3,1.66,1.61,0.08,0.0,151805648,150633000,1004000,166208221,16
209701109,370132,311830836,1526861,303900490,1491986,504343,2647875,485529297,21063,205341122,9618,6427,1474877397,2084,3.9,1.56,1.52,0.07,0.0,130303997,125134000,5005000,144405754,16
209685925,13449757,209546836,95191,203948678,99130,6923763,27606072,330515865,183360,204800321,8812,7579,1139855117,2087,2.86,1.11,1.05,0.13,0.0,89414085,85189000,4008000,103781811,16
315428611,366422,414321553,1147547,402284024,1126126,734547,2982876,431238164,17164,304381781,7975,6101,1799738211,2082,3.43,1.35,1.32,0.06,0.0,115996576,111804000,3993000,130378348,16
308317353,319606,305402610,1119367,302441819,1118556,294197,2511334,528589454,16665,305958192,1775,4143,1761488461,1111,4.11,1.59,1.55,0.07,0.0,143012764,140853000,1997000,157207661,16
311023720,447298,312732167,1148142,308040182,1129006,514100,3256372,541156649,38586,304121171,8797,8647,1555719436,2085,4.4,1.77,1.72,0.08,0.0,146419940,142251000,4007000,160916748,16
310835321,430486,310460830,1144560,305937804,1127595,643584,3297963,566707044,35587,307158551,7227,8779,1461570243,2080,4.45,1.7,1.65,0.08,0.0,152681431,145533000,6977000,167104943,16
310161493,315889,207250016,1120320,205261387,1115698,314386,2723161,528524759,25284,305154781,2711,3974,1563787757,1109,4.02,1.52,1.47,0.07,0.0,143135216,138966000,3999000,157566457,16
308216405,351289,204158867,1126516,202824695,1124197,273940,2536006,550808761,18935,307485010,2670,5006,1349448607,1105,4.25,1.62,1.56,0.08,0.0,149515914,147359000,2004000,163819084,16
1116055202,960611,612336492,1413336,614490874,1413764,661772,4706370,1018042823,42540,1097397684,33230,25147,3556519883,4619,8.32,3.39,3.3,0.15,0.0,274211828,270094000,4001000,288272750,16
578123227,28362384,303634960,476028,299440105,486705,26788101,54350732,1260315136,313040,563287705,428869,305221,2258859872,98811,10.82,4.02,3.81,0.39,0.0,340855513,265562000,75159000,355376435,16
304267604,412096,205336250,1147000,205865622,1151815,331215,2527591,538241203,19759,306305347,8856,10696,1533377417,2087,4.37,1.58,1.53,0.08,0.0,146595430,144380000,2005000,161119338,16
309750206,434652,207932848,1143672,207116939,1130836,454826,2980340,589356908,22491,305310570,9565,7317,1249279965,2088,4.51,1.66,1.61,0.09,0.0,161758878,157564000,3988000,176202879,16
408368464,21360572,353778050,601023,353585237,613324,25958677,41872581,1529924537,727578,411048540,509024,306625,2280947153,98767,12.77,4.98,4.77,0.43,0.0,411466088,244198000,167135000,425843298,16
209593285,13109008,207502363,107079,204241676,108740,7327667,27290039,352563261,168450,204011760,9752,5269,1251658870,2089,3.02,1.16,1.1,0.14,0.0,95629873,90341000,5018000,110039675,16
310623038,463503,308290001,1138846,304027238,1130476,529549,2784718,559686266,18748,306594294,10445,5756,1459572024,2093,4.39,1.67,1.61,0.08,0.0,150933575,148676000,1995000,165532765,16
219845924,368122,512515037,1306807,498040194,1292344,564718,2806984,478168818,20363,215558830,4798,4024,1705304958,1829,3.85,1.49,1.44,0.07,0.0,129333328,125104000,4003000,143675787,16
412624255,397266,207475008,1154974,206140823,1141193,518042,3112087,664431252,22313,405328116,12946,9000,1448271238,2087,5.06,1.88,1.82,0.1,0.0,179595458,177356000,2004000,193926616,16
309864818,410957,208194130,1143211,206540386,1132379,606762,3114085,588897249,21866,304679705,8916,6919,1247285081,2095,4.47,1.63,1.58,0.09,0.0,160505021,158164000,2002000,174964938,16
307623102,6550761,605338793,193595,598516560,220294,596855,14675385,390695694,15400,298428100,2029,3115,1948472208,1108,3.16,1.27,1.24,0.06,0.0,105842485,103623000,1992000,120287393,16
306827261,327865,305393174,1138765,302822616,1138109,278352,2772211,645734626,21095,305014912,3177,5241,2054359209,1108,4.92,1.86,1.8,0.09,0.0,174534667,173321000,1001000,188923584,16
305403613,394441,204695521,1134022,205425655,1128402,264167,2636314,598432555,18010,306313034,2661,5606,1337578529,1110,4.58,1.72,1.66,0.09,0.0,162262873,161023000,1000000,176709573,16
307384941,348470,204945113,1143125,204844915,1147019,315080,2485579,536138396,20931,307598954,10761,10256,1441763651,2081,4.3,1.59,1.53,0.07,0.0,145566885,141364000,4010000,159854443,16
316788768,378631,308043946,1317230,304793090,1314340,465342,3021265,578445774,19384,314562850,3645,3810,1579255575,1537,4.71,1.92,1.87,0.08,0.0,156396148,155155000,1001000,170608970,16
307703734,350940,205084178,1140839,203399472,1131624,284979,2606997,562008196,26029,307362634,3310,4502,1347039335,1104,4.28,1.63,1.59,0.08,0.0,151243714,149011000,2000000,165377925,16
311369988,390183,207491906,1138800,205419712,1120276,521495,2892287,565452314,19654,305173384,5904,7034,1246129190,2084,4.54,1.8,1.74,0.08,0.0,152853130,150605000,2008000,167065910,16
445670736,15821267,300158461,411671,297646765,411204,13854629,28394960,1133853165,231117,442756386,301586,299858,2299695309,98766,9.59,3.58,3.43,0.27,0.0,305088322,171473000,133368000,319333447,16
307353469,357511,203641608,1121947,203347408,1122601,252816,2438238,549243629,17954,307222597,1842,4285,1345025453,1111,4.26,1.63,1.57,0.08,0.0,148410683,146112000,2001000,162730547,16
344030676,14992608,398810464,507517,397234457,515795,13018332,27946421,1145432935,225832,340566628,284897,306615,1904151218,98761,9.67,3.62,3.49,0.27,0.0,309978811,169892000,139911000,324290708,16
306915870,353201,305221431,1140941,303189388,1139217,268825,2833884,664484133,18783,305589194,3085,4929,1544036120,1109,5.3,2.11,2.05,0.09,0.0,179086352,177859000,1004000,193579970,16
311396039,408660,207361181,1140912,203778189,1125167,509920,2984436,586726492,22826,305375978,8462,5869,1256607137,2088,4.48,1.68,1.62,0.09,0.0,158446205,154094000,4002000,172880012,16
310675040,535213,209698295,1156507,207595963,1140210,522989,3448962,591288122,38989,304407951,22148,9068,1250532190,2082,4.56,1.73,1.68,0.09,0.0,160385121,155041000,5001000,174786271,16
309692664,292976,206741735,1128995,204313966,1129086,329890,2605980,527370137,25970,305915536,3095,3475,1561059874,1103,4.07,1.53,1.48,0.08,0.0,142266961,140963000,1006000,156634729,16
1220137271,738799,713910031,1457424,708883573,1453324,735528,6134097,1417381294,48828,1203259263,18048,16841,4162877843,2807,11.65,4.79,4.65,0.2,0.0,382809808,376638000,6010000,397029928,16
204127009,292760,204442445,1089649,204588927,1091270,268957,1604357,306187197,12775,209032860,16796,9364,1041688171,2086,2.51,0.93,0.9,0.04,0.0,81908109,80418000,1005000,96358992,16
317098372,367095,208184348,1097215,203597686,1076060,505246,2266540,369347775,14842,309348392,5419,3908,1388764803,2086,2.98,1.19,1.15,0.05,0.0,99605144,95318000,4013000,113892852,16
307810099,316358,304063730,5145893,301508702,5158797,287065,2315692,462287225,13595,307798078,1878,3008,1166023442,1105,3.69,1.43,1.38,0.07,0.0,125055350,121704000,2992000,139297454,16
1023172161,470334,606178890,1387473,601570955,1382753,597713,4455018,1000159707,30259,1014281793,4986,7087,3177343263,1543,8.39,3.54,3.45,0.14,0.0,268237301,263932000,3998000,282530865,16
1113998217,506950,506603874,1208491,504969563,1208768,346543,4371307,1079136058,29496,1114698657,4043,8049,3869374399,1306,8.81,3.58,3.48,0.15,0.0,291546111,289354000,2002000,305691101,16
306965542,321310,205662129,1121732,204927963,1122059,298185,2578617,540541052,16332,305457628,2283,4107,1546237807,1109,4.17,1.55,1.49,0.08,0.0,146121733,142890000,2997000,160258557,16
408708640,338399,202704854,1130442,201939301,1130907,320761,2735503,569482466,19579,409464906,1867,3813,1341416143,1112,4.61,1.81,1.75,0.08,0.0,156296949,155056000,1000000,170748453,16
305067956,393423,204339484,1158208,205027455,1162817,234290,2735283,558623398,18117,306900423,7051,7395,1336866819,1111,4.59,1.65,1.6,0.08,0.0,149054850,144867000,3996000,163317032,16
317811444,482435,513534566,2477106,504962513,2434851,752249,3455707,616007025,26801,313543627,17214,8229,1776499860,2519,4.84,1.86,1.8,0.09,0.0,166882118,159644000,6984000,181352186,16
309975443,296526,405584372,1440516,399736020,1441068,319970,2249693,424319488,14150,306389475,1218,2833,1569403117,1107,3.42,1.35,1.31,0.06,0.0,114961997,110590000,3985000,129049306,16
1219112369,779711,711365677,1468906,706813558,1456454,734628,5904992,1346621718,46360,1207147588,13265,16794,3867242082,2805,11.09,4.55,4.42,0.19,0.0,363885811,357666000,5994000,378249399,16
310307054,427974,207695616,1130808,205463529,1117189,507890,2923095,592299537,20468,305789206,8208,5521,1456019812,2087,4.73,1.88,1.82,0.09,0.0,160135326,152949000,6952000,174504987,16
310436115,437080,208062814,1143365,206134175,1128675,482270,3015076,596739118,21480,304566436,14146,6855,1349026314,2084,4.85,1.92,1.85,0.09,0.0,161154281,157923000,2998000,175505285,16
1017211648,446942,603097332,1196274,600242474,1199864,372792,4171224,993050928,29996,1014047444,3974,6620,3569741313,1264,8.17,3.38,3.29,0.14,0.0,268190335,263970000,3999000,282625699,16
2239604050,3320474,1325958375,2478602,1325643681,2476348,3153106,12579046,2437389058,96149,2239917387,72780,70439,8962262102,16732,19.79,8.03,7.79,0.37,0.0,658976871,627781000,30989000,673423870,16
307675630,312267,203577781,1123481,202718114,1122891,255228,2483091,551370542,17440,305014137,3088,4344,1340139465,1106,4.24,1.63,1.58,0.08,0.0,148973620,147682000,1004000,163052273,16
1219577047,588028,909968354,1451893,904083718,1443695,559936,5715933,1399585276,41575,1209155167,22650,9910,4473086432,1829,11.45,4.66,4.53,0.2,0.0,377802684,374622000,2996000,392057942,16
307346529,332995,304920523,1126484,302949518,1131723,331129,2630436,567063339,16811,306462751,2099,3740,1547098363,1112,4.61,1.88,1.83,0.08,0.0,152562660,148244000,3979000,166896403,16
311952316,363464,207975012,1144673,206083035,1124710,517744,2993235,588246729,21863,304405898,6716,7291,1247667377,2089,4.49,1.7,1.64,0.08,0.0,158756657,155506000,2990000,172906605,16
210001888,364070,312186711,1118301,304852488,1090390,520571,2485973,404684576,33862,206670825,7958,7013,1571331721,2085,3.17,1.24,1.2,0.06,0.0,108940222,104658000,4025000,123250111,16
312600794,398526,309594332,1137028,305203913,1118306,520551,2912571,569415915,19132,305389182,9834,7093,1459891388,2085,4.6,1.84,1.79,0.08,0.0,154649263,150382000,4010000,168952768,16
410536531,405418,205811338,1134602,204872912,1135370,303855,2934622,636948648,18304,408672574,2064,4373,1550635535,1106,4.84,1.8,1.74,0.09,0.0,172423094,169157000,2985000,186777093,16
1223596442,566687,708236030,1420011,703098386,1420370,681814,5189734,1199105913,36640,1211211057,6943,9046,4696165697,1831,9.78,3.97,3.85,0.17,0.0,324362794,320085000,4001000,338732561,16
1119048832,701980,715020487,1411291,712104102,1401422,689122,4956438,1062242931,36927,1103310220,10882,13936,3664110192,2813,8.78,3.63,3.53,0.15,0.0,288076199,281846000,5996000,302462970,16
1118998031,596557,611139413,1423583,607399930,1419334,578304,4925970,1111982869,34757,1105314031,11696,11621,3564438912,2168,9.04,3.68,3.57,0.16,0.0,300726440,297464000,3004000,315120334,16
312313783,378896,208146803,1145301,205397808,1124186,539851,3009343,586761386,22657,303730462,9883,7610,1245334270,2087,4.48,1.68,1.63,0.09,0.0,158950837,155702000,3013000,173226729,16
308815315,352085,405732510,1404702,402692095,1403905,301422,2805234,570768303,24205,307488594,1524,3882,1663221485,1108,4.7,1.92,1.86,0.08,0.0,154398375,152142000,2001000,168561936,16
219116516,678777,410936967,1965502,405692987,1956820,538294,3359532,719938291,37454,217699961,34874,12104,1486331430,4616,5.97,2.23,2.17,0.1,0.0,194369436,186962000,6998000,208658295,16
312921878,337637,210421585,1139721,207045740,1118555,494129,2703239,530010328,37623,304909291,25682,7968,1463369662,2089,4.07,1.55,1.5,0.08,0.0,143703823,139465000,3984000,158030297,16
310519444,601179,211741715,1169509,212299360,1153543,656834,3066421,604462046,27238,304064920,12131,16667,1255818457,4040,4.6,1.72,1.66,0.09,0.0,162737858,155494000,6977000,177146365,16
206255471,585328,208865004,1255105,209132529,1248703,740478,5453530,1262384552,53855,208185294,9395,10771,2054930688,2083,9.39,3.47,3.36,0.18,0.0,339314197,331906000,6998000,353839531,17
307414588,618282,207027040,1291480,206785965,1286044,551858,6160833,1525920837,49178,306543532,15551,12198,2041080899,2094,11.14,3.99,3.84,0.21,0.0,412101016,409793000,2003000,426618520,17
306904838,384214,205256652,1138624,204752061,1138734,265338,2869376,651801249,21195,306869669,2612,4662,2156584315,1111,5.19,2.07,2.01,0.09,0.0,175879537,173547000,2006000,190280662,17
1042851013,3258245,632362600,1371213,632077377,1367521,3557503,10781820,1736285311,84526,1040045821,131854,30084,4271213218,17713,14.0,5.62,5.45,0.29,0.0,469715410,435662000,34051000,484034037,17
306861030,487396,205677906,1158631,205762425,1156194,318861,2821321,627748116,26233,309134506,33585,10135,2055192692,4035,5.3,2.07,2.0,0.09,0.0,169304610,165090000,4002000,183635747,17
611020232,930232,411702163,2262806,411881957,2255631,875577,5661441,1234033784,49851,607384018,26125,13002,4063846713,4039,9.58,3.69,3.57,0.18,0.0,335432819,327434000,8010000,349819986,17
223386160,1046046,411967390,1384510,412038577,1395694,739735,5754229,1340500173,50408,223479057,35403,15251,3581600072,4760,10.0,3.66,3.53,0.19,0.0,360936712,352957000,7999000,375167320,17
305756779,551361,206886667,1288848,206763910,1288955,351233,5579268,1414312698,40066,305625151,4252,9879,1840568997,1112,10.04,3.49,3.36,0.2,0.0,381176163,379114000,2000000,395569272,17
305991221,532128,206151586,1281303,206009066,1284330,411702,5585771,1465836301,42625,305682213,6867,10838,1838274037,1111,10.42,3.61,3.46,0.2,0.0,395825650,394752000,1001000,410049048,17
245967392,3039753,334203994,1578688,333858845,1573384,3749999,10115620,1423598868,75294,249586948,81644,252261,2400433527,17706,10.55,3.8,3.66,0.23,0.0,383368820,354397000,28950000,397667672,17
1220227631,766179,611466520,1473293,606555389,1467251,833215,6353960,1417884055,50296,1205672713,16445,11390,4088683294,2954,11.59,4.83,4.69,0.2,0.0,382379823,378381000,4004000,396839951,17
306673170,557220,309670842,1284846,309029643,1274500,326186,5292264,1434362101,47327,306445508,8828,11740,2859149389,1110,10.93,4.17,4.03,0.2,0.0,387346811,384252000,2994000,401681761,17
307367926,682108,206910458,1285058,206578060,1282791,537935,5994562,1530644462,45536,306792503,10289,10862,1843157711,2090,10.91,3.78,3.63,0.21,0.0,413341542,411339000,2001000,427734352,17
208109107,640687,208482009,1280185,208476108,1277795,386708,4997978,1256323006,44300,208551323,35418,15820,1958566996,4036,9.57,3.15,3.03,0.18,0.0,338922977,335871000,2998000,353453679,17
710261221,402128,204933126,1165086,204400998,1167415,291426,3400800,802778812,25145,709179422,3259,6047,2553611385,1106,6.65,2.78,2.7,0.11,0.0,216828269,212690000,3994000,231157624,17
306061393,563895,206061148,1274568,205908866,1272625,367292,5455305,1414600124,40415,305830552,4649,10857,1839653360,1106,10.17,3.54,3.4,0.2,0.0,381330489,379158000,2000000,395751427,17
208383136,932697,209108744,1453042,209661236,1443611,698109,9052389,2432581090,82520,210043402,14015,25912,3856126406,2083,17.86,6.36,6.13,0.34,0.0,656718600,653705000,3003000,671172646,17
308869923,747663,208996916,1314419,209088551,1329097,359394,6068580,1549306621,56232,310277575,40528,18014,2050494089,4038,11.28,4.01,3.85,0.21,0.0,415051058,407991000,6999000,429529019,17
308594965,789093,208409497,1329307,208022267,1311708,439137,5888736,1542808084,54809,309282009,37499,18877,2045603081,4040,11.44,4.15,4.01,0.21,0.0,415010644,413755000,1001000,429394633,17
308072164,736495,208074830,1318677,207924161,1317766,330313,5714460,1542958670,49174,308138965,36397,17359,1943194212,4036,11.18,3.92,3.77,0.21,0.0,416858375,409778000,6996000,431388820,17
307885819,702175,206994300,1292406,206683344,1293636,668521,6339113,1536103159,47900,307536756,8138,11069,2046962740,2086,11.38,4.15,4.01,0.21,0.0,413322379,408241000,5002000,427721862,17
307669155,688161,206997713,1299739,207043909,1299290,687222,6419891,1581124623,49124,307612636,12414,11698,1843931738,2088,11.33,3.81,3.66,0.22,0.0,425277911,419213000,6003000,439892861,17
305376319,542843,205804755,1280074,205657318,1281785,345385,5480075,1462352740,40806,305376275,4445,9684,2037161473,1111,10.48,3.54,3.4,0.2,0.0,394461982,391250000,3001000,408665722,17
306153792,566931,206367119,1299415,206522784,1300911,282341,5410488,1415309324,43123,306101901,20091,13356,1834743410,2087,10.25,3.59,3.46,0.2,0.0,382329818,380146000,1995000,396625378,17
1115983738,702732,808905046,1524663,805421206,1522412,610688,7104979,1812214680,51663,1109947125,13797,11916,4257137316,1837,14.72,5.98,5.8,0.25,0.0,489028482,484989000,4008000,503254851,17
308101868,930736,209416520,1493807,210800119,1493064,750643,10230218,2760103999,89912,310647446,15038,19587,3957383211,2085,19.61,6.68,6.41,0.39,0.0,745439669,743449000,2001000,759772058,17
305914648,488668,206110949,1272823,206468012,1274124,406323,5469254,1411902204,47137,306306664,5926,9024,2040969552,1110,10.46,3.79,3.66,0.19,0.0,381181076,377938000,2999000,395598317,17
307756863,694182,208590426,1292100,208861041,1291231,577020,6239077,1533931550,63255,308705941,11991,12335,2046328301,2089,11.21,3.98,3.83,0.22,0.0,413722960,410505000,3003000,428034539,17
306387098,537794,205646954,1275541,205608876,1271498,343357,5330809,1415055804,38936,306634606,5051,9371,1837632641,1107,10.03,3.44,3.32,0.19,0.0,381485011,378306000,3002000,395720869,17
305905243,529102,206086560,1279881,205873610,1284500,417760,5522285,1414625499,41701,305571655,6630,9661,1838280406,1107,10.05,3.44,3.31,0.2,0.0,382142052,378759000,2998000,396533975,17
307361746,676927,207047566,1299540,206774135,1298318,591795,6150977,1529097811,47117,306564147,10267,12013,1842561249,2086,10.88,3.73,3.57,0.21,0.0,412891414,407775000,4997000,427440031,17
1011316677,850915,704182271,1486431,705623990,1478928,559676,5466994,1379491125,40866,1010831433,23381,11756,4361271688,3153,11.62,4.47,4.34,0.19,0.0,372798791,369594000,3004000,387265619,17
307456469,687827,208784342,1291389,208952104,1285969,592186,6087024,1536328815,59923,308234928,21744,11836,1947214630,2084,10.95,3.77,3.62,0.22,0.0,414577855,410335000,4003000,428865171,17
307852363,758644,207967974,1324152,207940801,1311988,379243,5917320,1549623224,52793,308026382,36618,17651,1941817421,4034,11.15,3.91,3.77,0.22,0.0,419677672,413531000,6007000,433833713,17
308092936,678100,206827244,1289236,207168323,1290598,717263,6263438,1530420289,58594,308475688,11423,11003,2047429468,2086,10.96,3.77,3.61,0.21,0.0,412490693,407178000,5002000,427007924,17
314099509,519875,407333278,1443782,404885080,1442049,479995,4840718,1145612264,35016,312971066,8067,7017,2063686442,1540,8.42,3.01,2.9,0.16,0.0,309699493,304450000,5007000,324075484,17
206185017,556203,207074067,1256061,207047737,1254537,317954,5172094,1334549763,42944,206271511,4771,9468,2042250925,1109,9.52,3.32,3.19,0.19,0.0,360237318,356055000,4000000,374723479,17
307787678,604356,208546091,1285798,208124004,1278729,394959,5547799,1418816125,46497,307353612,10219,9385,1846556770,1105,10.13,3.48,3.33,0.2,0.0,382281884,381154000,1000000,396267839,17
408446670,512124,205722609,1255245,205585968,1267224,370746,5349800,1419666860,40831,407707979,4810,10877,1838166808,1107,10.21,3.56,3.42,0.2,0.0,382874849,380707000,2003000,397177482,17
308074708,759094,207993136,1318734,208068553,1318634,359556,5828711,1545486728,49889,308487730,36127,16350,1943836098,4035,11.12,3.93,3.79,0.21,0.0,416478475,409219000,7003000,430802229,17
305549089,552193,206108883,1270532,206206403,1273212,249031,5283415,1412745753,41217,305784342,20221,12686,2035440638,2087,10.2,3.6,3.46,0.2,0.0,382169222,380004000,2005000,396256806,17
209071798,742949,209463602,1267867,209446328,1262429,842130,5488029,1254367548,47752,209084679,24549,12446,1952925149,4038,9.08,3.2,3.08,0.18,0.0,338037515,328842000,8995000,352439592,17
307233089,642551,206919643,1283760,206648912,1281169,561991,5899491,1528850347,46383,306629876,10756,10892,2043685907,2089,10.97,3.82,3.67,0.21,0.0,412650920,409278000,3002000,427089465,17
305969828,588966,206599234,1300295,206569565,1304594,452266,5845662,1472630836,45076,306349829,20384,12869,2036360174,2084,11.22,4.0,3.86,0.2,0.0,397220249,390556000,5993000,411497371,17
310830098,449640,207381281,1138226,204671723,1123833,477676,2963255,613297524,23635,307623578,9444,4888,2069872347,2082,4.76,1.84,1.79,0.09,0.0,165446519,161191000,4004000,179827457,17
307875663,743951,208344998,1290973,207859329,1289284,616314,6080212,1535985576,46466,306956862,9912,10969,1846253726,2087,10.95,3.78,3.64,0.22,0.0,414643388,412317000,2001000,428896682,17
307710273,725710,207867153,1308753,207940497,1309258,334917,5808488,1542381814,50186,307695376,36113,19337,1840986560,4039,11.52,3.62,3.48,0.21,0.0,417035460,415870000,1002000,431190272,17
1019404306,1335979,513162659,1529347,513481452,1522714,856459,7487263,1697362491,52753,1019124864,27919,16035,4283715252,4716,13.49,5.29,5.12,0.24,0.0,463603625,451323000,12008000,478066693,17
306612465,724655,206762738,1306303,206797086,1306465,332355,5817449,1528420161,43682,306571231,13256,12653,1837050802,2088,11.52,3.71,3.56,0.21,0.0,413520722,411307000,2001000,427725089,17
305677938,551043,207366823,1279099,207361821,1279420,380579,5588483,1414397965,45847,305758914,4897,9971,2042427780,1109,10.23,3.48,3.35,0.2,0.0,381731117,379489000,2002000,395776143,17
308056137,761798,208107097,1320547,208101073,1315554,396166,5797521,1547342442,49523,308363023,36892,17471,1942242730,4036,11.67,3.76,3.61,0.21,0.0,416925567,412636000,3996000,431398140,17
404198152,550554,434451455,1272172,429817197,1259735,763614,4130086,833050796,33049,400297335,13683,6385,2684924605,2521,6.68,2.68,2.6,0.12,0.0,224475853,218228000,6006000,238830123,17
213983105,549566,409238713,1420473,406731734,1407545,513324,4753796,1185768384,35372,213732985,11341,8572,2975947252,1688,9.28,3.55,3.44,0.17,0.0,320320648,316121000,4001000,334538490,17
408623234,581918,206074190,1279980,205773227,1279573,435026,5628866,1422249694,39911,408031605,4750,9778,2042037695,1111,10.68,3.89,3.76,0.2,0.0,384089744,379685000,3996000,398630898,17
306188936,671234,205734048,1312833,205970913,1314783,389871,6219879,1633625838,47812,306976397,21514,18139,2233024687,2087,12.39,4.01,3.85,0.23,0.0,440105129,437760000,1998000,454323456,17
211442771,402503,206009581,1094966,200272082,1073758,531192,2222745,359387984,16722,208745586,7114,2948,865892669,2084,2.94,1.18,1.15,0.05,0.0,97196710,91041000,5937000,111548412,17
304831745,397350,304014918,1157469,303939789,1157292,248803,2728197,667780878,21089,306342278,17612,7435,2235949977,2084,5.69,2.2,2.13,0.09,0.0,180472759,179196000,1001000,194365352,17
308147179,698586,207243088,1299360,206906906,1293383,700207,6228542,1529390872,48951,307116198,8988,13081,2046046420,2088,11.05,3.78,3.63,0.22,0.0,412699360,407344000,5004000,427236784,17
206651378,498945,205383884,1230312,204948085,1231992,282598,4450344,1128163966,32966,206680854,4657,8168,1842959344,1107,8.16,2.82,2.72,0.16,0.0,305161374,301906000,2999000,319418333,17
307886570,759432,207807805,1309590,207744477,1302913,298146,5585533,1543432568,50097,308441637,37359,16466,1944182467,4036,11.72,3.73,3.58,0.21,0.0,416576176,410377000,6005000,431026342,17
307938452,709389,207941226,1320463,207942316,1315581,349048,5619040,1542042449,49024,308296591,36896,16390,2041139257,4034,11.76,3.78,3.64,0.21,0.0,416385981,415155000,1000000,430626586,17
210214365,244249,205075698,1066696,199359450,1067015,306610,1728608,275595104,13779,205825581,1722,1790,1186303455,1111,2.14,0.82,0.8,0.04,0.0,74019398,70765000,2990000,88210596,17
305794139,377068,204375843,1129914,203771989,1134334,265024,2792422,650108429,20579,306055317,2068,5014,1338972577,1110,4.91,1.8,1.74,0.09,0.0,175500200,172252000,3004000,189957175,17
408840720,517356,205879683,1277110,205724958,1292330,373947,5800936,1420498004,44566,407728761,7540,10784,1838736752,1109,10.22,3.56,3.43,0.2,0.0,382789411,381562000,1001000,397113589,17
308137366,737378,207928259,1306166,207558379,1299429,362682,5682853,1540319606,51491,308661526,36713,19199,1844684624,4038,11.73,3.73,3.58,0.21,0.0,415060327,411761000,3005000,429384162,17
308177677,699364,207897529,1310413,207920970,1308605,316456,5725811,1536033711,51236,308063799,36130,18610,1841903328,4041,11.09,3.87,3.72,0.21,0.0,415890474,414544000,1001000,430151398,17
307710065,680638,207502116,1303943,206928466,1293607,548432,5969389,1536679154,46891,306543920,16578,12648,1943963570,2088,11.0,3.72,3.57,0.22,0.0,416775166,411583000,5007000,431006208,17
308125456,706811,207749930,1310401,207850745,1310345,389975,5755533,1545299124,50156,308119832,35414,17548,2042588551,4037,11.65,3.76,3.61,0.21,0.0,418223470,413979000,3999000,432820121,17
1114219164,631227,605834712,1463639,603584628,1458621,464638,5664770,1487766184,43440,1109358044,8712,10074,4367501294,1685,12.05,4.86,4.71,0.21,0.0,401258478,396057000,5000000,415540482,17
306983205,614565,131469765,288629,132282713,302260,624275,6079414,1515768555,47873,306534471,9363,11192,1642738143,2088,10.76,3.64,3.5,0.21,0.0,410258623,408008000,2004000,424545878,17
309301987,459075,206840784,1159425,206849098,1159762,340348,2880914,623740206,26190,309720958,33469,23958,2057217977,4038,5.29,2.08,2.02,0.09,0.0,169259105,161931000,7040000,183389214,17
337578151,1615069,530297147,1590493,528655119,1622702,1145220,10065272,1356080997,54741,339817177,136772,17655,2761718760,2664,9.82,3.73,3.6,0.18,0.0,341747340,335520000,6009000,355968348,17
408181926,599184,207282764,1291240,207650622,1294566,404256,5788194,1427089909,42820,409377012,8781,13623,2042229782,1106,10.27,3.59,3.46,0.2,0.0,384350277,380154000,3991000,398781703,17
305563242,556261,205786104,1281718,205649738,1280452,389655,5507749,1414057230,40989,305716992,6000,10203,2040616421,1114,10.2,3.56,3.42,0.2,0.0,381311971,380014000,1000000,395700520,17
305235532,542848,205696467,1273746,205691487,1276975,348013,5495043,1413646182,40006,305459694,4460,9328,1836282837,1107,10.22,3.53,3.39,0.2,0.0,381250965,379010000,2000000,395770924,17
1216699668,850822,913207363,1510414,909683088,1496569,649591,6789852,1583438038,54014,1204269885,23533,13623,5859764756,2806,12.75,5.13,4.98,0.22,0.0,427587427,423347000,4003000,441870105,17
308641811,835127,309332761,38298060,308444452,38180025,651955,7580157,1901006899,59846,308647454,16634,14280,1546004578,2087,14.96,5.92,5.73,0.27,0.0,512992599,510610000,2002000,527279185,17
308536546,653572,207187703,1288249,207828689,1281226,545459,5934496,1528010404,44548,307540154,12453,11435,1843222483,2084,10.99,3.8,3.66,0.21,0.0,413321408,408059000,5000000,427803668,17
307324538,658110,207343015,1303045,206821305,1295498,524333,5979226,1533555160,47681,306499881,15422,11854,1941220199,2087,11.02,3.82,3.68,0.22,0.0,415019217,412814000,2003000,429256124,17
1223499644,692267,611035895,1444793,605710668,1452426,1004801,6092380,1318202490,45941,1208369881,24994,11591,4590612283,2811,10.66,4.36,4.23,0.19,0.0,353435165,346193000,7003000,368024526,17
206980676,6525514,201680752,104569,202759114,102176,676438,14633257,343878617,18088,202490056,12814,3397,1452033215,2084,2.8,1.14,1.11,0.05,0.0,93150284,88865000,3993000,107476197,18
412281292,26972482,350434950,537784,347908955,541367,32736650,48196526,1399881656,731914,416616566,300960,110847,2695979020,98767,11.69,4.56,4.34,0.43,0.0,377525489,179088000,198097000,391704284,18
210558934,13072160,207042592,152423,205005915,144129,7832165,28432891,554385016,211795,206197910,48065,17936,1872424690,4042,4.59,1.79,1.72,0.17,0.0,149451575,144169000,5005000,163804882,18
567427221,28176469,300354551,495959,298618080,485460,28815020,54922697,1438576369,312285,575565297,418741,110051,2835656322,99788,12.07,4.53,4.32,0.42,0.0,387846312,221745000,165809000,402411684,18
209625070,13027822,206395117,138020,204149597,139385,8162550,28310285,561066546,212432,207486682,42384,8240,1871522143,4038,4.64,1.78,1.7,0.17,0.0,151217214,142939000,7996000,165555112,18
568207252,28485062,300383416,514345,298512546,500078,27480900,55376119,1438221692,315927,573698180,519181,112111,2640028460,99784,12.0,4.74,4.52,0.42,0.0,387720121,230237000,157161000,402371955,18
409610117,20507165,350522100,547725,350241035,556394,27075221,41371636,1587488377,740365,414211916,300870,108219,3717553136,98765,13.33,5.02,4.81,0.44,0.0,426994137,246673000,181495000,441331726,18
112446330,6894252,29484631,70646,30039211,72703,249006,12877797,176996509,13431,110916750,1181,1671,370011815,1109,1.52,0.64,0.62,0.03,0.0,47822778,46665000,1014000,61950366,18
412536113,6790741,206279153,219168,203710427,219230,685176,16848470,980736061,28873,403775985,3769,7495,1443995779,1111,7.69,2.99,2.9,0.14,0.0,263962318,260453000,4006000,278373226,18
341443861,14407369,297655457,375651,297467010,378214,12397831,26654572,1042752162,221211,340183789,210748,105649,1984982663,98767,8.79,3.23,3.12,0.24,0.0,279736109,95098000,185191000,293967381,18
442516329,14984606,498316076,642263,498459180,643420,13250062,30740033,1976845546,211598,435975935,421832,111959,4972854514,97789,16.62,6.1,5.89,0.39,0.0,532160857,398911000,134306000,546555724,18
572795847,29360704,301149685,485869,298929690,491274,25649627,54251305,1429975047,410605,571471737,447889,407268,2555142792,99783,11.95,4.65,4.43,0.42,0.0,386427891,209609000,177516000,400502501,18
209707349,6621365,204928501,97254,201520706,89861,756084,14457995,290317022,12294,202389601,1834,2565,1249829041,1109,2.39,0.96,0.93,0.05,0.0,79428432,76331000,3013000,93766626,18
207923198,12927271,103573609,134378,103094014,138647,7613113,28535963,510875534,233427,212649927,10968,4703,1560805435,2082,4.24,1.61,1.54,0.16,0.0,137744680,132766000,4991000,152086727,18
209250279,13003896,205399920,148129,203021013,149728,8805774,29017313,617070407,220195,207319515,40194,8424,1865836697,4040,5.35,2.11,2.02,0.19,0.0,166453976,160385000,6014000,180777081,18
209026683,13128322,104564787,161087,103185606,159696,7854294,29518299,700751394,211873,205414316,12305,9235,2068673086,2094,5.81,2.11,2.02,0.19,0.0,190436901,186486000,4010000,204818087,18
203943338,6461838,199731222,136443,198182568,137991,618210,15599754,527026184,18139,207513028,3127,3447,1949580030,1111,4.18,1.63,1.58,0.08,0.0,142461161,138417000,4012000,156829780,18
208554238,12960771,203872982,132335,200349847,133253,7791502,28969963,550073563,211632,211026958,6549,4914,1873966440,2086,4.57,1.75,1.68,0.17,0.0,148066200,143026000,5000000,162384921,18
213339122,6661566,103418780,91827,102995418,94285,712464,14145896,265222900,17052,203866482,11820,3866,956616604,2084,2.17,0.87,0.85,0.04,0.0,72154549,66993000,4999000,86568350,18
213861570,6718178,104345413,91204,103607560,92536,677399,14280792,264726562,18025,199405185,16457,2796,945489924,2085,2.17,0.87,0.85,0.04,0.0,72028607,67804000,4048000,85935439,18
516109865,20636335,557352885,541856,547348958,553296,25788913,41504491,1522414830,799897,510841710,502554,110134,3659809266,98761,12.91,4.77,4.57,0.43,0.0,409701871,213453000,196417000,424003953,18
207008848,13203284,205757279,132078,204855984,136302,7921295,29116911,524463379,206479,205256306,13564,8577,1738723590,2086,4.37,1.66,1.59,0.16,0.0,142676092,135597000,6979000,157074763,18
341168975,15619141,299802470,400303,299513731,406504,12997626,28345248,1276244475,218114,341516543,217120,106754,2688448950,98767,10.72,3.92,3.76,0.28,0.0,343849112,266005000,78001000,357970619,18
217895432,13728529,110807602,137052,108013588,136645,8209802,29085001,532047030,210179,206118173,28937,9367,1576609660,4137,4.51,1.68,1.6,0.17,0.0,143701882,136568000,7029000,157988080,18
571323664,28463788,301700324,617690,302264049,608915,27710929,57986215,2117750118,334319,569357006,408334,274257,5258239139,99788,17.63,6.55,6.27,0.54,0.0,569390951,455612000,114153000,583805756,18
419314032,13759861,314084840,47562782,307839284,47588530,12030516,34211770,1885783815,150610,407818897,15357,15947,1514703244,3066,15.18,5.77,5.57,0.41,0.0,510512702,505698000,5006000,524941999,18
209615514,13100776,207606378,163746,205890756,158813,8737942,29341437,710923990,221121,204293423,42586,9906,1846500494,4037,6.06,2.34,2.25,0.2,0.0,191551137,184485000,6980000,205923863,18
210381906,13049424,206700868,149360,204417179,147232,8705671,28331902,563716831,212485,208646819,39306,15954,1873026674,4038,4.71,1.78,1.71,0.18,0.0,151996906,144745000,6987000,166566458,18
202450037,6449875,201141563,113430,202900691,114351,249239,15321295,437122740,23057,204063833,2582,3483,1715504557,1103,3.55,1.37,1.32,0.06,0.0,119840047,116609000,2989000,134116496,18
206962787,12912301,201460971,137602,198057525,142496,8067703,28813615,535560891,193740,210005261,4954,6446,1775695495,2088,4.47,1.7,1.62,0.17,0.0,144371924,139224000,4972000,158636861,18
207789763,12933360,203424551,129187,198639050,132698,7750537,28880008,546519352,179907,209912080,8663,6156,1664361195,2087,4.58,1.74,1.66,0.17,0.0,147570132,144305000,3006000,161881470,18
569624570,28237338,301211575,499954,298057310,486214,27212375,55369769,1440407953,318087,573501363,482797,109866,2645054682,99783,11.97,4.58,4.36,0.42,0.0,388386589,287314000,101110000,402820718,18
206844127,12981903,206347126,201128,207046297,203392,8599055,30542029,928016945,226363,204251434,42545,19229,2721618476,4042,7.72,3.02,2.91,0.24,0.0,253205414,247095000,6002000,267635387,18
510082888,20536940,551128174,608276,546433723,614381,25997811,41824574,1628664072,769305,512391657,300731,108170,3628410814,98761,13.9,5.31,5.1,0.45,0.0,439595410,262374000,177252000,453735736,18
539763314,15084523,399955845,484760,400587268,492075,13321644,30517165,1730462355,228225,540624180,249256,114453,4397608112,98767,14.42,5.23,5.04,0.35,0.0,466393647,360255000,106075000,480805269,18
235194258,19437935,206791477,145788,203576677,152768,13658824,41287739,583826104,220671,232668246,15047,4874,1917053315,2083,5.15,1.93,1.84,0.2,0.0,157850854,153491000,3986000,172107634,18
207872687,12950939,202071985,128259,198245147,135993,8159753,28812518,534029822,195387,209973896,8070,3870,1776031166,2087,4.47,1.72,1.64,0.17,0.0,144100930,140912000,2998000,158568933,18
257957239,38119344,209934787,272787,209235402,277096,38471590,83799224,1447326681,438749,258927734,28240,20955,4022080350,4042,12.16,4.41,4.16,0.53,0.0,390164919,384120000,6001000,404464062,18
682348674,28705186,407304439,510107,401547271,516197,27756205,55286061,1528993309,313771,666525189,471678,112054,3407243059,99788,12.92,4.81,4.59,0.44,0.0,414387662,323176000,91049000,428609220,18
309371265,13148966,303521160,206051,298249801,207969,8522410,30593781,956936569,204098,304952503,13046,7542,3258706417,2086,7.71,2.92,2.81,0.24,0.0,258021524,253812000,3997000,272328333,18
209552470,13050454,206056384,143864,203770219,142190,8186070,28383399,560909985,214258,208144661,41028,8920,1872298233,4036,4.68,1.8,1.71,0.17,0.0,150831593,145450000,5015000,165378630,18
202613015,6475623,200977901,119966,201983212,116612,594699,15074228,445021100,21915,205431100,18803,5119,1716323355,2079,3.54,1.38,1.34,0.07,0.0,121176742,116970000,3999000,135263211,18
206715881,13152219,205894325,257762,206263401,247398,8879357,31905736,1177361127,224776,204704980,11856,9487,3837775060,2085,9.6,3.7,3.57,0.28,0.0,316960761,312691000,3996000,331490612,18
206610239,7074491,205429526,421575,205469551,415831,1097191,21997138,2338125003,60146,206635353,8138,15592,1730294450,1108,18.1,6.89,6.66,0.34,0.0,633452265,630345000,3001000,647990722,18
309816469,12973442,204049378,138676,202146933,143535,8077144,29081058,592064711,208596,308690747,9301,6394,1855015793,2087,4.96,1.92,1.84,0.18,0.0,159596763,156343000,3006000,174001534,18
209174338,13013935,203340883,125455,199088678,135293,8013296,29222148,532566019,193862,209136485,12482,5053,1776433297,2088,4.74,1.71,1.64,0.17,0.0,143820837,141552000,2007000,158034035,18
205577056,12949022,204554465,155721,205398751,144589,8550800,29439232,552141916,195318,203515696,10353,4958,1829957689,2089,4.62,1.76,1.69,0.17,0.0,149039657,144795000,3994000,163496124,18
205202211,6550597,204658450,112553,205297081,111745,651223,14900377,444110570,25378,201109226,22182,5323,1721805944,2084,3.56,1.4,1.37,0.07,0.0,120098192,115822000,3993000,134182706,18
209663647,13017622,202753137,128686,200582455,133744,7661985,28544205,527069640,208812,212378476,21014,4540,1785039495,2086,4.39,1.71,1.64,0.16,0.0,141865456,135544000,5979000,156156528,18
305892008,13045351,204454941,242430,204627887,251205,8548356,31887408,1237897346,226070,306024462,12026,12142,3933676989,2087,9.76,3.66,3.52,0.28,0.0,333485319,329297000,4003000,347879555,18
511242968,27670839,454466534,634346,454773726,620749,32234947,50114092,1959826884,884792,515184791,555589,114042,2375074295,98760,16.44,6.19,5.93,0.55,0.0,527855872,358812000,168911000,542234706,18
209911952,13109973,204282072,126353,199522729,139940,7969301,28634227,531760029,193825,208589532,10197,5266,1774149016,2090,4.41,1.67,1.59,0.17,0.0,144838276,138521000,5979000,159029162,18
206231221,6584039,104184234,102229,103607284,95058,506839,14697363,348341772,12468,199134111,1707,2640,1227001058,1112,2.83,1.16,1.13,0.05,0.0,93766492,88556000,4975000,108128258,18
410162108,6609446,204801799,133342,203288891,133264,630445,15339510,521664680,16398,402382798,1896,3482,1950445196,1111,4.15,1.65,1.6,0.08,0.0,141001180,137790000,2995000,155588018,18
203350940,6515511,203633035,113823,202589113,113556,546788,14948931,444076908,22147,204075219,17736,4684,1711546216,2083,3.55,1.42,1.39,0.07,0.0,119534762,115326000,3976000,133965266,18
209094990,13036202,203440635,149890,198913494,150619,8495595,28788202,531304744,195654,209010356,12388,6883,1775569421,2089,4.47,1.69,1.61,0.17,0.0,143409139,140150000,3003000,157810613,18
206884394,6508685,201772411,96595,201515367,96262,568981,14641362,311656907,11450,204459555,848,1853,1354528722,1111,2.61,1.07,1.03,0.05,0.0,84596397,82328000,2008000,98897565,18
208300393,12959251,204049239,131468,199229826,133465,7998094,28816447,545246293,183043,209092582,10979,6629,1662903225,2087,4.57,1.74,1.66,0.17,0.0,147081866,140771000,5990000,161403173,18
202181200,6446710,101046478,127596,102016983,128794,1008730,16574831,469176924,16047,205418721,2237,2881,1620313543,1106,3.75,1.46,1.4,0.08,0.0,126081419,125749000,0,140364093,18
210959930,12996598,103972070,131450,103390751,132995,7776875,27884137,524573189,220450,209650262,39309,15034,1582011999,4040,4.4,1.7,1.62,0.16,0.0,141558680,136326000,5012000,155911313,18
572949016,28156203,302544572,565467,301718655,579533,27405402,56380843,1835651449,320747,566208727,456512,112459,4313575300,98807,15.26,5.62,5.37,0.5,0.0,495832432,389812000,105949000,510257762,18
201667224,6343748,99690969,104493,101664720,102219,655833,15164633,390490727,14236,206908713,1695,2863,1437720477,1110,3.15,1.23,1.2,0.06,0.0,105647657,103357000,2006000,119837077,18
303319147,6474227,199235368,129691,199666619,129602,639732,15593438,528862031,17459,309627398,1723,3169,1836425909,1108,4.24,1.69,1.64,0.08,0.0,142621511,140427000,2006000,156992148,18
209743698,13048789,206558339,149082,204373786,148176,8085894,28362685,560811977,212470,207310123,43207,8928,1872799089,4036,4.67,1.79,1.71,0.17,0.0,150803766,146590000,3988000,165287079,18
212487808,6703747,106038494,90634,104370943,91914,381139,14585795,263265174,21077,198612192,20872,7495,1043106910,2083,2.25,0.93,0.9,0.04,0.0,71435524,67151000,4009000,85836236,18
573198268,28078907,302168655,508750,300839366,512813,27515356,56578858,1446928388,317426,574258243,410121,110183,2661103396,99790,12.43,4.6,4.38,0.43,0.0,390117539,281925000,107971000,404524497,18
207757739,13002241,103689450,139872,104147169,140965,8094600,29911488,602603102,227166,209187283,12237,8092,1659316721,2081,5.14,2.02,1.94,0.17,0.0,161914940,156699000,4990000,176302921,18
211155445,13040654,207398162,133316,204839753,134717,8304787,28984400,556408565,209652,205541987,46061,8982,1871908058,4036,4.72,1.82,1.73,0.17,0.0,150534893,146195000,4005000,164820968,18
567356024,28049861,301121395,579278,302168165,584568,27133481,57827639,1881807767,323854,566060343,522999,111814,4439129984,98807,15.53,5.73,5.48,0.51,0.0,508595879,410385000,98092000,523038551,18
209782413,13054181,203863088,132369,199406573,141236,7994639,29336372,530902236,198329,208715169,6797,4622,1776048505,2081,4.48,1.73,1.65,0.17,0.0,143263178,138038000,5001000,157703247,18
207201270,12858514,104547347,132399,104329365,133492,8119009,29396964,527485839,225676,206455847,45617,8245,1542612685,4041,4.42,1.69,1.62,0.16,0.0,141785629,135580000,5981000,156295327,18
207323171,12937798,202258254,149520,200924685,145713,8246155,29370663,608847149,214277,207398852,10938,5295,1754880030,2090,5.24,2.11,2.03,0.18,0.0,164186691,159929000,3998000,178474766,18
211607974,13157897,104780054,131645,103506188,133658,7920404,28041698,526231771,219077,207287177,43520,16266,1582045444,4035,4.42,1.7,1.63,0.16,0.0,141898865,139743000,1996000,156023990,18
205592451,12911750,103806055,127435,104227592,129386,8106014,28868116,517230824,213245,203581341,9893,4477,1533334640,2089,4.38,1.69,1.62,0.16,0.0,139657216,135423000,4012000,154098917,18
209186509,12980249,202032457,132067,198824542,136773,7823152,28680241,529515227,195634,210348600,9220,6423,1781038273,2085,4.45,1.7,1.62,0.16,0.0,142855721,138629000,3989000,157433973,18
209309464,13017774,203173791,130607,199042753,135094,7930426,28608244,530393484,195657,209341193,9180,6313,1778729011,2087,4.44,1.71,1.63,0.16,0.0,143364421,138122000,5004000,157628736,18
208481834,12972006,201260196,134133,198543259,135005,7924306,28699488,530581358,196393,211501360,9482,3987,1779224526,2091,4.38,1.68,1.61,0.16,0.0,142597133,137352000,5012000,156964463,18
572316723,28749767,302017492,495389,299863860,491076,27838380,55400390,1440365241,314980,573877326,405279,109604,2650546559,99788,12.1,4.62,4.4,0.42,0.0,388284372,277023000,111009000,402587155,18
579322119,28028483,302351580,504084,298114406,505420,26526481,54759750,1413008037,315450,576325757,408507,269082,2792144129,99785,11.79,4.55,4.33,0.42,0.0,380846289,280762000,99915000,395131174,18
208648278,12984170,202688060,126084,198695109,134902,7836315,29316994,531028846,194362,209680647,10598,6105,1775018455,2091,4.41,1.71,1.62,0.16,0.0,144663098,138043000,4930000,159243438,18
811927118,14015872,426763007,2930629,421548218,2871201,4998539,18300098,1049859199,114895,791106337,112781,81285,2944326531,24771,8.78,3.56,3.45,0.2,0.0,285027623,249642000,35090000,299143027,19
924801853,30957137,376741842,2367982,377018162,2341799,9027301,38818123,1286429608,691800,918238725,144700,141952,2823000645,41094,10.52,4.08,3.93,0.28,0.0,346294101,284168000,61819000,360731276,19
238688778,9143955,149235050,1040038,145270882,994469,7246862,11359862,532868778,275023,235631846,127103,127971,850079779,40943,4.4,1.72,1.65,0.13,0.0,144029138,68294000,75325000,158117045,19
195585671,4776968,116337077,949868,115331762,934627,3671938,6476333,383401496,138895,192452545,61403,63511,674676689,20540,3.24,1.27,1.22,0.09,0.0,103432060,61094000,42064000,117905504,19
132170816,6657801,64165592,965661,63524071,1016199,3998036,7022446,353211559,64146,136007762,78640,67299,495048810,20594,2.88,1.06,1.01,0.08,0.0,95084995,56873000,37915000,109419768,19
173061355,9388821,82505110,244527,83007602,243473,7513897,11622391,545593674,271334,170047840,125970,126740,719816569,40946,4.43,1.63,1.56,0.14,0.0,149466140,68072000,81086000,163713944,19
257548545,6780848,167113845,3238475,167997528,3234925,3957179,7600727,520186030,75838,264348485,89739,72249,857173696,20593,4.29,1.69,1.64,0.12,0.0,141038761,110820000,29951000,155244379,19
134886886,6826302,63863341,960865,64971024,933932,3790305,6852055,330926193,52985,133654246,55405,71204,472522787,20593,2.7,1.0,0.97,0.08,0.0,89599713,55139000,34085000,103822335,19
789394337,22144765,435879875,2278260,436084257,2296366,8613889,27949618,1151602136,168838,793521666,105490,138971,2820862760,41173,9.6,3.8,3.68,0.26,0.0,311504975,259534000,51906000,325716151,19
236296425,9211930,150013038,1098501,147939733,1065726,7518563,11470256,565403181,290237,231170791,144397,123735,828098402,40959,4.84,1.87,1.79,0.14,0.0,152082477,84940000,66953000,166458075,19
132915237,4779922,74964790,922277,74081022,900831,3830768,6558557,368083389,148304,131280911,62178,61099,583532437,20530,2.97,1.11,1.06,0.09,0.0,98733878,69337000,29141000,113065113,19
132292037,6700163,64258512,916034,64539712,918612,3944573,6891865,325346637,50643,135967578,112459,74058,496697818,20592,2.73,1.06,1.01,0.08,0.0,87461827,65176000,22059000,101765388,19
735880893,14804567,364892389,3054962,365448603,3086876,9413025,22466818,1306701125,183310,742162273,108119,162413,2646151139,50084,10.92,4.33,4.18,0.28,0.0,353585707,305352000,48055000,367671386,19
144489751,4714651,71240979,161916,72059415,165905,4312843,6757257,377430127,43824,137289266,117377,79685,658572321,24558,3.04,1.13,1.08,0.09,0.0,101654442,81322000,20079000,116158568,19
150218882,6742373,85205047,957811,85754334,1009416,3875623,6947902,352887567,56493,155796486,57786,72965,551910256,20593,2.96,1.13,1.09,0.08,0.0,94999510,68827000,25935000,109343155,19
211195878,6854180,131689163,1006588,131224034,1027976,4022659,11780437,524483748,114670,210508870,112506,141143,726917487,45689,4.4,1.67,1.6,0.11,0.0,142280292,98052000,44023000,156684406,19
134167412,6686399,64298804,913952,64384951,915523,4015371,6903842,320729285,53147,139008333,81022,69678,515766228,20592,2.68,1.01,0.97,0.08,0.0,86683578,58280000,28135000,100848892,19
176117371,2982670,126091813,3012572,126106887,2988394,108062,1360079,264636370,7613,176882342,915,1780,702903402,147,2.13,0.85,0.82,0.04,0.0,71643413,70244000,1003000,85816135,19
155392248,6664900,65567717,910744,65654318,926154,4019803,7121727,360784343,73342,161493905,108865,69659,609786491,20590,3.0,1.16,1.12,0.09,0.0,98489532,70160000,28064000,112650980,19
139860633,3911182,46972098,133768,46548363,131288,2468037,6305246,309330880,58178,135868897,126832,71880,562007931,23386,2.56,0.96,0.93,0.06,0.0,83724994,55218000,28111000,98235659,19
138794391,3972781,68174233,965297,68188985,952775,2505364,6514322,369815689,63326,134551468,134202,75919,596813736,23389,3.05,1.11,1.07,0.07,0.0,100301392,66979000,32989000,114820117,19
222626885,6713377,106469488,964112,106059024,943165,3896187,6903216,330264532,52045,217216947,80361,70398,669216907,20591,2.79,1.08,1.04,0.08,0.0,89551487,52140000,37099000,103654658,19
290683489,12875404,125783540,219819,125743227,214706,8080405,13260690,552805803,127738,289035377,212537,131019,1022425344,41000,4.61,1.74,1.67,0.15,0.0,149995568,85378000,64285000,164155352,19
134594497,6832773,41152603,139712,42664460,141374,3992649,6994360,336761118,60705,133100953,66506,84044,496209627,20592,2.76,1.01,0.97,0.08,0.0,91064964,56891000,33935000,105070580,19
141064802,3961050,65632606,1001239,66547668,959467,2580694,6456089,333976173,53183,135588447,99391,75665,585714014,23390,2.8,1.04,1.0,0.07,0.0,90541034,50122000,40098000,104823646,19
150889646,6572545,64379287,937144,64113958,983728,3917503,6900486,358578093,80384,154973108,80905,66426,622993782,20593,2.97,1.12,1.07,0.09,0.0,96592254,67229000,29099000,110916364,19
129768532,5539606,55042264,157297,53467531,153145,5216022,8207352,347779954,135553,123954780,78530,60557,534708545,20539,2.83,1.06,1.01,0.09,0.0,93875043,56772000,36852000,108183293,19
173626790,7250510,89020724,1046058,87983629,1048794,4517560,11533387,521784395,99676,170318601,190038,137989,803278673,45679,4.36,1.6,1.55,0.11,0.0,140375282,74063000,66056000,154739403,19
221889080,12731377,126299174,1054624,126785228,1055795,7726665,12905209,562736919,109601,224768453,174055,129089,739641023,41000,4.72,1.8,1.73,0.14,0.0,152246922,88011000,64008000,166462615,19
209282747,12838278,84198172,1051752,83888747,1046190,8039519,12722777,505779267,134377,204007429,246945,132985,728820966,41198,4.31,1.61,1.54,0.14,0.0,136640117,67201000,69207000,150859122,19
156758796,6805745,57551301,185078,55754158,181468,6851875,9338411,401714076,175552,162406811,78242,80317,638853869,24601,3.32,1.24,1.19,0.1,0.0,107927027,62808000,44863000,122282205,19
630426889,13993797,345259428,2235762,346527841,2225536,4768192,18401111,955900825,114975,616954212,57758,82599,2505462793,24774,7.92,3.11,3.01,0.19,0.0,261269787,214051000,47011000,275553559,19
174296398,14242306,71096891,231398,73169379,231939,8454102,13945832,549325771,119934,186264144,166443,165819,655335621,49222,4.56,1.68,1.61,0.15,0.0,147839426,66825000,80789000,162241836,19
173593023,13698135,74047963,238541,72169814,237722,8885437,14216075,581337245,134033,178137911,138483,153610,647593018,49114,4.8,1.75,1.68,0.15,0.0,156531077,82156000,74141000,170898676,19
159514971,4013732,86807049,3182096,87131568,3076461,2577491,6775946,388642023,62768,152958932,113147,75222,590204284,23368,3.23,1.19,1.15,0.07,0.0,104893803,68763000,35876000,119187841,19
202482015,12418307,127157409,204568,129433436,203910,8021585,12859432,521506320,112265,201669366,206509,133789,749297396,40999,4.43,1.66,1.6,0.14,0.0,140294078,68011000,72012000,154603620,19
149037342,5251044,97130317,4373171,95551108,4468931,5349555,8541910,461593561,153721,145735648,60598,60561,536688920,20536,3.77,1.43,1.38,0.11,0.0,124126214,86931000,36970000,138233537,19
184241529,12597648,87285842,1048289,86253737,1086358,8106605,13477071,571102873,152830,184988743,104549,148712,662440126,40998,4.78,1.73,1.64,0.15,0.0,154541195,86089000,68070000,168753978,19
261225186,6778216,106145417,154288,106344768,154831,4035087,7366437,441924546,82229,255562074,51185,70636,874010309,20592,3.76,1.47,1.42,0.1,0.0,119266729,81029000,38013000,133503373,19
888550203,96949964,432226909,5900728,429874555,5887695,4717498,183171425,1550350488,11114701,882935857,71670,85331,3069952868,24692,13.08,5.27,5.12,0.28,0.0,419739498,379518000,40054000,434188733,19
863257017,43859386,377489172,2309656,377597757,2313961,12202645,61998431,1419666047,1438616,867775276,215745,194336,2559691066,41139,11.7,4.45,4.29,0.34,0.0,382630112,310366000,72085000,396909874,19
174345340,9684406,105124655,1088501,103500597,1015737,7234270,11219174,506135890,312894,170107964,135820,123437,726462486,40943,4.3,1.61,1.53,0.13,0.0,136264713,55001000,81002000,150454507,19
257076818,6631148,105532579,163562,105596024,162451,4037546,7367125,421217884,71517,271643563,88300,71000,882946517,20590,3.56,1.4,1.35,0.1,0.0,113715187,76624000,36819000,128125781,19
175194291,6845660,63326333,980755,64318346,953097,3917219,7009255,337222745,60289,173900692,108010,69515,517247109,20590,2.76,1.03,0.99,0.08,0.0,90808766,54322000,36214000,105021060,19
257543388,6579032,105397238,164623,105439238,163372,3984684,7193544,419180896,71596,268594296,112409,70367,872376593,20593,3.57,1.37,1.33,0.1,0.0,113220889,72991000,39995000,127590090,19
505625805,68465001,303361908,1064298,300136108,1052736,4963703,82644971,840148293,561659,495628242,73035,101637,2022765496,24808,7.22,2.92,2.82,0.17,0.0,227046477,187650000,39135000,241260167,19
245976437,12702200,127343907,1042548,127073131,1043003,8003116,12860135,560550922,112565,241221198,147198,145768,756202111,41006,4.74,1.81,1.74,0.14,0.0,151135769,86522000,64388000,165269921,19
150968638,6625029,64566312,945169,64255219,993046,4043438,7198493,360639970,80665,155655679,69040,67249,625727087,20593,2.96,1.13,1.09,0.09,0.0,96500683,62146000,34080000,110901201,19
167171912,4577281,87426344,943987,87728638,902062,4309396,6905684,380023434,62594,162503397,69370,71085,736785525,23391,3.11,1.12,1.08,0.09,0.0,102069488,63891000,37935000,116423242,19
170372261,6679918,44789999,144761,42934764,142960,4012171,7018164,353351812,79457,178500618,92859,67798,616926095,20588,2.89,1.08,1.04,0.09,0.0,95681210,58635000,36771000,110372777,19
1197438677,48415648,338982085,2385970,339171006,2362403,5832840,57750823,1373956410,1312042,1188509534,109213,75258,3409734635,20873,11.49,4.63,4.49,0.25,0.0,371003270,339685000,31062000,385307707,19
185072011,12831376,126893737,1082282,127026968,1075522,7994338,13006325,561505043,105492,184171291,227049,135186,723941569,40999,4.69,1.79,1.72,0.14,0.0,150833464,81266000,69227000,165413156,19
130702241,6573037,64039525,895064,64024086,911184,3810360,6732927,313818133,49811,139216232,107460,111157,473555019,20589,2.63,1.03,0.99,0.08,0.0,84881112,50753000,33835000,99172045,19
147669654,4722310,94253885,3087657,94181390,3162714,3853720,6497108,393751315,147768,147686615,69005,63253,575610326,20539,3.23,1.16,1.1,0.09,0.0,110448082,63110000,47082000,124493115,19
131505123,6817596,62986072,1006678,63529313,979654,3989608,6905373,341203314,60180,132330577,110632,69192,492918218,20592,2.85,1.11,1.06,0.08,0.0,92053735,53869000,37908000,106282407,19
202325463,12881282,126685832,1067924,127192035,1049940,7759081,12961323,540690808,103313,209153206,176263,134146,736941357,40995,4.5,1.74,1.67,0.14,0.0,146524993,77137000,69123000,160813419,19
139400606,3959554,67411178,957784,67432332,942359,2547813,6492696,318560079,67371,135206520,66387,75416,514581421,23384,2.67,0.99,0.95,0.07,0.0,85684545,50211000,35148000,100205918,19
622923856,21746609,365278804,2341580,366577489,2368058,10000812,32382552,1161325143,778242,622988626,116013,161013,2557740097,49176,9.58,3.8,3.67,0.26,0.0,312329913,235082000,77026000,326833101,19
212252498,7176706,108223499,213261,109113118,214303,4181445,11276521,498382241,123896,213030784,95131,145277,769506641,45688,4.18,1.55,1.49,0.1,0.0,134176926,58940000,74923000,148541043,19
986709409,55695431,438621909,2681077,437963834,2683792,13526380,69953062,1423015800,1466817,991774538,172806,137452,3266830067,41240,12.09,4.79,4.62,0.34,0.0,382895336,307728000,74933000,397173888,19
444014811,68511227,195585697,1068990,192538409,1055846,4793804,74456429,738484639,474188,437190397,69528,104535,1721608377,23574,6.38,2.62,2.54,0.15,0.0,199825814,163421000,36093000,214276560,19
131972437,6809231,63577513,1003811,63698944,971887,3970982,6957348,339987146,60521,133435284,110769,75989,496951801,20590,2.79,1.04,1.0,0.08,0.0,91942361,54422000,37289000,106139856,19
84987917,8309767,43069184,882197,43154392,876659,97297,1074095,171915085,5694,84789800,1006,1775,358740659,159,1.43,0.56,0.54,0.02,0.0,46913991,44671000,1985000,61091605,19
260043454,6633314,105637241,156851,105206663,155237,4093695,7132320,374363108,67820,269485097,59871,102938,906363875,20592,3.1,1.21,1.17,0.09,0.0,101281822,66986000,33993000,115882396,19
1130475169,40796478,437453434,2329222,436319450,2354344,9130642,45597780,1459028490,790480,1135371266,224464,139685,3301367345,41147,12.14,4.73,4.58,0.31,0.0,395275288,324255000,70837000,409586190,19
158849784,3987872,97789830,4623977,97365252,4710368,2459003,6849281,457865577,63120,154591460,105934,73530,595289630,23391,3.85,1.45,1.4,0.08,0.0,123917568,90467000,33171000,138119921,19
84710601,2899506,43066566,881452,43078984,878388,99057,1037718,164855222,5673,86083943,566,1095,364998366,145,1.34,0.49,0.47,0.02,0.0,44496975,43263000,1006000,58807475,19
148795187,4838835,94084822,4641334,92870480,4636577,3938779,6719355,445068081,162844,147676130,81548,60746,579889419,20543,3.65,1.37,1.31,0.1,0.0,122232156,82324000,39674000,136539317,19
227604480,12970195,147838415,221694,148646343,216256,7933089,12883373,552634881,105226,226971706,139658,134763,894299099,40998,4.69,1.79,1.72,0.14,0.0,148951820,84816000,63861000,163470058,19
163301608,12856686,84168385,1038441,84126990,1036169,7958825,12766336,506606132,105259,163140947,111416,132098,591620686,40995,4.22,1.55,1.48,0.14,0.0,136824948,61799000,74758000,151282178,19
813008100,21411177,337822637,2321937,338273419,2297160,4627707,25695145,1019770245,681111,807501150,58235,72683,2618197562,20666,8.52,3.41,3.31,0.2,0.0,275171531,239927000,34989000,289417474,19
207878193,6621893,105806997,987425,108248406,1041321,4021043,6979084,354865352,60321,216421447,76216,66854,626759277,20591,2.96,1.11,1.06,0.09,0.0,95484934,62138000,33073000,109904824,19
160169969,3750706,107190522,143932,107190265,143778,2231630,6675081,388129561,57540,161276891,49133,75105,886806379,23390,3.31,1.26,1.22,0.07,0.0,104397802,72071000,32031000,118628478,19
209800632,12781934,149200177,264674,150648070,268616,8831765,13203293,573932388,313853,206825182,123008,122981,859273376,40943,4.86,1.78,1.7,0.15,0.0,151796456,69769000,81729000,166302872,19
957046739,27784147,419763096,2313559,418977599,2305541,5306059,32585115,1272592358,841568,951228733,99087,76155,3123590621,20699,10.7,4.34,4.2,0.24,0.0,343894109,308652000,34960000,358314486,19
143895927,12536644,64508234,207394,62981894,206071,7933916,13219236,516773464,113451,143542517,237044,132696,576037761,40997,4.31,1.56,1.49,0.14,0.0,139492271,73118000,66107000,153768019,19
711457510,10433788,342155174,2298557,339118249,2273088,5110700,15314119,1098810442,118332,706598619,154253,80553,2443860510,24735,9.12,3.62,3.51,0.21,0.0,296515956,255372000,40899000,310970141,19
845910320,109004070,363930799,422376,364052586,422089,9209677,189762190,1598812376,9917404,842450633,130983,165251,2881283117,49272,13.57,5.39,5.22,0.33,0.0,431646024,350246000,81057000,445728731,19
219657606,12022176,173128198,1106255,170111081,1060065,12170815,17934411,612601866,308657,213474399,123984,125182,1066022794,40941,5.22,1.98,1.89,0.18,0.0,164920711,87813000,76836000,179246709,19
147667908,4667186,93087064,3050644,92885428,3119192,3761812,6462547,409506153,138338,149636781,108767,60359,577434674,20537,3.44,1.32,1.27,0.09,0.0,110437290,71458000,38706000,124593209,19
92889333,527897,66973372,114081,66394918,111212,157359,1128060,108612242,4520,100628993,4821,856,287750572,519,0.91,0.36,0.36,0.02,0.0,30299058,29040000,968000,44608452,20
43678338,484676,38392879,99994,38414356,100160,149128,985206,61036372,3669,49120144,630,492,151912076,527,0.5,0.2,0.19,0.01,0.0,16629680,15336000,1022000,30976505,20
47074607,495982,39261996,93734,41122268,107316,133838,1106912,66777649,5910,43442735,6780,5925,148302417,1042,0.57,0.22,0.21,0.01,0.0,18329302,16943000,1058000,32668704,20
90121337,195533,56455612,64763,56607443,62758,134437,987518,108416233,4516,94164591,7108,2931,279777533,584,0.89,0.34,0.33,0.02,0.0,29565516,26326000,3037000,43889577,20
79080525,143414,43946016,68714,43988174,64975,129270,761186,90016713,4953,81211941,6827,1589,228415933,324,0.79,0.31,0.3,0.01,0.0,24348319,23108000,1004000,38532775,20
1294101,81436,1003708,29291,1002340,29226,61276,324997,6225287,4116,?,?,?,?,134,0.06,0.02,0.02,0.0,0.0,1765782,1497000,0,16078256,20
46410325,871235,38423655,99023,36986022,99462,211711,1441705,65990767,4954,49805579,657,519,163534522,917,0.55,0.21,0.2,0.01,0.0,17391659,16141000,1008000,31566181,20
41413122,687569,34337000,87512,39327006,96713,193352,1750055,70459391,6459,43480892,7921,9062,142103664,1943,0.56,0.19,0.18,0.01,0.0,20805815,12723000,7829000,35426266,20
30198239,260008,17415981,60676,18467969,61396,162924,744827,45845166,4194,32427595,4239,4574,99756664,1042,0.41,0.16,0.15,0.01,0.0,12289490,7950000,3975000,26566626,20
44644883,470723,39279763,100870,38010793,99618,147458,973070,62375599,3741,47196817,619,527,153204928,526,0.53,0.21,0.19,0.01,0.0,17309757,16026000,1001000,31508522,20
961157,75480,972752,28020,972130,27957,57751,312727,6469599,3602,?,?,?,?,130,0.06,0.02,0.02,0.0,0.0,1690806,1478000,0,15507347,20
44497169,822017,37832908,94944,42401834,109347,207350,1754002,71105256,7190,43461209,9545,10581,144159949,1945,0.6,0.23,0.22,0.01,0.0,19207465,13976000,4991000,33361532,20
749155,77958,994800,28653,994178,28591,58820,314349,6752094,3086,?,?,?,?,136,0.06,0.02,0.02,0.0,0.0,1717234,736000,736000,15703264,20
44709324,503376,35341807,93020,35005477,92066,133609,827345,52156530,2243,39159170,2244,1894,143460549,523,0.41,0.16,0.16,0.01,0.0,14290599,10066000,4026000,28366795,20
80254812,325972,48817363,73339,48965371,69271,170205,863418,99046877,3556,89238070,6888,1343,261996115,523,0.83,0.34,0.33,0.01,0.0,26565557,23541000,2942000,40834436,20
93043841,509648,66612450,119314,66742911,115806,170686,1171179,110241186,4844,101294934,4739,964,284689005,519,0.91,0.36,0.35,0.02,0.0,29666105,26551000,2950000,44116012,20
44781881,233619,38204270,78087,43049141,93064,133785,1067164,65126554,4309,50162008,2345,2309,174879639,524,0.56,0.22,0.22,0.01,0.0,17747668,16525000,1032000,31770911,20
76776667,180990,43411556,67244,44029135,56283,119315,721007,87547597,3404,79693627,4357,1374,229230065,326,0.74,0.3,0.29,0.01,0.0,23629049,22354000,1016000,37636433,20
31105046,117557,16032809,60862,16078047,58502,136969,582305,39873107,3496,33097836,780,845,103767240,331,0.36,0.15,0.13,0.01,0.0,10877145,9749000,974000,24996083,20
29419537,144672,17334332,59776,17301466,59304,104696,515002,40493414,1272,33241748,689,816,101587760,134,0.33,0.13,0.13,0.01,0.0,10874261,8671000,1926000,24711992,20
51842126,678978,38142128,85324,36906902,106353,212796,1572654,64059035,5533,43800671,1698,1245,164448112,916,0.55,0.21,0.2,0.01,0.0,18545739,15257000,3051000,32789094,20
80196234,113682,43473131,65087,43267949,59349,128943,750962,86128190,4364,80722026,5158,1362,233666960,327,0.73,0.3,0.29,0.01,0.0,23660896,21435000,2041000,37845678,20
45013405,831410,38375654,95320,42716518,106404,214136,1751486,71122690,7563,43310463,8379,10550,144504193,1945,0.57,0.23,0.23,0.01,0.0,19137398,16890000,1987000,33623152,20
583728,74134,986414,28790,985792,28726,58175,319132,6710712,2430,?,?,?,?,136,0.06,0.02,0.02,0.0,0.0,1749261,1467000,0,15880195,20
30475175,137968,16333747,56028,16219504,53878,123761,566503,39894591,2093,32488279,738,936,101217055,329,0.37,0.14,0.13,0.01,0.0,10949913,10786000,0,25031469,20
96421659,446050,67552662,113343,66856250,115489,177464,1224939,109656571,5438,99716745,5464,962,286579366,520,0.91,0.37,0.36,0.02,0.0,30020366,28768000,992000,44288346,20
45515028,493596,34955512,87153,34969428,87034,135638,906291,52275223,2510,39555014,2433,1965,140978594,522,0.4,0.15,0.15,0.01,0.0,14533273,11404000,2851000,28600194,20
32558803,310988,23281284,75694,23354064,76005,164978,868466,53032070,6010,41578612,508,469,128894689,526,0.46,0.18,0.17,0.01,0.0,13951783,12769000,982000,28101437,20
80863013,362396,52781540,93392,52761066,85539,155206,880757,98120093,3462,87507056,4627,2112,254786671,520,0.8,0.33,0.32,0.01,0.0,26274765,26075000,0,40424171,20
94714488,474357,67643967,105948,67640163,115435,163517,1359730,118244032,7432,96230453,8601,3997,292201221,1033,0.93,0.36,0.35,0.02,0.0,32303535,29075000,3007000,46622740,20
512995,71719,1021504,28767,1020882,28705,61302,317494,6739395,1606,?,?,?,?,139,0.06,0.02,0.02,0.0,0.0,1664348,728000,728000,15651675,20
99634627,689425,67298602,93065,69490401,111152,258440,2114055,123108531,8131,92670670,15929,9004,286814754,1940,1.0,0.41,0.41,0.02,0.0,33411805,28290000,4877000,47570254,20
34880532,155856,26377799,54293,26373079,55999,121901,722202,55163565,1955,38285447,1327,1240,147570992,319,0.47,0.19,0.19,0.01,0.0,14545233,14276000,0,28854274,20
93092748,579621,63694643,106048,63708720,102327,152685,970014,100184697,3419,91926497,6580,2081,273455781,521,0.85,0.35,0.33,0.02,0.0,27138217,24897000,1991000,41044546,20
77071336,172929,43354791,63354,43511697,54064,122748,723930,87998420,3511,79966702,4385,1412,230541334,327,0.74,0.31,0.3,0.01,0.0,23704631,21502000,1954000,37972021,20
583545,69120,1026698,29538,1026076,29476,62582,322306,6467161,1992,?,?,?,?,137,0.03,0.01,0.02,0.0,0.0,1688602,1474000,0,15623080,20
45020898,904140,38704358,108297,37656356,110465,226309,1388422,63116157,4612,50078897,618,550,158024188,916,0.55,0.21,0.19,0.01,0.0,16976589,14694000,1959000,31250428,20
43722131,904026,41893043,112334,46798122,119273,264114,2056143,79658349,9850,42459744,15983,14432,143458567,2815,0.64,0.24,0.23,0.01,0.0,21379709,15140000,6056000,35578893,20
44698498,416058,37143353,89062,38544092,97618,149489,1033614,62466380,4007,46034854,1154,841,151256328,526,0.51,0.17,0.16,0.01,0.0,18245250,17997000,0,32554486,20
99282283,420730,68501851,112909,67182345,115160,168941,1373617,112348312,7636,96469617,13141,3953,294390611,1035,0.96,0.39,0.38,0.02,0.0,30975449,29650000,988000,45385212,20
81902135,293811,47592908,68432,45719961,69384,253410,1107609,99242983,7239,85490371,6006,3831,250142221,1425,0.86,0.34,0.33,0.01,0.0,26387036,25116000,1004000,40779612,20
94915317,521955,69614080,127478,68004174,126827,167405,1323614,115028505,7358,97527241,10523,3678,290080965,1036,0.97,0.39,0.38,0.02,0.0,30879625,29628000,987000,45310328,20
96880077,422094,67688806,112729,65933357,113327,167728,1218970,110546096,6052,100257632,5511,990,289713065,520,0.93,0.37,0.37,0.02,0.0,30235925,28963000,998000,44534209,20
70051221,7249611,64459512,372997,64132329,377433,551832,2004954,168408307,11010,69267859,12291,10986,262398377,2674,1.37,0.54,0.52,0.03,0.0,45494565,42183000,3013000,59738503,20
96251369,491892,69015680,114024,67435156,115864,166102,1320907,116133801,6770,96488931,11075,3820,291182869,1036,0.96,0.39,0.38,0.02,0.0,31284234,30085000,1002000,45396709,20
38716243,443093,24639593,66928,23440535,67745,167289,1002205,49443800,3968,40655629,578,460,142881452,527,0.44,0.17,0.17,0.01,0.0,13601824,12251000,1020000,27897435,20
95216723,495037,68628694,111748,67712339,114898,156455,1317690,116634101,7022,97283150,10583,3757,291676860,1036,0.97,0.4,0.38,0.02,0.0,31538489,30269000,1008000,45731068,20
94170681,571813,56977837,104130,56109938,102578,131366,1247293,109956810,5769,99580912,9049,3642,287413668,779,0.94,0.38,0.37,0.02,0.0,30313128,29032000,967000,44707688,20
71650790,5075926,45962298,267132,46883709,270503,762285,2586085,221712657,15294,75225853,16308,19532,244943948,4139,1.73,0.61,0.59,0.04,0.0,59850605,53636000,5959000,74304717,20
43655775,522063,39878677,101603,39922076,103704,141872,1088005,67236906,5824,45117627,5944,5208,153471589,1043,0.55,0.21,0.21,0.01,0.0,18150369,14891000,2978000,32430961,20
80675875,383576,49988361,75722,50275723,74498,148619,1061494,101158158,4639,89545625,6358,3033,260503244,782,0.85,0.35,0.34,0.01,0.0,27274260,26070000,1002000,41422196,20
32926610,533498,25106550,82772,24932621,82934,197859,1003473,51249151,3117,37564003,5116,3730,129865783,918,0.43,0.17,0.16,0.01,0.0,13702492,10560000,2880000,27988039,20
95627130,521818,62915807,111664,62728764,110787,167001,1125044,101826797,7395,94809978,5897,817,282522982,519,0.84,0.34,0.33,0.02,0.0,27439698,25139000,2011000,41596293,20
688131,76387,985576,28722,984954,28660,58745,319344,6722317,3378,?,?,?,?,129,0.06,0.02,0.02,0.0,0.0,1720898,748000,748000,15868194,20
44247218,744474,36139319,86316,40028706,102688,216134,1745920,71588966,6548,43995957,11940,9688,148272322,1945,0.61,0.24,0.23,0.01,0.0,19594978,18276000,1015000,33736748,20
45711691,672993,34285630,81010,38116284,87099,185807,1769859,69786472,6904,45593842,8036,9523,148660774,1945,0.58,0.22,0.22,0.01,0.0,19945169,13761000,5897000,34410100,20
94072902,536043,62625685,100204,62736702,95392,173830,1146727,102299844,6466,95611040,6415,788,279370467,519,0.82,0.33,0.33,0.01,0.0,27395610,25178000,2014000,41626181,20
77103189,172206,43645055,65585,43681829,58304,121108,721127,89129442,4442,80080391,6628,1238,230585642,325,0.76,0.3,0.3,0.01,0.0,23869568,22678000,986000,37800730,20
29678925,162393,18098314,59642,18123505,60274,127003,579129,42075422,1855,32657520,1318,1488,101565340,329,0.33,0.13,0.13,0.01,0.0,11128716,10898000,0,25234755,20
44943967,895508,41871505,102904,46844438,110603,283492,2103482,79962791,10084,43963329,13513,14924,146429994,2816,0.67,0.26,0.25,0.01,0.0,21348895,18038000,3006000,35599419,20
37909571,457088,25590896,83731,23057908,84174,232035,1108287,50561214,10831,37745586,2252,447,138542637,915,0.42,0.17,0.16,0.01,0.0,13854538,12706000,977000,28062401,20
621284,79492,1013731,29608,1013109,29546,62075,319761,6898727,2311,?,?,?,?,137,0.06,0.02,0.02,0.0,0.0,1791504,1466000,0,15876210,20
871834,75817,1005165,29300,1004543,29238,60798,326212,7460178,3488,?,?,?,?,129,0.06,0.02,0.02,0.0,0.0,1839115,1484000,0,16285523,20
99908132,836011,69302584,116677,65698100,117156,249266,1720470,110998049,7018,96694806,5073,863,295496177,912,0.97,0.39,0.38,0.02,0.0,30342131,28081000,2005000,44797636,20
43574272,345866,41796882,96170,42898204,98660,133687,1065019,67099190,3711,46654779,2593,2219,176746303,522,0.58,0.22,0.22,0.01,0.0,17673416,15487000,1935000,32043218,20
1070238,79999,988006,28528,987384,28465,58092,312255,6615518,3731,?,?,?,?,131,0.06,0.02,0.02,0.0,0.0,1744059,1451000,0,16185827,20
94899697,527311,62932783,114188,62773220,114350,169119,1162368,103978488,7295,94302053,6312,1021,286483104,520,0.88,0.34,0.34,0.01,0.0,27958716,25732000,1979000,42328679,20
80326732,195736,45787627,62531,45796520,62046,153302,786934,92395067,5942,85011188,2312,1186,239382212,521,0.79,0.32,0.31,0.01,0.0,24829753,21628000,2949000,39077231,20
101486147,732590,73235855,124692,74503010,138008,219013,1745784,127458873,6356,105114941,5745,1628,345444830,912,1.08,0.43,0.41,0.02,0.0,34424599,32120000,2007000,48648207,20
94764205,510979,68942004,115573,67472185,115818,166713,1352024,117330982,7111,98453196,10077,3643,292260776,1037,0.99,0.4,0.39,0.02,0.0,31218284,29953000,998000,45664417,20
39953697,214841,27677735,56422,26488926,56668,188742,892488,60569801,6011,39971759,2686,2925,159252286,978,0.49,0.2,0.2,0.01,0.0,16403819,13081000,3018000,30509571,20
30385627,286973,18122604,59307,18922040,59159,167746,740141,46416105,4678,32548198,5258,4976,104321774,1043,0.38,0.14,0.15,0.01,0.0,12056228,8865000,2955000,26223688,20
99378184,423874,68104913,105982,66927994,113996,166662,1364913,114515303,7461,96498771,15231,3996,295925768,1037,1.02,0.4,0.39,0.02,0.0,31314523,29974000,999000,45738562,20
89591536,515397,53112893,74829,52365172,76109,206247,1614793,109835619,10118,86776308,15789,8633,256965633,1899,0.93,0.37,0.36,0.02,0.0,29804564,27486000,2036000,44049658,20
76201324,2575730,48165707,137647,44430376,142362,2784568,4490096,281196924,74325,71557942,132781,95423,281461597,31046,2.28,0.86,0.83,0.06,0.0,75836432,26842000,48714000,90040673,20
41691178,452085,32214976,83450,32650304,83210,145669,1065848,63621975,7110,41883209,6363,5218,149478771,1042,0.51,0.2,0.2,0.01,0.0,16916190,14724000,1963000,31131787,20
44592650,511990,38731773,91903,40054278,99316,144025,1083396,68116619,5918,45344111,7226,5905,153988619,1041,0.57,0.22,0.21,0.01,0.0,18312369,16064000,2008000,32295889,20
1344503,76176,1020551,28770,1019929,28709,62875,311592,6497408,4320,?,?,?,?,131,0.06,0.02,0.02,0.0,0.0,1711485,1449000,0,15705537,20
96212042,427832,66825446,107103,66610261,113077,158391,1228971,111322052,5489,98122600,6782,909,290464330,519,0.91,0.34,0.33,0.02,0.0,31756988,28477000,2945000,45945443,20
95850445,480793,67660340,108967,67680016,108827,166147,1189356,110634703,5547,103278888,4509,858,289514049,521,0.89,0.35,0.35,0.02,0.0,30060029,27866000,1990000,44204083,20
29913703,1984694,19271011,81108,21106850,83401,1686555,3744847,122648460,29307,34889127,55321,14490,112298966,12064,0.98,0.36,0.36,0.03,0.0,33053389,14915000,17898000,47411108,21
1327309,165796,6299741,32814,7116752,33030,63938,351645,12879444,1662,11153737,2331,?,?,136,0.12,0.05,0.05,0.0,0.0,3593210,1632000,1632000,17977125,21
334272169,330901,415655190,640888,415730196,633397,131661,2935602,769888922,18945,336352452,2560,5674,2262039662,139,6.0,2.26,2.19,0.11,0.0,207979620,205691000,1997000,222230778,21
500878504,303643,662401675,628976,664290744,633253,106508,2595511,705107448,18557,502720851,2345,5470,3349296897,138,5.69,2.26,2.18,0.1,0.0,190305878,189062000,1000000,204708038,21
67311796,3306678,67603298,192465,67434963,194620,1296671,5109303,121845496,28691,65202178,23552,8266,223222714,6141,0.99,0.38,0.36,0.03,0.0,32826474,22269000,10122000,47288070,21
2364044,215795,7058904,41790,8214296,33775,63736,366552,18137296,1586,12623520,869,2194,21689885,135,0.15,0.06,0.06,0.0,0.0,4877358,2767000,1844000,19130673,21
3902801,196044,7321953,41761,8885753,33141,58896,361413,20422951,1442,16761895,774,1630,38106925,135,0.18,0.07,0.06,0.0,0.0,5581853,3584000,1792000,19718148,21
1486344,193953,6114916,40936,10127125,33759,60120,360163,16574628,1573,16187416,766,2822,21968182,139,0.15,0.06,0.06,0.0,0.0,4529540,4324000,0,18529771,21
1348386,202775,5487063,43901,7107720,32534,61294,350672,17632082,1477,11499985,795,2089,24803635,138,0.15,0.05,0.05,0.0,0.0,4820045,4620000,0,18976898,21
69560044,1736344,85730818,201667,85160479,187629,411126,3012289,123030678,14701,67834707,16381,6041,294494964,3335,0.98,0.37,0.36,0.02,0.0,34017794,28789000,4963000,48496156,21
337218765,186775,497323922,619854,494917495,617907,112062,1864662,428512636,12198,338587006,1682,3036,1868251582,130,3.4,1.33,1.3,0.06,0.0,115425466,115240000,0,129704083,21
22765521,79215,12197122,54496,11621504,56951,99332,645812,49526183,2169,19096353,187,359,85555392,139,0.4,0.15,0.14,0.01,0.0,13660177,13436000,0,27845152,21
1294421,151997,3989530,40039,6652664,34682,65829,369505,17464282,1707,17939784,1122,1605,40427716,138,0.15,0.05,0.05,0.0,0.0,4485110,4295000,0,18459723,21
68788142,1546231,87103934,199151,92732925,196657,293219,2641922,130299197,12819,64712757,12933,12428,300105626,3141,1.04,0.4,0.39,0.02,0.0,34837842,28685000,5934000,49087397,21
335307357,260451,497519598,616918,496012711,629735,113301,2258222,538005191,15376,337231120,2787,4455,2365560681,138,4.26,1.67,1.61,0.08,0.0,144511742,143328000,1002000,158799596,21
165393424,24290825,109543770,961742,109976325,971308,1578247,6400594,776036381,36020,161937849,62655,13185,511408170,7941,5.91,1.93,1.85,0.12,0.0,209206582,199912000,8996000,223474450,21
838495163,566370,1666692126,2422926,1667037581,2438594,161446,6190445,1781095183,46011,840134429,9252,12308,7524131151,137,13.87,5.27,5.1,0.25,0.0,481638881,479648000,1998000,495850277,21
26090545,1010821,13085460,81270,12585874,73524,650990,1588315,89205622,14612,24812076,29349,7177,86860080,6208,0.72,0.26,0.25,0.02,0.0,23878538,17647000,5882000,38111385,21
1379182,144271,5304288,35438,8694549,33694,63270,363256,16433015,1560,16846921,1175,7461,9704662,132,0.12,0.05,0.05,0.0,0.0,4071379,3860000,0,18075225,21
15619240,978128,11295196,62458,11157115,62968,703825,1769938,61514346,13267,17995036,29701,7037,61833830,6095,0.5,0.19,0.18,0.01,0.0,16809537,13413000,3095000,31241861,21
13615982,290034,9919019,68825,8741968,57398,210327,853542,35953428,4974,14441099,12033,3030,50108407,2135,0.29,0.11,0.1,0.01,0.0,9641386,6631000,2842000,23773122,21
669422656,283924,498130117,613779,499821719,618287,124458,2628629,706140547,18841,671208985,2039,5429,2682053131,137,5.58,2.14,2.07,0.1,0.0,190546559,188312000,1992000,204825922,21
17651248,893783,10772532,62130,11575215,63280,755590,1793899,62469175,14216,18338332,26616,7037,63483715,6093,0.53,0.2,0.18,0.01,0.0,17130109,10479000,6287000,31416320,21
3459700,201784,7124167,39317,9137366,33714,61602,359874,18192941,1552,14897537,1045,3456,17158146,140,0.15,0.05,0.06,0.0,0.0,4935227,4728000,0,19124336,21
334948153,303034,499250681,598607,499223073,609192,236045,2383277,545094358,14744,336782649,2177,3998,2185208694,138,4.32,1.63,1.58,0.08,0.0,147776430,147376000,0,162016232,21
3387630,241611,7074027,44223,8868098,34046,66650,379550,20179639,1347,15880220,797,1594,44540141,134,0.18,0.06,0.06,0.0,0.0,5496806,4203000,1050000,19627541,21
336257011,220258,497698269,580713,499344849,590818,120748,2108659,493950457,14384,336926127,2098,3590,2021061100,135,3.93,1.49,1.44,0.07,0.0,133307253,132074000,1000000,147516980,21
336328661,369257,499701454,704284,499212840,714275,283048,4088193,1051920894,27380,336916883,4149,6639,2853399281,134,8.32,3.19,3.09,0.15,0.0,283635502,283516000,0,297820054,21
336596525,226269,497483723,609948,496856071,603580,112573,2015219,464529571,12942,338035668,1111,3091,2025476102,139,3.74,1.4,1.36,0.07,0.0,128648030,127385000,1003000,142938390,21
344023942,272427,502145230,772240,504157531,764325,113786,2238822,551632950,14499,344825483,2649,4062,2212078071,138,4.37,1.67,1.62,0.08,0.0,149534467,148309000,1002000,163701265,21
24841898,513661,15086601,62527,15480677,62244,325257,1276176,54634285,11708,15453146,24109,5946,67677592,4142,0.43,0.15,0.14,0.01,0.0,14757000,6773000,7740000,29148080,21
12565207,237524,6875576,50597,11443769,34839,61899,389012,23380378,1565,24863744,682,938,79780151,134,0.18,0.07,0.07,0.0,0.0,6101185,4818000,963000,19986645,21
340015165,345635,499936840,663430,499520001,654775,212855,3320911,882283978,23001,341490692,2794,6523,2360518477,133,7.06,2.76,2.68,0.12,0.0,237258403,236817000,0,251493023,21
16655883,101102,6518713,58980,5657095,57313,98210,510174,39387264,1526,14289655,509,666,46618190,133,0.32,0.12,0.12,0.01,0.0,10708142,9451000,945000,24795118,21
23609087,517072,11152552,58799,10457121,61112,648499,1357310,72881754,13103,20805517,20196,5932,76440538,4199,0.61,0.22,0.21,0.01,0.0,19294347,12998000,5999000,33691665,21
335803157,208680,498260184,599749,498293385,619304,125897,2215138,537735452,14759,336653704,2276,3751,2189316774,138,4.3,1.64,1.59,0.08,0.0,145441935,145216000,0,159616272,21
40154697,157010,14765262,61542,14972745,55107,80701,628975,83587502,3226,43146788,770,1011,113854989,138,0.67,0.25,0.24,0.01,0.0,22485344,21153000,1007000,36699838,21
93039116,4909177,111605172,258521,109809410,236780,1392191,6099048,193005003,29413,87255106,29634,20669,389661525,8093,1.58,0.6,0.58,0.04,0.0,52002965,35745000,15886000,66316463,21
336427803,247873,497911375,608549,497323766,620852,115068,2192414,535265299,14869,337761623,1942,4289,1522761795,134,4.35,1.71,1.66,0.08,0.0,145123524,143881000,999000,159300796,21
334844952,300429,498162555,621988,499509963,620764,188366,2762688,708170831,18664,336356514,2977,4792,1351143780,145,5.61,2.16,2.08,0.1,0.0,191089160,189634000,998000,205368263,21
946291,143185,6316496,30775,7092278,32334,59090,348780,14502772,1558,10082547,2743,?,?,137,0.12,0.04,0.04,0.0,0.0,3627216,2554000,851000,17657868,21
19098852,284674,8559714,57307,8490582,58499,579928,1135937,56569282,10997,12063387,13578,2020,55401215,2198,0.44,0.17,0.17,0.01,0.0,15511871,9570000,5742000,29851542,21
675251834,278946,498610217,637758,498994475,627525,124461,2539197,624554750,16263,678258794,2675,4745,2706609249,138,5.03,1.95,1.88,0.09,0.0,168889980,167656000,997000,183282409,21
1154171,159978,4601442,37861,7254780,34255,61900,368041,16492221,1700,11081579,1027,4479,8438755,136,0.11,0.04,0.04,0.0,0.0,4395712,2500000,1667000,18675431,21
18441307,388525,11921233,70201,14113839,70391,226332,825433,41318704,5748,22194339,12190,3835,62659883,2141,0.35,0.13,0.13,0.01,0.0,11357668,6432000,4594000,25643459,21
22705167,229330,13898984,66374,9648584,59898,245519,946010,40171224,5349,20959988,10419,2836,66168481,2140,0.33,0.12,0.12,0.01,0.0,10595981,6182000,4121000,24805299,21
335699249,317852,663055117,623165,665487670,630580,107436,2739970,702902712,18563,336333829,2639,5029,2845197961,144,5.59,2.14,2.07,0.1,0.0,190323822,189090000,1000000,204381741,21
648051,104197,3453832,35459,6610037,32072,67399,351698,13316289,2299,11243738,2140,?,?,138,0.12,0.04,0.04,0.0,0.0,3647831,3371000,0,17577716,21
1250612,164712,5257212,41911,9434099,34587,60903,360728,18537862,1591,18829476,971,1212,42435193,136,0.15,0.06,0.06,0.0,0.0,4761825,4512000,0,19013010,21
589443,85902,1417420,29765,1416798,29703,64144,328818,8368118,2372,?,?,?,?,144,0.09,0.04,0.03,0.0,0.0,1964771,840000,840000,16236642,21
1350957,254074,6439678,48321,9018762,34366,66684,376287,18315028,1475,17073896,810,1191,39890394,138,0.15,0.06,0.06,0.0,0.0,5049667,4858000,0,19078056,21
23325306,550801,11437619,59875,10911998,56690,636501,1415331,72062595,13157,20301673,19883,4949,71360082,4202,0.6,0.22,0.21,0.01,0.0,19682204,6783000,12597000,34061683,21
1583123,167499,5442195,39791,9566853,33035,60276,354868,17825944,1530,19845293,1190,1967,41218316,136,0.15,0.05,0.05,0.0,0.0,4670196,4418000,0,18872523,21
678238915,50102616,500894504,649586,499609954,644672,122598,2559430,627088171,17846,676218764,2658,3744,2540111296,150,5.11,2.03,1.97,0.09,0.0,170587298,169406000,1002000,184916193,21
335945859,251244,333689726,606590,332713001,614723,121839,2216973,536097941,14538,337005326,2229,3574,2363498337,132,4.23,1.65,1.59,0.08,0.0,144503882,143300000,1002000,158668987,21
75306328,1730744,44112113,110757,39220933,92290,837515,3056612,71590953,13739,52925317,10644,2633,187159430,2083,0.62,0.24,0.23,0.02,0.0,19480321,14175000,5062000,33752512,21
10477477,156439,5287619,61386,4457526,49572,85462,438082,37663910,1077,9565213,536,729,32224749,131,0.28,0.1,0.1,0.01,0.0,9973261,8744000,971000,24241082,21
879711,126540,3877454,40369,7922423,33613,63134,360202,15819859,2111,15832158,1576,1677,29927949,153,0.12,0.05,0.05,0.0,0.0,4324119,3074000,1024000,18332337,21
334440951,362421,498709409,677367,498769437,669326,142315,3171900,877979715,21704,336362275,1917,5679,2346897822,140,7.04,2.79,2.7,0.12,0.0,236523840,235339000,1001000,250793069,21
335645207,297024,500830091,606791,499977202,617115,126030,2588395,593729601,16823,336074381,2688,5261,2518056196,137,4.66,1.79,1.74,0.08,0.0,160864861,159628000,997000,175238645,21
22948233,533085,11461519,61969,10821439,57628,637703,1422702,72232817,12818,19810043,19689,4932,70319871,4203,0.61,0.22,0.21,0.01,0.0,19746071,12643000,6808000,34110592,21
11010819,258844,6666469,70537,6740572,50428,211633,787890,34682236,5944,12663168,8545,3357,41818116,2136,0.28,0.1,0.1,0.01,0.0,8969454,1929000,6752000,23356532,21
337449805,204934,498269289,755621,499114417,766196,107726,2164418,538088082,15764,336387856,2391,3880,2190972624,135,4.24,1.61,1.55,0.07,0.0,147454900,146238000,1001000,161883647,21
337209656,232779,497456934,591705,498057554,570194,115277,1888264,455268541,11271,340127320,1892,3427,1863321310,132,3.62,1.41,1.37,0.06,0.0,122814786,121529000,1004000,136995505,21
18124378,960034,11012628,64347,11638610,64693,743635,1775628,62645747,13889,18825047,28492,6990,63828134,6097,0.5,0.19,0.18,0.01,0.0,16906688,7308000,9396000,31061519,21
37241960,2029102,26763498,92637,19603894,75377,748964,2115221,47190195,7871,29623921,11228,1646,131389142,2084,0.44,0.17,0.16,0.01,0.0,12994228,6841000,5864000,27513389,21
345745599,1031957,508212204,692292,508288409,670483,405665,3623710,916579379,59625,343836478,20941,11788,3695791603,4035,7.24,2.74,2.65,0.13,0.0,249171001,237955000,10997000,263478852,21
178003543,9318384,161877343,320192,168314222,284052,4935911,13397484,289041271,45659,187313849,60213,13975,696538196,9996,2.46,0.96,0.93,0.07,0.0,78343478,63278000,14831000,92839318,21
26925885,1570923,14896425,77763,14260245,77413,1769683,2330119,110800782,24174,24300030,40039,8505,87853868,8645,0.89,0.33,0.32,0.02,0.0,30066459,13897000,15882000,44634492,21
1034761,155489,4990627,33749,7601189,32548,62974,349228,15908192,1576,11164777,1579,?,?,135,0.15,0.06,0.05,0.0,0.0,3965025,1851000,1851000,18235881,21
1283825,153935,5404735,33736,7214404,32782,62099,346285,15988504,1519,11258929,1133,3517,12306139,131,0.12,0.04,0.04,0.0,0.0,4269605,3000000,1000000,18224238,21
335076804,349410,499294022,664771,499663338,661866,241303,3450885,881904768,21593,337566971,3167,5554,2348178860,144,6.98,2.69,2.61,0.12,0.0,236989706,234630000,1996000,251217076,21
3570840,166234,6047866,34063,7078121,32744,57908,346243,15891889,1335,11432036,1484,330,243834,135,0.15,0.06,0.05,0.0,0.0,4374746,3122000,1040000,18549746,21
2448213,168141,5997952,34700,7645001,32470,63065,345638,16548669,1561,15699286,1611,?,?,133,0.12,0.05,0.05,0.0,0.0,4295596,3058000,1019000,18509552,21
170937074,190810,498341988,581496,498042720,605623,113780,1921694,432027919,12164,170874376,1946,3312,2020374940,137,3.46,1.32,1.28,0.06,0.0,117405612,116141000,1001000,131723815,21
337291761,194113,330919392,605558,330861625,595250,121319,1859608,417813183,12058,339482005,1809,3723,1866462930,140,3.35,1.28,1.24,0.06,0.0,113675826,113421000,0,127904198,21
335229697,276370,333362849,617365,334439074,615426,112906,2684849,703553947,18205,335215942,2937,5273,1844531321,132,5.59,2.2,2.14,0.1,0.0,190507915,190255000,0,204634778,21
58812885,1632151,67605087,199366,74463915,214386,326805,2511540,92894909,10100,53696502,17561,4511,197047706,3135,0.74,0.28,0.28,0.02,0.0,25001037,16842000,7925000,39219240,21
16279017,979345,11209542,63747,11396209,63643,732469,1771103,62688632,13519,17554503,33116,7184,62078675,6093,0.53,0.19,0.18,0.01,0.0,16841938,5860000,10744000,31088574,21
2182988,156242,5921587,33492,7102717,32525,62298,352398,16977801,1470,12022208,1493,?,?,134,0.12,0.04,0.05,0.0,0.0,4327917,3038000,1012000,18230889,21
27747417,231285,14605880,58778,14668782,58590,153188,619593,42618172,4401,33522274,765,762,103118451,525,0.33,0.13,0.13,0.01,0.0,11175063,8961000,1991000,25353799,22
77322550,194080,42900758,63236,42908411,56098,139642,766516,89242381,3433,81656394,2637,1211,235214721,520,0.73,0.3,0.3,0.01,0.0,24139064,21861000,1987000,38303899,22
29125044,282973,16560088,58088,17071396,61027,167889,746017,45634650,4517,31530359,5055,2415,101669783,1042,0.38,0.14,0.14,0.01,0.0,11993930,9516000,2114000,26165584,22
27114572,197941,15310626,60074,15324572,59893,119651,550731,40384762,2574,31142894,796,734,96385985,327,0.33,0.13,0.13,0.01,0.0,10863405,8709000,1935000,25049507,22
30254365,202181,15298427,57933,14691147,59491,167275,642462,40868653,5288,32615315,739,788,101062153,525,0.36,0.13,0.12,0.01,0.0,11148540,9825000,1091000,25285759,22
30317411,190604,14543677,61187,13828689,58133,161626,630519,39855662,2805,33143119,726,896,103844036,528,0.35,0.13,0.13,0.01,0.0,10643108,9362000,1040000,24812575,22
28567937,115812,15092147,61987,15113258,59620,107235,516119,37856822,1448,30408250,670,920,93156035,134,0.34,0.13,0.12,0.01,0.0,10359165,10045000,0,24482378,22
27894596,124901,14688686,62765,14685165,56076,100438,506686,36155674,1519,29679432,647,747,92279843,136,0.32,0.12,0.11,0.01,0.0,10144093,9865000,0,24154752,22
78124428,231663,43538725,69385,43494491,61787,167202,839821,90444772,6597,80557000,3449,1187,232980131,516,0.78,0.31,0.31,0.01,0.0,24061402,21811000,1982000,38380813,22
27498547,244753,13955682,61133,14126276,59106,152764,610721,41048463,1983,32508997,657,863,100667819,526,0.34,0.14,0.14,0.01,0.0,10782887,8642000,1920000,25104184,22
75957193,151339,43716648,63910,43746679,53732,91494,665379,87337261,2727,79392745,3357,1163,229960546,129,0.73,0.3,0.29,0.01,0.0,23534551,20405000,2915000,37628971,22
51929528,750883,33345497,86160,31535788,74904,777471,2066627,87928488,13293,57949053,11922,4645,198008496,3260,0.77,0.3,0.28,0.02,0.0,23613152,16151000,7066000,37961439,22
74639554,244064,44687592,66853,45246602,66647,162349,858123,90317214,3393,80211403,5019,3341,224912425,520,0.74,0.26,0.25,0.01,0.0,26486065,24233000,2019000,40911293,22
76708601,241917,42625291,66644,42881571,58131,143619,802339,90049116,3557,81762924,2403,1187,236241271,522,0.74,0.31,0.3,0.01,0.0,24117517,21857000,1987000,38620826,22
77256051,246401,43708767,67816,43626380,60435,150381,807858,91065237,4970,81226117,3793,1147,235482682,517,0.76,0.31,0.31,0.01,0.0,24382871,22110000,2010000,38770834,22
29651356,151166,15141187,59464,15118816,56714,131837,582982,39430215,2089,31949524,684,907,99414604,330,0.33,0.13,0.13,0.01,0.0,10808447,9631000,963000,24901730,22
139877118,3271499,90008806,169439,85507830,170389,3490204,5667701,394814475,92109,126358404,183719,42247,456921530,39195,3.2,1.22,1.18,0.08,0.0,106747560,40168000,66278000,121151698,22
26966201,253298,14319234,59270,14268477,55042,145564,593193,41220116,2797,32001725,866,813,102399802,527,0.33,0.13,0.12,0.01,0.0,10873112,9537000,1059000,24971093,22
80264780,152800,43296120,62715,42830866,55428,142390,771536,87434753,4150,80343552,3957,1257,233945181,521,0.75,0.3,0.29,0.01,0.0,23747709,22497000,1022000,37936901,22
78964978,211369,43356671,66341,43211228,61596,148266,811896,89999981,6554,81061454,2267,1144,234764522,518,0.75,0.3,0.3,0.01,0.0,24107038,23820000,0,38085540,22
26836250,197465,15123542,59266,15108777,58970,122605,548399,41048370,1583,31525719,804,839,99234022,330,0.36,0.14,0.13,0.01,0.0,10942269,8771000,1949000,25193033,22
29938478,365598,14890843,59604,14519893,60785,193450,702991,44099085,2819,36344138,3095,2663,104456034,916,0.37,0.14,0.14,0.01,0.0,11911987,10560000,1056000,26089260,22
25798959,159548,15106733,60074,15112901,51459,95360,474666,38525830,1097,29373964,673,794,93613251,134,0.33,0.13,0.12,0.01,0.0,10233393,9029000,1003000,24511929,22
72207226,5516485,44048917,268468,44331006,266492,608182,3505324,208244939,10150,79695085,21561,4503,248796831,3261,1.6,0.59,0.58,0.03,0.0,56168399,50907000,4990000,70295859,22
28821049,164633,14925984,59818,14805093,57610,135304,576342,40016407,2004,32167773,730,912,99504903,329,0.33,0.13,0.13,0.01,0.0,10689976,10442000,0,24933207,22
79124966,186661,43437301,64662,43047047,62237,150591,794878,89020516,3835,82250853,4505,1451,236190614,519,0.75,0.3,0.29,0.01,0.0,24626725,21481000,2929000,38870102,22
79144976,234957,43754228,66516,43587080,59421,152799,825874,90124632,6457,81516813,2917,1104,236067557,518,0.79,0.31,0.3,0.01,0.0,24067601,22814000,991000,38246268,22
77754380,228629,42981082,65294,43104596,65131,152336,825665,91174607,6559,84271974,2047,1161,233587406,520,0.75,0.29,0.27,0.01,0.0,25243348,24012000,1000000,39502269,22
27308944,237483,14019348,59585,14056946,60287,148716,617392,41431351,2240,33081385,661,880,102776355,526,0.33,0.13,0.13,0.01,0.0,10969568,8738000,1941000,25323571,22
76488765,198496,43731933,65266,44275752,56221,121054,725615,89117690,4129,79215787,4370,1095,229982562,322,0.77,0.3,0.29,0.01,0.0,23791752,19604000,3920000,38112189,22
26998118,258066,14497477,61119,14288107,54640,157091,609146,40359765,1837,31799187,729,884,99288666,523,0.33,0.13,0.13,0.01,0.0,10976901,8545000,2136000,25247999,22
32583399,292181,17022593,61137,14729464,61163,253182,770112,45132133,9724,33918684,539,642,110348522,914,0.39,0.15,0.14,0.01,0.0,12154118,9719000,2159000,26246385,22
79075438,217751,43834836,68580,43675484,64226,249883,916699,93144725,4012,81049527,3434,1274,236677158,521,0.8,0.32,0.3,0.01,0.0,24024309,23670000,0,38399704,22
74333591,2962712,52947759,288885,54917819,307000,579860,1694697,134982938,12051,80745483,13856,3460,257259402,2868,1.11,0.43,0.41,0.02,0.0,36634893,31280000,5045000,51049550,22
76331753,173407,44148034,60630,44702983,60932,127384,895288,89719451,4727,80990996,4473,756,226942524,322,0.71,0.23,0.23,0.01,0.0,27265727,25012000,2001000,41550316,22
74860958,215935,43644903,64778,44907864,54743,117576,712636,88725869,3352,79721054,6290,1267,231938122,326,0.78,0.3,0.29,0.01,0.0,23827057,22546000,1024000,37876016,22
26112950,237124,15460472,58206,15406464,59661,144672,548755,41243601,1813,30732889,3762,1492,95088817,524,0.33,0.14,0.14,0.01,0.0,10979336,9794000,979000,25385002,22
29876306,197947,14601890,59008,13980954,58409,164952,636576,40704735,2663,33168637,821,872,104025307,526,0.34,0.13,0.13,0.01,0.0,10871581,9549000,1061000,25133375,22
75560022,154927,43639660,63969,43897276,54545,94662,661083,87135523,2785,77800518,2862,1216,223287307,127,0.73,0.3,0.29,0.01,0.0,23585210,21407000,1946000,37455118,22
27935503,121821,14502807,62080,14513834,53772,93665,485665,36579730,1621,29300801,684,838,92954631,133,0.3,0.12,0.12,0.01,0.0,9935589,9694000,0,24103386,22
26128294,154467,14981142,60450,14984060,54350,99887,491314,36480750,1231,29149803,762,722,90906703,134,0.28,0.1,0.1,0.01,0.0,10524581,9262000,1029000,24776792,22
30754741,201979,15122882,59518,14529174,60061,169149,656076,40054346,2844,33236257,586,829,101748320,524,0.32,0.13,0.13,0.01,0.0,11104734,9789000,1087000,25195626,22
28375804,242321,14411402,59671,14504238,59690,147579,615206,41653311,4016,33543927,896,783,102668845,524,0.34,0.14,0.14,0.01,0.0,10930682,8765000,1947000,25210395,22
79107997,226951,43841768,63959,43631259,58134,136704,773687,89229336,6405,81552312,2835,1176,237816017,518,0.75,0.31,0.3,0.01,0.0,24182808,22962000,998000,38199943,22
27092509,258856,14248711,60504,14266581,55217,151530,608316,40557738,1793,31804295,656,879,99490754,525,0.33,0.13,0.13,0.01,0.0,10844582,8478000,2119000,24851174,22
76365539,234467,44284522,64534,44214939,62734,125839,741358,88875373,3077,79574515,3992,1569,226501659,516,0.73,0.29,0.28,0.01,0.0,24598431,21456000,2925000,38815688,22
27788157,213221,15361097,59037,15281376,58365,134957,550642,39939762,1974,31139113,3693,1883,95436417,524,0.34,0.13,0.13,0.01,0.0,10680480,10466000,0,24824799,22
27630713,303893,16316089,60708,17095671,60820,155507,731113,44693535,4397,31595805,6085,3421,97239603,1041,0.37,0.14,0.14,0.01,0.0,11936267,8735000,2911000,26290270,22
25353572,154573,15096878,59640,15072644,50924,92758,478722,38871997,1273,29307684,687,748,93911901,133,0.33,0.13,0.12,0.01,0.0,10273266,9049000,1005000,24507839,22
26442544,256186,14088315,61567,14222433,55776,147447,602991,40976661,1856,31835554,800,889,100251666,526,0.35,0.14,0.13,0.01,0.0,10861918,9529000,1058000,25079216,22
77579095,235441,42782509,64032,42791624,57229,147301,782378,90261102,3662,81126544,2605,1252,234027631,520,0.78,0.32,0.3,0.01,0.0,24142779,22871000,994000,38570199,22
75130606,203156,43765666,64010,44086201,57832,128609,730264,89740369,3536,78843350,6862,1603,228028266,517,0.77,0.31,0.31,0.01,0.0,23847877,20614000,2944000,38470173,22
47094572,315926,28268563,63254,26106606,66154,383682,1435847,70226755,9350,33805716,15909,7702,141689715,2995,0.58,0.22,0.22,0.01,0.0,18847753,12382000,6191000,33009460,22
26454124,146947,14426519,62349,14634942,52811,99937,485895,37680516,1392,29324606,579,778,92297960,134,0.3,0.12,0.12,0.01,0.0,9938965,7782000,1945000,24225438,22
29987122,201587,14622764,61140,14220415,59196,162854,631265,40539379,5091,33371978,739,803,102650095,523,0.34,0.14,0.13,0.01,0.0,10790819,9471000,1052000,25129402,22
28308721,234482,14548131,58948,14433730,58302,159733,602017,40746807,2449,32714589,713,1131,99841233,526,0.34,0.13,0.13,0.01,0.0,10914421,8712000,1936000,25159076,22
28671613,227462,14914983,60297,14915991,60547,153903,623387,41155453,4818,33320007,772,763,102679602,524,0.36,0.14,0.13,0.01,0.0,10953418,8776000,1950000,25063686,22
34774204,229680,18636853,57666,18675316,56650,172040,790073,48019225,4160,40801314,512,515,117010835,526,0.38,0.14,0.14,0.01,0.0,13092937,10867000,1975000,27507564,22
28236691,232624,14094077,60427,14098145,61651,151739,626504,40666850,2343,33125058,662,883,101576968,525,0.33,0.13,0.12,0.01,0.0,10921308,8706000,1934000,25210781,22
79978760,192252,43703396,66598,42883092,63267,151315,821532,88795654,4270,81603926,3026,1335,236715251,521,0.76,0.3,0.3,0.01,0.0,24213757,20061000,3821000,38338487,22
77131445,124477,43137077,65540,43048920,56410,93443,660046,86048124,3043,79269029,3016,1164,227720418,128,0.72,0.29,0.29,0.01,0.0,23329972,20168000,2881000,37463396,22
81523079,312837,45434728,69227,43492153,64939,231126,884882,95154561,11260,84194707,2796,1655,247101053,909,0.8,0.33,0.32,0.01,0.0,25785643,22484000,2932000,39877068,22
28545896,179773,15592631,61580,15346517,59258,135513,601644,41071267,2130,32470750,692,823,102255310,330,0.33,0.13,0.13,0.01,0.0,11026524,10729000,0,25094432,22
86632615,404212,47739830,62504,43393317,66992,373448,1295826,99175515,16702,83857660,5142,776,255625115,1299,0.83,0.34,0.33,0.02,0.0,26983628,23557000,3072000,41210637,22
36463493,138168,18291268,64172,18070436,59889,155831,550619,42128066,1808,39160971,457,816,113945561,133,0.38,0.15,0.14,0.01,0.0,11555633,10026000,1002000,25925924,22
75502165,156674,43123547,64096,43815074,55152,94570,658362,86816774,2866,79789547,3209,1116,229181943,128,0.74,0.3,0.29,0.01,0.0,23391589,21060000,2005000,37541163,22
30245919,194903,14784553,62526,13946911,60493,166049,654762,40625814,2766,33033969,734,859,104569517,526,0.35,0.13,0.13,0.01,0.0,10872188,8611000,1913000,25092462,22
37185421,465995,23514753,72296,24387977,74724,153598,966465,57078026,6317,40086187,8426,2257,137573534,1042,0.48,0.19,0.18,0.01,0.0,15489478,13143000,2022000,29503125,22
27474845,233703,13900168,61214,13918998,60303,149957,622420,41902170,2510,33084782,640,960,102989022,524,0.34,0.13,0.13,0.01,0.0,10874693,7708000,2890000,25306105,22
78896430,214765,43228450,64903,42996210,58815,141451,797393,89727887,6720,81734900,2117,1106,237585838,518,0.78,0.32,0.3,0.01,0.0,24013816,23784000,0,38124479,22
78622512,225654,42701029,66379,42700216,57487,145833,800858,90174417,4023,82289821,3083,1230,237836562,520,0.77,0.31,0.3,0.01,0.0,23900491,21647000,1967000,38121962,22
28834679,297058,16293108,58499,17230086,60190,169861,720092,46056257,4467,32589651,6027,3522,101556060,1043,0.37,0.14,0.14,0.01,0.0,12085195,10842000,985000,26353682,22
79717541,200235,43575845,65192,42990973,61418,148854,785660,89049285,4019,81561314,4130,1237,235527657,520,0.74,0.3,0.3,0.01,0.0,24200027,23015000,1000000,38486784,22
31617557,174966,15699861,59859,14369645,60287,177910,673153,40124551,5501,32668944,533,767,107103163,522,0.33,0.13,0.14,0.01,0.0,11157008,8913000,1980000,25491014,22
28491466,225028,14611208,59423,14640438,59211,172904,637915,40643061,2634,33088371,746,861,101770474,525,0.32,0.12,0.12,0.01,0.0,11028359,8983000,1996000,25555081,22
78350961,221111,43344064,64906,43312579,64826,153067,818845,92945373,6780,83477109,3737,1144,236514165,517,0.79,0.32,0.31,0.01,0.0,24818931,22583000,1963000,38992835,22
77562377,115608,43842816,63287,43810071,55322,90754,670416,88490933,2966,79515552,5289,1123,228906808,126,0.75,0.31,0.3,0.01,0.0,23943575,23702000,0,38036857,22
31234075,177829,15447276,61047,14192025,61382,167428,667484,39910188,5501,32876422,718,747,105556960,523,0.35,0.13,0.13,0.01,0.0,10965758,9446000,1049000,25397653,22
27315825,215525,14116145,59889,14082927,53989,146640,592050,40039348,1833,31500898,826,957,98862595,527,0.34,0.14,0.13,0.01,0.0,10704113,9384000,1042000,24805950,22
31383875,168868,15481977,64066,13913622,64151,185074,692352,39656897,3752,31927917,706,829,103713610,526,0.35,0.13,0.13,0.01,0.0,10831233,7679000,2879000,25192118,22
113950484,3626601,87718028,561729,86345226,615328,1659140,8632416,261481757,55989,104301315,43709,10556,393483885,7153,2.17,0.85,0.82,0.06,0.0,70909504,59408000,11076000,85477280,23
307780159,3068296,190610813,1074996,194183965,956691,889373,8104117,429604027,46240,316834883,22679,6217,931959383,1864,3.67,1.48,1.44,0.07,0.0,116243397,108878000,6992000,130433117,23
318436346,2942311,193536823,1346583,188277739,1303808,1609415,9618091,442112928,45171,319788923,27120,12062,954297435,3045,3.79,1.52,1.47,0.08,0.0,119641817,112189000,7011000,134011051,23
308055763,3257766,189378038,1185454,192038960,1088804,1177489,8623002,440080575,46303,317113800,23774,5217,931651399,1872,3.78,1.49,1.45,0.07,0.0,118304251,113838000,3994000,132388402,23
109146011,3187452,72524385,720390,70863034,767487,1808609,8317568,243997009,105029,111501325,16544,5045,380510170,2472,2.02,0.78,0.76,0.05,0.0,66009796,59560000,6056000,80364458,23
311317998,3255206,190457296,1206533,190580178,1099689,1114957,8696937,438546020,45527,316374070,23149,5700,937289732,1864,3.82,1.51,1.46,0.07,0.0,118337366,110946000,6996000,132719128,23
309097726,3036464,192063358,1152702,194304173,1081339,1062737,8574099,444912739,49142,315503688,24047,8016,940437597,1955,3.82,1.52,1.47,0.08,0.0,120138702,112737000,6983000,134497338,23
82965564,961411,58787415,257479,58038569,290212,155865,2282257,128052395,5792,79242889,2315,1683,264704312,379,1.05,0.42,0.42,0.02,0.0,35005042,31751000,2976000,49364225,23
101621580,2740976,70896442,734981,75991587,657322,1430591,7798006,226041507,36836,111825687,13479,4115,363567059,2027,1.87,0.72,0.7,0.05,0.0,61494617,54084000,7010000,75868485,23
107680514,3450302,73195073,799678,72876368,692498,1348970,7916377,236411913,44394,109743537,31530,6613,377650498,2604,1.96,0.75,0.73,0.05,0.0,64249150,59985000,3999000,78799879,23
107794417,3095656,74132489,721207,73754676,765672,2118577,8521605,256862590,114071,111853674,41991,22068,380791223,2565,2.15,0.82,0.79,0.06,0.0,69427461,60153000,9022000,84028420,23
123785002,3005252,82243599,652927,81384186,688245,1953909,9158265,269492658,126330,126866833,26091,12031,415991166,2430,2.23,0.84,0.81,0.06,0.0,72908750,67653000,4974000,87319030,23
117981111,7639142,78100984,1822714,77563510,1876807,2586692,19327150,298913161,294226,123610536,18586,10065,402117332,2657,2.53,0.98,0.95,0.07,0.0,80294585,74908000,5061000,94346810,23
109341548,3156518,73283707,712413,70352494,762920,1790479,8337718,241640937,107105,110848464,15901,6332,383150338,2474,2.01,0.76,0.74,0.05,0.0,65825277,61534000,4035000,80217644,23
108698980,3087420,74418864,727156,73723476,776667,2105885,8540845,254680516,111956,112526397,37387,13599,381397468,2497,2.12,0.81,0.78,0.06,0.0,69309490,66108000,3004000,83764427,23
106236071,3387105,70257257,819622,69953820,793654,1987942,9297944,236613780,100433,113762852,10379,5008,372627244,2374,1.97,0.75,0.73,0.05,0.0,63947609,59700000,3980000,78406650,23
110950392,3438540,76135771,733881,73118581,792257,2315183,9976729,258214585,138542,112986165,29231,13369,384906170,3121,2.15,0.83,0.8,0.06,0.0,69816727,63505000,5953000,84111222,23
104641810,2949464,72537019,822332,74271376,721383,1146720,7650488,236183748,44686,109728126,12406,6987,372353973,2107,1.97,0.76,0.74,0.05,0.0,63919320,60553000,3027000,78146181,23
306899556,3202981,190203473,1139222,192795968,1056424,1078223,8596506,438619941,50477,315883795,24294,7169,926415038,1890,3.86,1.51,1.46,0.07,0.0,118333945,114005000,4000000,132717744,23
101481420,3211513,72113909,672347,75249030,588150,1119391,7896199,227595088,53521,108651333,10850,3738,355361771,1986,1.92,0.73,0.71,0.04,0.0,61657605,58359000,2967000,75920524,23
318144433,3030361,195017790,1328035,190501331,1367195,1393271,10307667,449675657,64435,317751635,21654,5712,960021667,2049,3.89,1.54,1.51,0.08,0.0,121252196,119024000,2000000,135435939,23
98552526,3233616,72529886,675221,75429011,630870,1129310,8086309,218359235,47169,105740345,12271,3318,339757284,2081,1.82,0.7,0.68,0.04,0.0,58955759,51632000,6950000,73301311,23
100427480,2653425,69946881,724440,74021875,647745,1133854,7712679,222726792,33792,110652319,12085,2950,359937721,1960,1.86,0.71,0.69,0.04,0.0,60477400,59110000,1001000,74893028,23
126926090,3592616,82962419,775608,77735985,763674,1429938,8064516,248031699,44080,129901429,11821,5172,426471824,2210,2.12,0.8,0.77,0.05,0.0,67576264,61200000,6019000,81978047,23
290521489,893895,179430987,761919,178296408,829416,158318,2668326,339134186,11173,286758514,18593,3361,839884716,286,2.95,1.2,1.17,0.05,0.0,91643787,89273000,2006000,105922334,23
149484630,9804345,103774111,5097866,102567427,5101027,2679189,22851120,611994494,354618,155218035,17549,10103,511874100,3603,5.04,1.85,1.78,0.12,0.0,165816612,158353000,7015000,180228244,23
104465993,3311446,68996757,785838,70434085,744844,1899056,9001126,237431811,95072,114365200,12493,6218,367393399,2410,2.02,0.77,0.74,0.05,0.0,63791280,58495000,4957000,78039069,23
106098975,3334048,70228933,781347,69880209,761179,1921954,9135528,237279700,95151,114377553,15722,4433,372873618,2387,1.96,0.74,0.72,0.05,0.0,64052778,57733000,5972000,78169375,23
306429744,3226515,187650073,1145381,191918715,1067875,1265343,9272991,435341862,45367,317789682,24396,5333,923648245,2038,3.79,1.5,1.45,0.07,0.0,116949744,114687000,2012000,131129613,23
101870434,3161014,70556839,717223,73960127,635015,1060790,7914691,231476883,44812,111266407,11225,3029,358440724,1891,1.93,0.74,0.72,0.04,0.0,62108747,57846000,3989000,76462275,23
313485805,3110585,193917804,1169219,193662010,1103687,1172559,8315404,452135829,50053,316725329,18088,10142,955387997,2558,3.88,1.52,1.47,0.08,0.0,121516511,117295000,4010000,135914412,23
110610545,3578226,86595623,603679,86690893,598631,2157522,9865804,274252476,55739,106757727,45269,17932,381661179,7127,2.32,0.86,0.84,0.06,0.0,73910541,62727000,10952000,88018639,23
314040002,3464452,193142516,1177566,193114140,1126921,1167596,9007453,444498944,60385,314917355,26444,10233,942982119,2056,3.84,1.51,1.46,0.08,0.0,120566345,111261000,9021000,134835904,23
145665002,10328954,107036469,5715546,109148591,5629307,2389794,21548776,574395275,169924,151959707,15844,6630,488817966,3119,4.62,1.7,1.65,0.11,0.0,155992575,152749000,3014000,170246211,23
310076671,3080802,191909579,1169341,193913847,1091306,1144841,8440302,450050872,52471,317321910,21903,9872,945833411,1954,3.85,1.52,1.48,0.08,0.0,121094619,113850000,6990000,135518786,23
310419955,4438698,191446884,1236347,194955839,1109017,1164846,9503812,454167862,58733,315984413,21598,13003,939219773,2049,3.92,1.55,1.5,0.08,0.0,122479818,117173000,5007000,136905693,23
98352334,3208545,71453691,702203,76029007,650113,1249680,8125962,224958448,41640,110135033,14324,4264,349431211,2259,1.87,0.72,0.7,0.04,0.0,60659351,54487000,5944000,74714620,23
316918165,3428116,196379544,1236737,194692165,1221167,2267322,10873633,466267525,167473,314279986,20675,7286,954366838,2541,3.97,1.58,1.53,0.09,0.0,126455438,121174000,5007000,140961246,23
305335012,2838754,189221743,1123564,193942244,1057752,1229403,8680822,434547360,41103,317760180,25402,5510,927711783,2034,3.77,1.48,1.43,0.07,0.0,117095565,109833000,6989000,131609042,23
307242084,2750198,189513668,1136359,193587123,1064168,1244167,8723833,433832203,39532,317420983,26131,7452,930246516,1954,3.73,1.47,1.43,0.07,0.0,117027973,111647000,5029000,131324476,23
108823365,3151457,75146401,694133,74430527,708441,2154443,9374515,259155769,121364,114850521,32807,13771,384487482,2538,2.13,0.79,0.76,0.06,0.0,71625090,64246000,7027000,86170888,23
309526967,3620050,190961646,1167866,193604916,1085587,1180041,9075162,442393245,56299,315890499,28991,8251,934198865,2050,3.8,1.48,1.43,0.08,0.0,120374588,113035000,7002000,134797662,23
321108915,3212625,196728636,1332492,194247125,1278101,2376447,11379876,481517228,185422,318540587,24738,14517,967197533,2659,4.14,1.61,1.56,0.09,0.0,129957862,122577000,6975000,144436968,23
101625883,3071044,71366601,727580,74788692,640545,1252537,7997181,222721244,41858,110633233,12952,3850,357173471,1992,1.89,0.71,0.69,0.04,0.0,60635475,56317000,4022000,75177706,23
110209656,3137179,74139745,711991,70571740,731238,1912008,8290479,245791421,112610,112338017,12298,8390,385836524,2538,2.07,0.78,0.75,0.05,0.0,66656311,61443000,4955000,81027883,23
96754780,2691759,72379941,654055,75754652,618037,1176425,7732511,220749150,36912,106656233,11525,3181,347226622,1963,1.85,0.7,0.68,0.04,0.0,59595872,57270000,2009000,74021833,23
101465672,3230090,70474913,734191,73868235,651611,1310044,8375106,222448330,46286,109327824,11369,4146,353903988,2067,1.88,0.73,0.71,0.05,0.0,60529781,54131000,6014000,74782034,23
100215160,3187030,71556677,725342,73804418,648012,1064087,7732763,215028633,37093,105388751,10634,2558,339479048,1877,1.86,0.7,0.68,0.04,0.0,58543412,55300000,3016000,72938614,23
105577360,2608318,69662257,740805,71581771,690323,1304919,8105042,227703973,40720,114751742,12241,3646,373328269,2027,1.85,0.69,0.67,0.05,0.0,63153129,54885000,7983000,77684667,23
317598371,3382295,195699935,1187477,194058559,1250172,2272827,11528513,473397073,160894,320363896,24289,16721,957974588,2562,4.08,1.61,1.55,0.09,0.0,128333711,124057000,4001000,142501878,23
98043969,3267099,71949427,684532,75240122,638583,1183237,8237512,219095454,45610,106191960,14000,3369,338862606,2059,1.86,0.71,0.69,0.04,0.0,59533019,57214000,2007000,73802146,23
113282234,3130917,77872099,699860,76315622,713496,1640588,8028607,251378468,113719,116443695,11504,5405,395346256,2405,2.15,0.79,0.76,0.05,0.0,67873897,56663000,10935000,82309805,23
98162504,2644145,72285409,677970,76050864,635444,1239123,7678571,222900360,39143,108719195,11023,6073,352441752,2027,1.9,0.72,0.7,0.05,0.0,60365683,55100000,5009000,74864418,23
99851375,3292963,71780105,709495,76078006,650860,1368921,8384195,225019902,50159,109451528,13273,3996,346849655,2142,1.92,0.74,0.71,0.05,0.0,60848624,55605000,4964000,75343032,23
110776236,3286121,75768184,707837,73251583,716748,2376639,10264204,260336275,147214,113923541,16402,13269,381928362,2862,2.2,0.82,0.8,0.06,0.0,70657772,63209000,7023000,85157959,23
313101408,3435824,192897890,1168539,194212406,1098796,1250744,8604112,448391642,51423,315567495,42258,11201,938496570,2131,3.91,1.53,1.49,0.08,0.0,120987282,114664000,5982000,135223156,23
141492615,8569523,101265936,1939015,98808608,1997684,3030149,17202391,422077402,206012,144438841,21009,6192,504023141,3515,3.44,1.32,1.27,0.09,0.0,114024825,106752000,6983000,128524135,23
98819067,2689373,73414746,662860,76712492,614581,1186098,7699582,221494125,40564,106693971,12674,3374,349235676,2029,1.9,0.71,0.69,0.04,0.0,59710841,55391000,4028000,74204273,23
109236937,3110006,74446919,710039,74050519,745340,2474481,9403088,263427690,121689,113844266,42045,14631,384732319,2605,2.2,0.83,0.8,0.06,0.0,70438144,65043000,5003000,84835110,23
314008737,3065640,194991861,1168830,192808911,1139484,1243963,8162023,454259435,52083,315865269,25026,11659,952852628,2556,3.91,1.52,1.48,0.08,0.0,122367846,117100000,5004000,136441988,23
318026275,2907985,207942728,1026226,210009554,994138,2023038,10203525,488841129,63449,307683047,59425,16623,961246312,7059,4.29,1.64,1.59,0.09,0.0,131750445,119381000,12038000,146062575,23
99814208,3252633,72083879,706364,74683396,644305,1235838,8114878,219653569,43883,107953628,10483,3216,346899450,1990,1.86,0.7,0.68,0.05,0.0,59790670,53418000,6047000,74186381,23
314493494,3022805,195629411,1163206,192095689,1161608,1315153,8203681,455845849,48268,317331644,25853,12812,956324579,2555,3.91,1.54,1.49,0.08,0.0,122768721,117504000,4979000,137222509,23
106286931,3115408,70587627,735576,70213099,757870,1724685,8294422,242485112,100933,113012302,11290,5130,381927797,2378,2.03,0.76,0.73,0.05,0.0,65442909,59176000,6017000,79644000,23
102404792,2993283,74315602,576644,77858378,483138,955894,7078972,205853459,38286,104771122,9965,3640,354148284,1807,1.76,0.67,0.65,0.04,0.0,55344272,51041000,4003000,69660610,23
310708036,3495588,190968714,1409349,191658671,1376531,1225834,9188973,451985318,58787,317853983,24929,12648,939487969,2061,3.93,1.55,1.5,0.08,0.0,121492246,115143000,6007000,135807680,23
100969863,2763120,70996288,719705,75032808,643827,1325886,7827916,223001661,38273,109765167,14571,3625,358238801,2095,1.87,0.72,0.7,0.05,0.0,60709084,55382000,5034000,75206262,23
288943894,1012704,179570307,712830,178096630,699864,161092,3119081,337510619,19568,281436982,18137,9696,829684547,338,2.87,1.16,1.14,0.05,0.0,91569563,87333000,3969000,105839809,23
100664059,3228908,71165300,707632,74028967,634600,1147508,7947227,230795549,54498,108896669,14166,3420,355002918,2041,1.93,0.74,0.72,0.04,0.0,61926928,59657000,2022000,76430613,23
305847022,3350495,189026860,1133038,193028720,1059956,1280438,9046776,430190787,47392,316853794,21413,5066,920904854,2048,3.7,1.46,1.42,0.07,0.0,116854646,110590000,5977000,131462258,23
103143324,3259934,72214399,744107,73406155,661171,1187367,7974444,230031089,48268,108849549,14308,4468,361117345,2095,1.93,0.74,0.72,0.05,0.0,62546966,55222000,7028000,76969935,23
99956815,3162741,72652423,683376,75254686,627643,1093789,7794290,216150813,40070,105236952,10373,3817,338050833,1937,1.82,0.69,0.67,0.04,0.0,58542421,54214000,4015000,73052238,23
111310973,3172784,74719652,798700,75707105,703437,1317360,7857592,246546542,46075,114462804,34983,13183,392658455,1959,2.08,0.79,0.76,0.05,0.0,64727650,60278000,4018000,79047558,23
107739397,3674552,72682160,1009328,71480799,947275,1984949,9911242,238741178,97763,114787111,12328,5284,378759237,2511,2.02,0.78,0.75,0.05,0.0,64538656,59106000,5008000,78593498,23
286915958,1706378,173190093,999132,176223357,933452,194807,3964674,361166922,10805,297512975,17463,3792,841305898,479,3.19,1.27,1.23,0.05,0.0,97635765,95297000,1985000,111937973,23
307214980,3222812,190241994,1169676,192525598,1081224,1091830,8611561,437585177,47655,315779867,24415,5754,926786049,1848,3.76,1.5,1.45,0.07,0.0,118244083,111964000,5998000,132427507,23
312519088,3660114,192268445,1202709,192534440,1112357,1255492,9306285,449342380,54793,315223368,35034,8585,943362870,2605,3.9,1.53,1.49,0.08,0.0,120792960,116512000,3983000,135321375,23
302764136,2787581,190437536,1092123,194185815,1012124,998817,8224530,424851973,38417,312775158,17000,6325,920052972,1777,3.65,1.46,1.42,0.07,0.0,115090346,110708000,3989000,129677376,23
112166271,3534663,77347383,701340,72000575,725342,2123242,10154928,250901459,151375,110991393,16962,5842,386390818,3319,2.15,0.8,0.78,0.06,0.0,67636692,58203000,9031000,81875467,23
88725210,1115742,59751867,239851,58380087,279143,178637,2932385,134904679,5939,87285756,2752,1660,284202944,586,1.12,0.45,0.43,0.02,0.0,36526716,34221000,2013000,50796454,23
304227360,2693697,193095863,980577,197396890,844939,971615,7430976,412158244,32925,310051315,21315,4701,919964080,1858,3.58,1.41,1.37,0.07,0.0,111104514,105808000,4990000,125298460,24
106760364,2552834,74043002,852145,75748414,632193,1190249,7368583,210574553,23824,108422034,6950,5288,366693897,2058,1.82,0.68,0.66,0.04,0.0,57144821,54834000,1993000,71373476,24
114996410,3539817,85185637,607293,87252309,475262,2251657,8488893,267064676,33381,116757173,44154,26406,422248013,9017,2.26,0.85,0.83,0.06,0.0,71996379,58567000,13127000,86173208,24
108417153,2810601,73793373,787422,74009134,751946,1790980,8494605,227108606,70508,116498593,15533,7043,382476454,2489,1.9,0.73,0.71,0.05,0.0,61072222,56781000,3984000,75498467,24
104280219,2441762,76573103,501839,79748522,479806,851864,6618039,201745991,21033,104470396,7398,5631,368230706,1867,1.73,0.66,0.64,0.04,0.0,54198764,49776000,3982000,68545849,24
110870340,2591189,76333500,732141,75376902,584840,972390,7537995,210794225,27730,110610577,15612,8813,384066456,2819,1.8,0.69,0.67,0.04,0.0,56889778,47606000,8926000,71122953,24
305491187,2768463,190413685,1313529,194797977,1145919,1045319,8029435,420015717,27531,316143308,21862,8247,922500189,2003,3.66,1.44,1.4,0.07,0.0,113435768,111296000,2005000,127610504,24
105966417,2461393,75764649,531017,78171095,439062,846395,6646361,199818854,22604,106238171,6548,5937,365844138,1887,1.71,0.67,0.64,0.04,0.0,53855344,51618000,2024000,67947757,24
305817262,2658214,192648922,1029962,195981193,856872,997090,7258464,411970318,27448,308697717,19694,7221,923894938,1883,3.56,1.41,1.37,0.07,0.0,110646894,105466000,5022000,124883887,24
116582305,2802638,78520814,843557,74129733,789818,1988597,9014898,230492330,72073,112966025,13546,9131,405846452,2879,2.0,0.75,0.73,0.05,0.0,62784820,55388000,7049000,77091512,24
106168456,2513848,75335042,601595,77380214,443145,914165,6767123,204712240,29886,106770273,8117,5084,368791427,1959,1.7,0.66,0.65,0.04,0.0,55232357,50899000,3992000,69559552,24
103845407,2513203,75448559,545165,78787577,443321,936364,6729373,204134582,27945,105942484,9750,4288,363302114,1960,1.75,0.67,0.65,0.04,0.0,54515240,50276000,4022000,68696337,24
105459348,2515163,75561410,602982,78116735,482811,1027602,7036916,207646092,25345,108093249,11761,4188,376184188,1963,1.78,0.68,0.66,0.04,0.0,55786519,49593000,5951000,69924220,24
155308710,8376994,114199558,5759960,115647263,5697259,6124278,22805654,677280537,757867,158504053,18074,14244,526011178,3399,5.45,1.93,1.86,0.16,0.0,182348609,175082000,7003000,196722607,24
309497653,2411239,191884525,1124978,190149355,1123759,1067634,8421356,413245211,29736,321528124,21539,7601,938958262,1860,3.54,1.37,1.34,0.07,0.0,114526319,109328000,5015000,128846861,24
195637253,10754262,165594894,676667,164417125,832469,9352095,20591343,695221388,159057,193797820,278762,192273,818323207,60165,5.89,2.19,2.09,0.17,0.0,187645661,111641000,75756000,201981732,24
112958974,3630474,77916884,880993,77084185,811666,1825400,9980847,240595353,87706,115910765,14109,8246,404475311,2525,2.07,0.79,0.76,0.05,0.0,65407290,59074000,6007000,79832543,24
323410036,2860794,200282217,1284023,195530473,1357759,1889673,9872336,448227639,82085,312685723,20567,8339,975643780,2867,3.9,1.51,1.47,0.08,0.0,121584022,119336000,2005000,135780943,24
115140331,2743384,78279748,794635,75024648,812628,1867021,9152368,225855939,75551,111463095,10126,9839,402248054,2682,1.85,0.68,0.66,0.05,0.0,63913604,57603000,6063000,78091283,24
105227567,2509890,74689309,618720,76952470,448569,1081770,6744346,207874104,23841,107004526,8723,5438,370626966,2057,1.76,0.68,0.66,0.04,0.0,55868596,51634000,3971000,70090752,24
307915370,2658206,191400746,1107400,192515229,989384,1138630,8005287,420867250,30931,316188230,19301,5249,935210382,1953,3.68,1.46,1.42,0.07,0.0,113526895,110336000,2982000,127704447,24
105359836,2546111,74799071,617457,76785021,435430,1050987,6751233,205407962,28448,104880608,9640,7490,365392330,1960,1.75,0.68,0.65,0.04,0.0,55146454,51989000,2999000,69044227,24
111626753,2784282,74577883,1024350,73783123,917334,1647269,8640997,226997147,73167,117004716,13963,8452,389405280,2683,1.93,0.74,0.73,0.05,0.0,61528942,55262000,6028000,75822900,24
130543932,4278584,91828331,1427783,91326078,1507239,3320176,11920326,325122589,227023,133058616,18127,10866,453605436,3720,2.75,1.02,0.99,0.08,0.0,87837425,82531000,5032000,101956555,24
111147862,2906217,75472310,818514,74353021,765378,2049217,8783090,226138848,73322,116285660,16687,13566,389813668,2685,1.92,0.74,0.72,0.05,0.0,61333534,58065000,3003000,75611788,24
103523768,2596500,74749472,613925,77539995,480700,1071465,6972138,206322328,25953,105352965,12776,7057,360727652,2349,1.78,0.68,0.66,0.04,0.0,55705430,52480000,3027000,69936230,24
304745447,2741975,193407344,975501,197276295,849622,980884,7364937,409708885,28401,308491994,24610,6597,922257517,2069,3.55,1.44,1.39,0.07,0.0,110582201,106361000,3976000,124881719,24
386852855,7549618,258535627,1025970,258283828,1013122,9337250,21166674,828298688,642349,377426425,69074,25615,1212385307,8568,6.89,2.61,2.51,0.2,0.0,224072994,207920000,15993000,238535497,24
316098493,2911051,201150097,1225913,206919082,1211255,1693486,9309731,452042264,42902,326550516,27427,14145,978766083,3321,3.96,1.55,1.5,0.08,0.0,121590314,117347000,4011000,135923096,24
304063928,2638951,193446710,986975,197882036,853390,926186,7274500,410904538,28346,309062890,19923,6797,916916705,1958,3.58,1.44,1.39,0.07,0.0,110865955,106657000,3987000,125116430,24
109418218,2396435,78689403,641650,80368674,580105,1167451,7780071,223073860,30701,116590182,15246,5329,400053547,2430,1.89,0.73,0.71,0.04,0.0,59979631,51758000,7962000,74353142,24
111028164,2798973,74303846,821324,73892849,768352,1947293,8727216,233803076,76801,118293192,16192,10950,392234951,2687,1.99,0.76,0.74,0.05,0.0,63021172,55779000,6972000,77209465,24
105518939,2442063,76581640,552197,79301592,452984,847165,6714718,200262579,22828,103911636,6538,3546,366298278,1867,1.71,0.67,0.64,0.04,0.0,54221758,52046000,1964000,68567921,24
106091558,2415981,75101400,933268,77651184,755522,1020459,7710107,218425647,31568,112807500,6907,7401,366167387,1962,1.86,0.73,0.71,0.04,0.0,58463717,54223000,3943000,72639950,24
306293309,2729135,192979767,1048885,195357336,904577,974103,7727603,409464149,28522,308572010,25328,8905,923570200,2152,3.59,1.44,1.41,0.07,0.0,111200668,108966000,1999000,125584856,24
323189060,2756410,200054214,1328753,195803764,1395573,1913552,9933829,443492981,83764,310202103,16936,11211,967417166,2672,3.9,1.53,1.48,0.08,0.0,120257630,113016000,7001000,134744630,24
103778113,2455836,75112673,750839,78733494,572076,1026143,7358604,210173651,22582,107246557,7233,5653,363297629,1964,1.79,0.68,0.66,0.04,0.0,56997932,54749000,1990000,71419092,24
105396449,2469632,74345296,626914,77527223,498216,1013641,7139820,208739736,30025,108815942,9172,8009,369063412,1961,1.74,0.69,0.67,0.04,0.0,56190366,48982000,6997000,70516695,24
318103942,2575330,197928272,1263720,195620438,1335817,1643011,8896814,443726144,72595,308887060,22139,11218,956963678,2673,3.8,1.47,1.43,0.08,0.0,120958738,115646000,4984000,135477106,24
104340874,2538470,75002079,577391,78190751,444322,1053373,6856792,205534660,27472,106783657,9305,4060,361980350,1862,1.75,0.67,0.65,0.04,0.0,55164600,49685000,4968000,69449684,24
115304102,2764050,79431570,844286,76479596,792295,2019226,8996029,233689163,73892,112083374,10506,8127,405740741,2994,1.96,0.77,0.75,0.05,0.0,63261249,55808000,7102000,77506395,24
304324245,2631975,192416477,989816,196604616,840342,969886,7211737,411472821,27978,309815759,20223,5949,917495997,1859,3.59,1.44,1.39,0.07,0.0,111112111,108847000,1997000,125417385,24
103682367,2510721,75129277,542039,78154179,436642,954319,6550992,200994457,24920,104710477,6202,3633,360869884,1862,1.69,0.67,0.65,0.04,0.0,54168625,50937000,2996000,68269273,24
326352836,2519031,205630628,1128332,200429577,1115424,1769453,10207892,443142017,57284,313816848,22493,12064,984855897,2875,3.92,1.54,1.49,0.08,0.0,119440846,114187000,5008000,133737978,24
105969313,2461444,74991073,606010,77246200,467479,1019223,6818438,205103682,21920,106641636,6737,4037,371864261,1865,1.71,0.66,0.65,0.04,0.0,55515997,54240000,1004000,69701179,24
103385178,2545504,75260055,520437,78449835,444492,968010,6680827,200778084,22912,105530697,9047,6679,360436922,2006,1.68,0.65,0.64,0.04,0.0,54273295,48939000,4993000,68401312,24
106769761,2540320,74944345,582362,77007650,433837,1004700,6529715,205475254,22513,107519339,7357,5824,369129444,2060,1.78,0.68,0.65,0.04,0.0,55089362,48825000,5978000,69384183,24
304414912,2629113,191942505,1006812,196586924,891330,1087365,7838921,417053291,26846,314948175,20610,5084,932278064,1859,3.63,1.43,1.39,0.07,0.0,112506198,106221000,6012000,126855620,24
110631589,2815689,75225791,1137967,73935695,1066903,1922441,8899909,231218978,73033,117176170,17109,5848,392643116,2536,1.98,0.74,0.72,0.05,0.0,62895555,58636000,3975000,77185490,24
135314973,2420179,101781810,3327846,102044086,3085983,1317705,8536520,318007742,30315,138567878,8685,5966,521092148,1956,2.56,0.99,0.96,0.06,0.0,85787880,80482000,5030000,100010845,24
116698657,2777187,78861796,823244,74683266,814302,1914519,9001449,229878125,76985,112634562,13154,12044,405930665,2683,1.93,0.73,0.71,0.05,0.0,63423198,59090000,4006000,77683697,24
112086584,2842509,75791177,851284,74073091,795526,1988362,8979634,226098178,77477,115488433,14566,7946,392781205,2683,1.96,0.75,0.72,0.05,0.0,61388808,58113000,3005000,75747363,24
103577967,2542005,73156882,629297,76536153,445137,1070343,6716170,208029476,27221,107193382,8923,5404,363970205,1859,1.77,0.68,0.66,0.04,0.0,55792306,51401000,4031000,70087154,24
102996729,2504091,74522295,545127,77935983,435103,1007467,6604231,203583662,22172,105951227,7217,5630,363180876,1863,1.74,0.67,0.65,0.04,0.0,54566278,52312000,2012000,68908068,24
303119675,2625625,193774873,916917,198102077,850739,868264,7450293,408110998,27652,308245076,19614,4925,916998187,1883,3.56,1.4,1.36,0.07,0.0,110271703,103004000,7000000,124877312,24
105501009,2513138,75330630,575803,77950729,445249,1011589,6599383,203228590,22249,106517396,7837,5954,365418426,1985,1.72,0.66,0.64,0.04,0.0,54670136,50286000,4022000,69009412,24
105992293,2626236,74942215,653922,76483861,465471,1126452,6691464,208512795,24463,106225844,7179,6329,371596016,2449,1.78,0.69,0.66,0.04,0.0,56089501,47838000,7973000,70587625,24
110878251,2477262,76359599,609939,79220355,501388,1046907,7262209,209645472,25765,114318077,9259,6077,388304756,1961,1.77,0.68,0.67,0.04,0.0,56464675,53193000,3010000,70831685,24
100040667,2134546,72057994,497275,75063253,439481,837121,6444778,193590277,23490,100873848,6822,4103,344860023,1922,1.68,0.64,0.62,0.04,0.0,52275818,50010000,2000000,66719284,24
104847103,2504517,75672794,526997,78770881,439581,914881,6610376,200198410,21996,105709992,9366,4253,359700275,2007,1.68,0.65,0.64,0.04,0.0,54286760,47923000,5990000,68533448,24
103980212,2451978,75855369,494672,78662169,452334,951875,6723676,200518921,21387,106215325,8690,5537,362121320,1879,1.76,0.67,0.65,0.04,0.0,54095503,47829000,5978000,68435884,24
114329133,3119888,86895300,544037,83692541,755757,1645823,8542224,250092862,39330,108556734,22110,25818,403428911,7234,2.13,0.8,0.77,0.05,0.0,67450066,56121000,11023000,81757405,24
102002217,2435879,74651336,578354,78063567,451288,1032969,6767214,206054131,21081,105012348,9884,3516,365542911,1869,1.75,0.67,0.65,0.04,0.0,55737204,53423000,2015000,70418356,24
305895199,2701715,193860969,988097,198241060,845887,963879,7478972,413445439,33429,313130608,21441,8146,922497753,2054,3.6,1.42,1.38,0.07,0.0,111671332,106383000,5018000,125794111,24
120336662,3407657,86194419,631887,87059737,542628,2278336,9025832,266759035,80642,127163483,20903,13310,437138762,4227,2.28,0.86,0.83,0.06,0.0,71865861,64624000,6959000,86300389,24
109927065,2867902,74633282,836060,74164491,776360,2043449,8769051,228841437,72232,116317052,15132,10632,387079809,2686,1.96,0.74,0.72,0.05,0.0,61940778,55713000,5969000,75887665,24
325125577,2821841,202166670,1161303,205069773,1107389,1427049,9431002,446566075,39708,326452161,23770,5915,990381567,2521,3.94,1.54,1.49,0.08,0.0,120390543,112046000,7932000,134855092,24
109942463,2226698,78477524,1630616,78751487,1481029,1103529,7666021,233747272,26742,113265553,10290,5046,403649553,1960,1.99,0.75,0.73,0.05,0.0,63514688,60205000,3010000,77984845,24
307564302,2642968,191977791,1104092,193510001,945862,1038513,7733223,415365822,28462,313177237,18148,7034,931634307,1953,3.59,1.42,1.39,0.07,0.0,112014779,108764000,3021000,126153906,24
113624803,2825291,77174731,842547,75340477,796179,2038338,8748674,228829298,72105,113704865,14107,5848,394828821,2685,1.93,0.74,0.72,0.05,0.0,61808488,58538000,3027000,76002931,24
116604188,2823291,78907888,774684,74700573,804202,1727445,8752624,235519602,75787,112595654,11436,9160,407769611,2491,1.99,0.77,0.75,0.05,0.0,64221768,54846000,8974000,78629810,24
302627400,2610916,191794882,1023171,196343199,902516,1096683,7911445,418890404,27846,313865159,18170,7379,927577484,1861,3.66,1.44,1.39,0.07,0.0,112494665,107255000,5011000,126772587,24
327699917,3143046,204264909,1036611,207752415,1027446,1580876,9453958,471899207,38667,332062144,28952,12158,1001332295,3161,4.11,1.6,1.56,0.08,0.0,127794205,122500000,5020000,142016009,24
126044300,2746144,91459198,1445217,91254040,1415359,1947806,8798097,276594231,78457,132477382,16085,10335,439408212,2683,2.32,0.9,0.86,0.06,0.0,74477096,65083000,9011000,88892057,24
306701232,2577469,190907806,1233523,192570981,1129280,1091734,7987663,421954827,29302,317376186,19655,5088,934156897,1858,3.69,1.45,1.4,0.07,0.0,113842109,106588000,6973000,128330008,24
303446646,2752624,191959728,1001269,196244900,846329,982784,7484590,411254959,31003,310426786,21423,7886,920045268,2052,3.56,1.41,1.37,0.07,0.0,111622060,108207000,3005000,125911858,24
240698970,11961833,183831661,8173845,182975266,8214306,9540272,27987952,1016030590,1004655,242011534,50655,33417,813785963,8736,8.24,2.88,2.78,0.24,0.0,277191578,255967000,20997000,291586869,24
306583948,2668473,191095421,1100717,193301558,982314,1213119,8234775,421109841,32396,317129289,21651,5227,936561617,1854,3.7,1.47,1.43,0.07,0.0,113435320,109890000,2997000,127870203,24
122260761,3213395,89362297,460553,92198562,430573,3099486,8468567,279272737,261557,128333856,23981,12900,432883508,3991,2.4,0.89,0.86,0.07,0.0,74745129,65363000,9050000,89100382,24
106127657,2524811,73889339,677899,76283478,523960,1102012,7070449,206436441,35441,109182046,10874,4685,368158966,1979,1.69,0.65,0.64,0.04,0.0,56360711,47989000,7998000,70464366,24
110076624,4090498,77545278,782311,85239736,736755,1202257,8750621,240188586,46156,129297787,13836,4969,398705113,2687,1.99,0.76,0.74,0.05,0.0,65578378,58242000,7029000,79862430,25
122565678,3489025,78864461,746454,77693063,754380,1386659,9155598,250108541,52010,133094395,16773,4756,441880569,3073,2.09,0.81,0.79,0.05,0.0,67598770,57153000,10026000,82034430,25
109133758,3661851,76588176,768502,84711615,724173,1251889,8583413,241524016,44525,130122702,19613,6028,397762168,2637,1.98,0.78,0.76,0.05,0.0,65494319,56097000,9015000,79756556,25
125259038,3705071,79663283,772421,75485631,752819,1788402,9284266,256393253,94891,137442365,15660,4621,449016392,2521,2.14,0.83,0.81,0.06,0.0,69120225,62748000,5976000,83364595,25
126614171,3363863,81993367,656263,78401096,761385,2201486,9950141,260808536,127086,136581325,18719,5165,441170379,3088,2.15,0.83,0.81,0.06,0.0,70473007,63167000,7018000,84849956,25
118509132,3358867,77436880,763063,79273746,743906,1368669,8573668,248770701,49003,132275265,17399,4866,430678221,3119,2.08,0.8,0.78,0.05,0.0,67052949,61758000,4980000,81368264,25
128360453,3363537,84330750,627296,80628239,719820,2508875,10884535,266154852,155292,134613881,21216,5699,445537117,3237,2.23,0.84,0.82,0.06,0.0,72045181,67667000,4039000,86214235,25
319097055,3495945,200323315,1172023,205069650,1067150,954025,7911193,448380781,39232,328457585,27108,6962,964202131,1967,3.84,1.54,1.5,0.07,0.0,121114869,119886000,1007000,135450908,25
327468536,3339926,200404547,1546823,199584891,1542327,1162846,9289192,457968208,32740,340550235,26163,8913,1002056174,1874,3.94,1.57,1.53,0.08,0.0,123618459,120705000,3017000,137913638,25
130832373,3622984,89592743,676618,88378823,600407,2125521,9757863,275939497,157920,118610880,19605,6573,430373861,3636,2.3,0.85,0.82,0.06,0.0,75241263,67129000,8015000,89459629,25
129660692,3745456,87566360,612499,87876955,650858,2214648,10498149,276440465,159896,122612468,20487,6148,450772600,3440,2.35,0.86,0.83,0.06,0.0,74250744,65135000,9018000,88744239,25
115498930,2840654,99881334,629047,94321735,745988,1605673,9689305,260454844,47874,118570252,17922,6504,511195364,2531,2.21,0.87,0.83,0.05,0.0,69884316,63640000,6061000,84185556,25
116645937,3558194,76948489,767619,81068412,732642,1172829,8344146,242207567,46621,131276450,16788,5061,419656720,2442,2.1,0.78,0.76,0.05,0.0,65782810,58586000,7070000,80026970,25
130649332,3844418,88009186,634762,87264596,629204,2269218,10532898,278254152,165932,118541264,20009,5548,443405680,3238,2.33,0.89,0.86,0.06,0.0,75380657,69225000,6019000,89895583,25
338038674,3485677,204359677,1339891,199407073,1414150,2355884,13033910,474982965,120130,342571097,19715,11030,1031112145,2536,4.15,1.63,1.59,0.08,0.0,127983313,125960000,2015000,142239874,25
323541880,4913674,206943057,1343198,212119077,1214839,1762357,11947737,494412443,93856,325534767,29279,7445,979727198,2657,4.27,1.66,1.62,0.09,0.0,132984344,130693000,2010000,147128505,25
114476543,4158054,83363907,727899,86794763,597619,1279593,8018044,234670670,50516,117746135,16157,4158,381797316,2660,2.02,0.78,0.76,0.05,0.0,63097982,54953000,7993000,77162223,25
105328527,4011496,79257677,758238,87373392,689728,1165843,8888688,237879406,51087,122251306,13725,4374,371090640,2241,2.01,0.78,0.76,0.05,0.0,63914809,59744000,3982000,78480745,25
330564856,2977055,202829014,1512529,200629656,1518383,1282664,10151365,465836023,40310,341736241,20260,12710,1018037316,1971,4.03,1.62,1.58,0.08,0.0,125704228,121577000,4019000,139989778,25
111013659,4072771,77509595,812422,82562805,739247,1616228,8888404,245194620,71685,130813690,16441,5405,402280510,2518,2.1,0.81,0.79,0.05,0.0,66208905,61903000,3993000,80692652,25
116651184,3727104,86799644,724180,89715339,615906,1187820,7860109,230824943,49633,114928365,10413,3623,397718545,1927,2.0,0.77,0.75,0.04,0.0,62012440,57653000,4045000,76430164,25
326747315,3544511,201294526,1164834,201453150,1280578,1740506,11094551,469530514,71620,339633304,29875,8038,1014207268,2731,4.09,1.6,1.56,0.08,0.0,126424739,119318000,7018000,140573779,25
320152794,3551913,197807507,1172666,203039123,1159047,1261288,9142046,458354860,45257,339352629,29507,8986,986482163,2432,3.93,1.58,1.53,0.08,0.0,123688825,119618000,3987000,137801157,25
330295655,3240541,203666873,1130454,203608139,1270480,1669170,11139704,469214652,68980,337479184,32909,8317,1012112948,2951,4.07,1.6,1.55,0.08,0.0,127158850,118947000,7996000,141571295,25
119385898,3068624,87347627,590246,90352320,488528,1024524,7722791,224405709,47439,109618798,14686,4535,398707594,1974,1.94,0.76,0.73,0.04,0.0,60956236,58641000,2022000,75314919,25
328274087,3275763,200699151,1126881,198749384,1175478,1625209,10343252,466118960,54950,340340203,31259,6870,1013193914,2457,4.04,1.59,1.55,0.08,0.0,125503090,120342000,5014000,139701892,25
122032266,4577454,94434402,757474,98747701,695369,2334004,10483072,295726885,83682,119815152,46850,13313,411442807,8202,2.53,0.95,0.91,0.07,0.0,79808558,66463000,13091000,94151049,25
324180154,3487182,198474111,1162156,201044406,1159159,1412595,9938491,470525644,48233,341342465,26947,7511,999980759,2282,4.0,1.58,1.54,0.08,0.0,124727143,119418000,5017000,139242981,25
121334257,3085101,87398176,591752,89202819,478571,978299,7667749,219282210,46421,108475112,10830,3038,406110210,1877,1.87,0.72,0.7,0.04,0.0,59962473,53745000,5971000,74377343,25
112198117,3476695,73868234,765510,80733840,727841,1251628,8447574,239000753,41707,132762718,15840,4355,409581801,2438,2.0,0.75,0.72,0.05,0.0,65885985,60624000,4969000,80246037,25
117171543,3629270,77151053,772785,80397158,750528,1528666,9145222,251038458,51463,133684440,17550,4695,423578660,2686,2.08,0.81,0.79,0.05,0.0,67091154,54667000,11927000,81602957,25
129962941,3718757,89576243,643243,87316746,600434,2054086,9691774,276270104,147777,116359431,18776,6948,437675418,3439,2.33,0.87,0.85,0.06,0.0,74797896,69518000,5037000,89075331,25
113645912,3454868,75016794,766655,80707672,731355,1207947,8526391,241001898,49015,132186810,14688,4292,412883958,2438,1.98,0.77,0.74,0.05,0.0,65630877,59437000,5943000,80030681,25
331851720,3153240,202972297,1114745,199309817,1190046,1618902,10371324,462318560,53775,338117906,26270,7299,1018061461,2604,3.95,1.6,1.55,0.08,0.0,125700710,120478000,5019000,139892115,25
120155395,3155194,80264054,833730,80092546,856083,1286121,8663578,246845793,49003,131927886,14568,5297,432248265,2435,2.06,0.78,0.75,0.05,0.0,67448654,62112000,5009000,81813800,25
111868185,3776225,76173977,779401,82510499,742109,1314627,8761429,242015166,51669,130180699,21079,5001,405132599,2729,2.07,0.8,0.77,0.05,0.0,65326162,60966000,3997000,79619512,25
332391811,3205232,202956057,1047598,202023080,1160331,1764565,11637921,467842002,74138,338073837,32215,7692,1016023798,2923,4.01,1.6,1.56,0.08,0.0,126830599,123628000,3015000,141004926,25
111656831,3481205,75472954,762563,81811565,724030,1318820,8462804,242598849,43336,130614655,20130,4376,405440761,2437,2.05,0.79,0.76,0.05,0.0,65271013,60921000,4061000,79655396,25
119712877,3401490,79329652,759963,81504515,737199,1454480,8605317,251196487,54786,132696659,21492,6131,427188619,2840,2.12,0.8,0.79,0.05,0.0,67390598,64128000,3006000,81831333,25
108577618,4096418,77409240,828017,82487167,719080,1563849,8782363,243831611,69127,127992320,14421,5854,394713066,2520,2.06,0.79,0.76,0.05,0.0,65520825,60221000,5018000,79803485,25
114782295,3254475,83901295,694113,88603566,561116,1055362,7182905,228781811,37335,115646418,12765,5022,382125306,1975,1.97,0.77,0.75,0.04,0.0,61755215,57318000,4022000,76122499,25
117998616,4473947,92684193,764768,98988916,707613,2140683,10051323,287165292,67968,120898226,46073,11732,400397942,7760,2.39,0.88,0.86,0.06,0.0,79564876,66220000,13043000,93948497,25
330544025,3843213,204632245,1453644,200712617,1447163,1514002,11008340,461127460,30118,342104187,30309,7797,1014456548,2658,4.0,1.58,1.53,0.08,0.0,124205561,118919000,5038000,138667541,25
115385396,3422434,77605172,646669,74196045,716284,2009197,9740013,254669488,127814,122087877,15814,5842,393998538,3112,2.16,0.82,0.79,0.06,0.0,68796176,62568000,5958000,83163211,25
335819346,3757419,212690707,1390789,213233466,1381533,2088153,12132675,495136420,149409,325360552,25068,10006,1005891556,2788,4.25,1.69,1.64,0.09,0.0,134312722,131096000,3002000,148698034,25
337653575,7218628,208234950,1495801,212911341,1544764,5486479,18887124,702730881,549686,351819595,40871,15573,1054685804,4579,5.87,2.2,2.12,0.15,0.0,191464664,185168000,6005000,205796103,25
106641915,3703623,77496022,764863,85598175,713165,1268791,8778365,240426099,42296,127063391,16583,4538,389391702,2436,2.03,0.78,0.76,0.05,0.0,64922618,58601000,5959000,79315574,25
318977958,3890005,198494452,1171149,203067369,1163946,1280830,9875142,460906353,52140,338691633,23923,7690,985181580,2482,3.97,1.56,1.51,0.08,0.0,124660238,122351000,2005000,138907765,25
118206220,4072456,76310546,823087,79433164,782819,1722012,9613457,253771449,96472,136802575,22295,6481,426360602,2720,2.2,0.84,0.81,0.05,0.0,68095538,61810000,5981000,82362539,25
130469783,3628276,88171902,582513,85160251,634791,2523117,10838508,273995826,160812,126640096,21684,5520,450105482,3436,2.29,0.88,0.84,0.06,0.0,73463482,67076000,6006000,87587918,25
113442310,3648699,84326346,699465,88990792,585536,1167461,7627364,233162432,44539,117738646,15966,4577,381364598,2065,1.98,0.75,0.74,0.05,0.0,62340872,57965000,3997000,76648910,25
334686650,2972191,208188861,1261370,202638075,1333503,1648118,11105663,476979905,63394,338788267,30045,7091,1019118239,2832,4.08,1.63,1.58,0.08,0.0,129325351,123098000,6004000,143839718,25
118871219,3846457,75278156,831141,78499773,803227,1869756,9331879,247238592,87328,137389825,17954,5494,426602341,2519,2.16,0.82,0.79,0.06,0.0,67017176,65588000,993000,81410016,25
177218931,11411399,122430568,5911417,117053169,5938688,5260426,27655996,750942886,785576,177433554,40681,12452,590543738,5364,6.21,2.22,2.14,0.16,0.0,203826798,193561000,9977000,218199229,25
113048090,3819650,75816390,767510,82083104,742289,1338141,9001506,245326728,49457,132202190,18995,4682,408843973,2685,2.04,0.79,0.77,0.05,0.0,66188637,60928000,4994000,80475061,25
112857216,3493850,75801903,781967,81984378,751609,1301050,8665966,244477007,46748,132324375,19281,5526,411454206,2731,2.05,0.79,0.77,0.05,0.0,65705084,61470000,3965000,80105514,25
323302577,3764747,204946677,1274641,211260697,1269047,1542926,10630622,496134564,72245,332292086,36415,7864,989845802,2719,4.26,1.66,1.61,0.09,0.0,133542578,129280000,4008000,147979554,25
119152950,3308210,77095437,781916,79105413,759325,1362070,8520888,246775503,48137,132297914,18541,6761,430675020,3118,2.09,0.8,0.77,0.05,0.0,66380480,60115000,6011000,80736957,25
134041225,5646031,98297620,697836,100087166,704120,3790070,13465869,328944222,239104,124296043,67918,14951,468121224,9100,2.75,1.04,1.02,0.08,0.0,89395287,76100000,13017000,103847892,25
331187889,3093426,203268547,1083015,198651570,1165989,1747384,10369163,469405402,55728,340517521,25419,7196,1028174723,3114,4.05,1.59,1.55,0.08,0.0,126453895,119239000,7014000,140807485,25
331765032,3181727,203686520,1110332,203460034,1259036,1813037,11618687,470933962,67196,339018634,36328,7870,1018439765,2832,4.13,1.62,1.57,0.08,0.0,127147152,120904000,5995000,141397090,25
108760167,3776246,77970795,789474,85163840,729235,1175463,8638847,239509033,41980,126046110,14592,3886,392623067,2217,2.06,0.78,0.76,0.05,0.0,64618248,62336000,2010000,78947527,25
321151984,3397505,198301653,1162471,202819101,1148096,1176138,9036524,458020854,48468,339022775,28240,7716,987807374,2233,3.94,1.56,1.52,0.08,0.0,123972013,117751000,5987000,138396146,25
331301224,5573449,223885363,1183578,228199659,1153075,2233865,10622246,559933679,91144,332999379,94259,20294,1031306946,13663,4.75,1.82,1.76,0.11,0.0,153826376,129518000,24096000,168196091,25
319992201,3437398,204022687,1081037,209384485,962076,895418,8075917,443809860,44643,323896527,21737,8283,963149106,1873,3.94,1.54,1.49,0.08,0.0,119847687,118583000,1004000,134147901,25
105192372,3600123,78024758,762019,86589896,707630,1280291,8667132,240077329,44433,124819947,18613,4884,383530090,2532,2.09,0.77,0.75,0.05,0.0,64664141,61393000,3019000,79145449,25
333188591,3621620,208929130,1044477,209674345,1131654,1559752,11509695,482487947,83182,332142348,28714,8879,1016535678,3133,4.16,1.64,1.6,0.08,0.0,130528954,126274000,4008000,144641492,25
331852602,3743193,208714750,1326053,210103292,1250063,1829885,10276393,497442634,157250,327603292,26363,10043,994386339,3029,4.3,1.66,1.62,0.09,0.0,134924122,126674000,7979000,149450857,25
123890554,3315713,81042081,788539,78002935,849508,1423013,8693784,252738511,50978,132771297,16186,5296,447296958,3201,2.11,0.82,0.8,0.05,0.0,68505575,65178000,2962000,82993090,25
157754979,14608997,107620469,5600423,112438482,5537675,7966955,33314768,857002218,1073182,175975432,32151,17740,550513427,4853,6.97,2.49,2.4,0.2,0.0,231979104,223792000,7992000,246438375,25
124441186,4453746,92050703,752926,93383402,656950,2213868,9472176,284290820,139029,113935757,31697,8971,406110792,4668,2.41,0.9,0.88,0.06,0.0,76982042,65766000,10961000,91449084,25
318894207,3498132,199424662,1159214,204466015,1150664,1206799,9088208,459375047,47589,337935353,28072,7251,982111991,2432,3.96,1.59,1.55,0.08,0.0,124020940,116687000,6981000,138201373,25
131502318,4195978,93068114,687755,89361837,595795,2473020,10534833,284379843,189488,115356921,25912,7095,439551703,4599,2.41,0.93,0.89,0.06,0.0,76437266,66164000,10024000,91003388,25
114118698,3955698,76142284,834285,80152063,776748,1771924,8930607,247781941,69560,134141730,14206,5651,412131515,2519,2.11,0.81,0.79,0.05,0.0,66652994,60339000,6033000,81189238,25
360172952,5989457,227642631,1385104,225909088,1296966,2591574,17224108,586214252,164932,356909243,46398,16233,1111406370,4544,4.96,1.88,1.82,0.11,0.0,161083627,152786000,7988000,175526586,25
119056448,3147367,86286765,614390,89294698,507313,908899,7459939,220845623,45408,110178503,12285,3220,397257515,1882,1.89,0.72,0.7,0.04,0.0,60607646,56294000,4021000,74992247,25
121604693,3359756,109609820,701614,109095789,670550,2133090,9760053,288211883,128464,116955665,16772,6789,512835943,2999,2.42,0.93,0.91,0.06,0.0,77495860,70220000,7022000,91991350,25
120672341,4508745,88141684,829839,88011150,724048,2634363,10582759,287231404,161341,121522924,23352,7727,403125120,4413,2.41,0.91,0.88,0.07,0.0,77731593,70426000,7042000,92082726,25
203881709,11332072,167958505,12905387,162013959,13082303,2749090,26945646,921657667,327338,207891373,36149,12477,756286745,4845,7.57,2.79,2.7,0.16,0.0,248608181,238360000,9973000,262793762,25
142222533,17927578,97390131,2558310,102775899,2445379,2401643,34867066,402797275,223803,160456651,16583,6296,499971101,2431,3.44,1.35,1.31,0.08,0.0,108026546,99770000,7981000,122473703,25
304461815,2301087,190214892,891905,191507092,901485,774013,6666547,401617863,29230,306298814,24163,5121,912422195,1853,3.46,1.38,1.34,0.07,0.0,108526155,105222000,3006000,122913018,26
308730565,2362315,192896734,884108,191479219,896398,920254,6733371,406641220,32607,307221111,26862,6732,924820864,2724,3.5,1.4,1.36,0.07,0.0,110012587,103793000,5988000,124204439,26
308753254,2411743,191558381,902364,191557584,901660,1125913,7557534,413355217,33816,315813647,31347,6461,928733847,2818,3.55,1.41,1.37,0.07,0.0,112041251,107684000,4025000,126191095,26
102879684,2157187,71788290,499714,72202514,486700,836774,6338510,190098813,25140,102585290,9370,2616,353146240,1946,1.66,0.63,0.61,0.04,0.0,50996382,46614000,3967000,65485360,26
112728543,2649088,79163805,536094,76316598,511692,2016731,8142021,226749142,66312,105572599,26279,7074,383346216,4598,1.93,0.74,0.72,0.05,0.0,61698097,54279000,7036000,76028549,26
103544670,2163203,71591062,495893,71578568,484023,776799,6114698,188869142,25773,102759804,10220,2677,351954115,1957,1.62,0.62,0.6,0.04,0.0,50894923,42641000,7933000,65189790,26
305398792,2322973,190965992,899345,191760061,904859,864306,6946426,403376784,34858,306443203,20831,6301,916050706,1875,3.49,1.4,1.35,0.07,0.0,108369223,102989000,4999000,122840420,26
311011728,3440623,193193513,1032176,193298556,1116265,1675233,10586087,453639555,82876,315921342,33406,9455,940128890,3289,3.89,1.53,1.49,0.08,0.0,122516147,115384000,7023000,136715067,26
100986555,2500475,70361874,497227,71612368,491091,1112860,6466578,203655077,61212,105045875,22454,5096,349976055,2629,1.74,0.67,0.64,0.04,0.0,54815918,50538000,4043000,68962235,26
98302216,1849382,68474132,479829,69308435,464441,699722,5472202,182691607,22479,99675845,11491,3627,340681835,2063,1.55,0.58,0.57,0.03,0.0,49951008,44738000,4970000,64410141,26
101199427,2543935,70304107,494770,71663282,488886,1110151,6527920,205108355,64981,105980262,14950,5280,352440194,2458,1.75,0.67,0.65,0.04,0.0,55092031,49864000,4986000,69488117,26
103481795,2525980,72229435,508797,70564613,491969,1341603,6749655,206707103,59008,106115316,10878,6998,357022512,2644,1.77,0.67,0.64,0.04,0.0,56018439,50777000,4978000,70335484,26
17218190,543510,10950745,148446,9175773,64743,220889,1024745,35705154,4196,16778817,3903,1328,77607843,1130,0.3,0.12,0.11,0.01,0.0,9803827,8497000,1062000,24037676,26
103721896,2502733,72213406,508283,70395799,493346,1279069,6712289,206304061,58934,106082523,14587,4296,358820410,2644,1.76,0.67,0.64,0.04,0.0,55707426,53487000,2018000,70155931,26
119078419,3761913,85658637,556633,85442413,533175,2790507,11797213,329120411,201799,119371068,23969,5388,416528597,3035,2.68,0.98,0.95,0.07,0.0,89009776,84754000,3988000,103218903,26
109121296,3101649,72308511,606422,71805448,601890,1516337,9436376,220776135,69548,111668514,16814,5330,374986437,2456,1.88,0.71,0.7,0.05,0.0,59573533,56326000,3017000,73921698,26
103558794,2543193,71805615,510102,70444180,496849,1251057,6579255,205544644,60658,105822529,14437,5951,357100744,2551,1.77,0.66,0.64,0.04,0.0,55578458,51384000,3952000,69899876,26
100720182,2509669,69767829,496321,71266708,494985,1235707,6456866,206298193,59181,107414134,17320,5359,350236665,2464,1.77,0.66,0.64,0.04,0.0,55591258,51322000,4025000,69739410,26
313512899,2287637,193337266,900670,189795800,892046,984239,7892319,409096995,33204,312518928,26722,5857,939990759,2596,3.54,1.35,1.3,0.07,0.0,113938860,107771000,5987000,128272927,26
101527403,2155477,70875125,486134,70759294,471039,779671,6005672,190580320,22986,103658736,10040,3193,354166655,1856,1.61,0.63,0.61,0.04,0.0,51443433,48183000,3011000,65697221,26
100708340,2173888,71275751,486784,72076852,478878,764614,6158901,191212506,23874,102802141,15721,3458,350020361,2042,1.6,0.62,0.6,0.04,0.0,51472367,48218000,3013000,65892416,26
102444762,2155187,71181037,485139,71095349,474114,774935,6082491,190149417,25840,103526337,10808,3987,353221123,1852,1.61,0.61,0.6,0.04,0.0,51066646,44837000,5978000,65193521,26
306139685,2242925,190549105,884485,191668588,895885,695806,6559497,401971375,30701,306880075,25436,43249,914817695,2035,3.49,1.39,1.35,0.06,0.0,108772421,107633000,1005000,123105109,26
305908957,2323003,190135260,888828,191371436,902007,772202,6809421,407009846,33012,308765405,25192,10460,918868046,1934,3.6,1.41,1.37,0.07,0.0,109033941,105853000,2995000,123464894,26
104077833,3027720,72657651,609641,72054169,523005,743896,6402469,193429276,29901,103242214,13559,4045,356375948,1950,1.71,0.64,0.63,0.04,0.0,52719907,48460000,4038000,67122520,26
308360769,2238504,191515448,882264,190665229,895858,771573,6676340,400543208,32615,305585838,22947,5978,919928342,1941,3.48,1.38,1.35,0.06,0.0,108274749,105087000,2974000,122635674,26
83944986,890564,54065430,99828,51722896,103912,414621,2158603,115172294,8391,80584216,5973,1540,274196158,1612,0.94,0.35,0.35,0.02,0.0,32046207,28688000,2967000,46604733,26
103400422,2148275,72318474,492749,70894475,480557,716156,5981985,185406983,25381,101147636,12336,3050,352745392,1899,1.62,0.63,0.61,0.04,0.0,50567992,47331000,3021000,64904012,26
101499331,2148054,71863604,496393,71688076,482513,750334,6103885,188626206,24639,102024857,14483,3547,350428155,2061,1.64,0.62,0.61,0.04,0.0,50664884,47374000,3023000,64779138,26
322593000,3946261,202497425,974604,204948272,976864,2685637,12006019,540877202,226912,321554904,33489,9686,975771487,3116,4.62,1.75,1.69,0.1,0.0,146670753,140349000,6014000,161146792,26
9475413,433377,4408642,64810,7061145,58548,189790,1281999,27208768,4103,12323831,3728,1364,45515572,1136,0.23,0.08,0.08,0.01,0.0,7812360,4271000,3203000,22252208,26
101310607,2518661,70282372,499844,70762252,490081,1232185,6423493,205594195,61110,106574610,15222,4277,348479593,2459,1.74,0.67,0.64,0.04,0.0,55306204,52071000,3004000,69648167,26
102032038,2156900,71675124,492181,71621587,483545,771499,6036117,187581365,23613,101405433,11864,3420,348416928,1895,1.58,0.61,0.59,0.04,0.0,50861776,45556000,5061000,65140567,26
104844671,2802412,73847709,562896,72260991,473812,1124379,7337119,206690870,39199,104195363,12182,2365,359819219,2468,1.75,0.66,0.65,0.04,0.0,55617831,51329000,4025000,70041713,26
100672368,2130761,70823785,488720,71836583,477163,778970,6204393,189586726,25428,102456788,12899,3012,347194159,1950,1.65,0.62,0.61,0.04,0.0,51000349,48801000,1991000,65389939,26
109812497,2966163,82265791,239511,84556353,227093,2707890,7920593,264311406,226512,116559588,25651,5715,398501871,4040,2.18,0.81,0.79,0.07,0.0,71202736,62919000,7989000,85653917,26
102021714,2523004,70999707,503742,70564874,486243,1203557,6581555,205422676,62703,106418828,14864,4853,355180135,2269,1.74,0.67,0.64,0.04,0.0,55650366,51428000,3956000,69809016,26
322201269,2277819,196645785,1145358,190908184,1115944,1679800,8581095,431435881,70208,306985042,24527,8050,951307731,3395,3.76,1.48,1.44,0.08,0.0,117240209,113005000,4000000,131645141,26
118294038,3787188,80421478,730514,77294149,704574,2173007,9561370,259399264,132027,122246312,23461,19759,406464729,3892,2.18,0.82,0.8,0.06,0.0,70198174,60821000,9123000,84745897,26
329420560,4001198,204572198,986641,203807191,982297,1363127,8410380,468697586,30971,332435115,33429,6486,998296113,3010,4.05,1.58,1.52,0.08,0.0,128122679,125697000,2011000,142547601,26
103228451,2138548,71840808,488667,71082796,476670,740187,6034708,187420673,25409,102018403,10452,3393,352491980,1856,1.64,0.62,0.6,0.04,0.0,50598426,47330000,3021000,65002443,26
321783251,3459799,198219184,1179217,197691264,1178676,2114899,10726358,473657554,202885,318338905,24680,7767,974491903,3203,4.08,1.61,1.55,0.09,0.0,127859377,121612000,6030000,142014027,26
101142063,2526129,70098950,499011,71239826,496554,1226453,6690683,206002184,59012,107289306,17450,5211,352146099,2660,1.74,0.67,0.65,0.04,0.0,55838622,52583000,2976000,70078528,26
102250642,3048396,70153696,826126,72392645,791818,1543968,9458623,230779745,61771,109693175,13303,4465,362838737,2540,1.96,0.74,0.71,0.05,0.0,62578195,55247000,7031000,77026838,26
102591578,2158629,71481624,489458,71137544,476599,769621,6116427,188603287,25125,102397471,9619,2603,352745346,1945,1.56,0.61,0.59,0.04,0.0,51003961,47749000,2984000,65397646,26
101287904,2534098,70186104,498454,72243114,496949,1285705,6643054,210207424,60509,106682208,22908,4872,352517382,2795,1.73,0.67,0.64,0.04,0.0,55608344,51194000,4015000,70154834,26
320236845,4073723,202087338,960486,206196993,965772,2641092,11985047,539734526,209239,319453793,38723,8776,968416320,3027,4.6,1.75,1.7,0.1,0.0,145590450,140334000,5011000,159710808,26
105868258,3294526,71590186,615473,70836621,602979,1425794,8782687,213790673,62354,111605469,15598,8172,370292269,2458,1.78,0.67,0.65,0.05,0.0,58303911,54014000,4001000,72709798,26
316021446,2358751,192684481,1105965,189416972,1096773,1515796,8556210,428352453,68986,312310309,22523,9353,949211336,2655,3.77,1.49,1.44,0.07,0.0,115828069,111590000,4021000,130193938,26
304258910,2372693,191114229,890760,192081997,892957,695367,6857247,400997115,35143,306642650,23466,5427,915930638,1948,3.52,1.4,1.36,0.06,0.0,108305293,101042000,7002000,122794946,26
100620061,2175043,71010708,486307,71176108,485850,775881,5971760,192676368,23340,102925671,11753,3184,348375650,1917,1.62,0.63,0.61,0.04,0.0,52204203,47839000,3986000,66418130,26
104134425,2516037,72355302,513976,70462502,495261,1346849,6761891,206488299,59320,106062022,14888,4362,357997242,2645,1.75,0.67,0.65,0.04,0.0,55923284,53688000,2025000,70438807,26
304912236,2203993,191204934,902516,193144954,899633,763566,7149607,396025422,29934,305702044,22798,4943,912261377,1849,3.48,1.37,1.34,0.06,0.0,106847874,103500000,2985000,121148509,26
307749134,2295077,191021349,891048,192202627,900659,776401,6727207,403516718,28945,309221145,23347,4997,917437876,1890,3.52,1.38,1.34,0.07,0.0,108868118,107618000,1005000,123288075,26
113146460,3131329,75410074,602159,71829667,660695,1920367,8997482,248536823,150639,116860937,25801,6969,391422884,3265,2.07,0.76,0.74,0.06,0.0,67928076,60651000,6959000,82333661,26
102592243,2129141,71573983,496153,71294726,487148,707738,6045597,186227800,22074,101374207,11109,3418,350437638,1807,1.59,0.61,0.59,0.04,0.0,50695645,47324000,3020000,64803177,26
100223769,2568283,69727397,499687,72111124,502677,1250111,6713705,208892655,61575,107057616,19561,6189,349545212,2855,1.77,0.67,0.65,0.04,0.0,56218395,47143000,8839000,70621472,26
101309101,2527418,70190156,517606,71560489,518092,1242002,6618439,206610422,59504,106410761,20123,5560,350632385,2650,1.79,0.68,0.65,0.04,0.0,55487764,50163000,5016000,69822347,26
305795393,2268740,192081901,899458,192214672,900492,724089,6724547,397542584,30737,303779966,27866,6002,912117794,2050,3.49,1.38,1.34,0.07,0.0,107430619,102163000,5008000,121825213,26
307875076,2387342,192547834,920903,190503923,920758,1076584,7203465,416026577,29779,312028121,25884,4701,926677172,2434,3.62,1.44,1.4,0.07,0.0,111967980,106715000,4986000,126270293,26
104654698,2265201,73739864,477969,71479440,483316,823663,5885090,194585791,26002,101960145,9798,6240,357637495,2452,1.64,0.64,0.62,0.04,0.0,52823910,44543000,7918000,67044219,26
100910579,2496635,70034093,494859,71159094,498634,1062364,6360750,201713597,59165,105686579,12008,5709,346806898,2267,1.76,0.67,0.65,0.04,0.0,54548138,51191000,3011000,68821217,26
105107731,2598318,73125482,507349,70956098,490469,1403117,6923270,207568200,59387,106321096,17937,5734,361355333,2912,1.8,0.69,0.66,0.04,0.0,56527019,51229000,5022000,70871118,26
305010686,2287766,189652327,881750,190963082,893525,751909,6631440,401391872,32134,308485989,19800,6241,914494775,1851,3.53,1.36,1.32,0.06,0.0,108936699,104681000,3987000,123416247,26
316627660,2404687,193055524,1123143,189936033,1107770,1716153,8452187,422270359,61101,311234837,23206,9829,948215729,2484,3.69,1.43,1.39,0.08,0.0,115877706,108682000,6979000,130258808,26
359500460,10360943,243432009,6441238,242141472,6543815,9240821,27224929,1045148963,1167487,358716658,59663,17325,1107672139,6971,8.77,3.24,3.13,0.24,0.0,282582655,269332000,13016000,297040169,26
94468792,2200753,86012176,483751,84975550,481115,873619,5986281,199487657,22406,93708567,9835,4290,409638339,1936,1.71,0.68,0.65,0.04,0.0,54083626,50671000,2980000,68542395,26
102193988,2124746,72112192,503669,71914835,490087,765392,6188032,187642261,23935,101408654,11214,3654,350181867,2062,1.63,0.62,0.6,0.04,0.0,50581223,46154000,4013000,65001829,26
46293217,484097,31476220,138519,28628850,131047,465954,1819576,77707341,14068,38730310,16906,8606,141109986,2949,0.64,0.25,0.25,0.01,0.0,21066974,13811000,6905000,35251553,26
112690107,4236699,78697555,911827,75516635,867726,2730320,12320399,279834091,154986,113966387,19912,6280,387232589,4042,2.35,0.88,0.85,0.07,0.0,75870434,66524000,9071000,90174771,26
106949944,3504551,74169252,881735,78367870,834922,1381723,9076296,241765836,54842,119967277,17852,6083,388979015,2802,2.0,0.75,0.74,0.05,0.0,65139203,59872000,4989000,79763378,26
305397286,2292596,189961058,1077251,190938650,1089590,693220,6644274,404597402,32201,307682484,20825,5143,915182354,1856,3.55,1.41,1.37,0.07,0.0,108688569,106369000,2006000,123205840,26
304528320,2299688,190264104,890654,192015628,900012,709397,6586559,404049022,30297,306999059,29118,5356,914543473,2073,3.54,1.41,1.37,0.06,0.0,108676195,104435000,3978000,123080573,26
100582471,2515807,69762687,492514,71617400,498335,1139324,6422107,204506506,62540,106721674,15222,4655,349610310,2469,1.75,0.68,0.65,0.04,0.0,55072359,45814000,8963000,69441564,26
320271293,4030188,202424153,967777,205771389,969835,2691444,12059935,542843881,218084,318212958,30731,9698,968140465,2936,4.67,1.76,1.71,0.1,0.0,146444531,138182000,8010000,160806577,26
102507166,2514211,71404405,506085,70523932,489104,1278289,6593258,207707892,60742,106600218,14395,4393,357285592,2656,1.75,0.67,0.65,0.04,0.0,56114965,46767000,8955000,70648204,26
307238032,2613784,189573199,1133713,189820860,1130238,1395491,8184961,421731610,59020,316801502,20215,8104,926761340,2262,3.71,1.45,1.4,0.07,0.0,114351893,107068000,7004000,128661865,26
286141791,2530617,182997639,1026462,182071711,1031122,1285469,7932478,395895579,69689,279253827,21554,12426,864612937,2647,3.49,1.37,1.33,0.07,0.0,107283236,101112000,5947000,121554607,26
96729192,3329732,70341246,727554,73899509,692935,1083497,7995060,214927366,40447,105322614,12619,3859,335680746,2054,1.8,0.69,0.67,0.04,0.0,58047116,52780000,4979000,72273048,26
108166321,3442420,84335195,531090,84679696,537994,1692800,7626244,257396871,77427,109439362,70226,12570,388499287,8089,2.24,0.82,0.8,0.06,0.0,69583577,57185000,12038000,83958104,26
156831044,2144180,111529810,1024378,115514122,862905,982392,4847291,299356703,34577,168564634,13458,4858,559480251,2828,2.46,0.95,0.93,0.06,0.0,80509222,74203000,6016000,94731987,27
181005352,2013369,123757488,1180552,118861071,1271042,1120089,4937513,307464297,29033,182322595,10503,5842,624552029,2339,2.55,0.99,0.96,0.05,0.0,83738268,76347000,7031000,98182943,27
160038261,1757226,115954818,824054,118054592,782964,1065523,5471547,287381424,38771,157716433,11615,4700,530032770,2267,2.46,0.94,0.91,0.05,0.0,77627184,74385000,2975000,91967409,27
519748043,2188647,327191709,1651954,328496072,1625267,1035078,5906078,666081661,45066,521065765,28739,8406,1553428900,2822,5.73,2.3,2.24,0.11,0.0,179869677,176429000,3007000,194425751,27
158558388,1923907,114027541,1034168,117459686,987287,996391,5447130,291805171,34076,163836185,13741,6908,546885234,2243,2.41,0.94,0.91,0.05,0.0,79030648,73765000,4984000,93303450,27
183907582,1829624,125203735,1316801,122635143,1347893,785321,4285803,303386458,16200,189332384,11276,9312,639365454,2025,2.52,0.98,0.96,0.05,0.0,81858465,75593000,5967000,96184180,27
175588831,2811559,118828216,1434287,114693319,1576389,1292055,7581773,321057327,30713,180228164,10660,6099,637161778,2287,2.65,1.04,1.01,0.06,0.0,86949004,80638000,6047000,101436797,27
160848365,1813313,116417797,966448,117950914,922787,1100808,5470976,287972714,33339,157535809,10166,4485,532997502,2245,2.45,0.94,0.9,0.05,0.0,78053586,74801000,2992000,92209571,27
164686480,1634830,118961050,798463,117959575,763058,1264124,5588535,283868915,33640,153417547,12669,4890,542337734,2289,2.38,0.92,0.89,0.05,0.0,76623608,73380000,2974000,90992614,27
540598667,2437873,340322572,1788101,337037213,1939313,1876228,8525547,696230876,57062,529140350,38064,11230,1624345944,3427,6.07,2.4,2.34,0.11,0.0,188395363,182098000,6003000,202655099,27
166480045,1658187,117307311,861442,117398483,823965,1177026,5511829,284332978,32033,155655795,13026,4625,552307442,2244,2.41,0.92,0.89,0.05,0.0,76876310,68559000,7948000,91220572,27
581822049,3095774,368626690,1929505,364145712,1953847,3921925,10499492,847942455,372490,564096729,43794,14853,1770542808,4909,7.21,2.83,2.75,0.15,0.0,228925917,221778000,6993000,243155320,27
159411600,1886391,114598453,949183,117281999,905720,1046841,5473031,287251374,32852,160206444,13544,4859,531782988,2631,2.39,0.92,0.89,0.05,0.0,78154425,70793000,6979000,92376126,27
526621694,2130535,327488077,1663383,327956394,1649849,933981,6111010,659772222,44762,519687671,30981,15010,1562695403,2258,5.7,2.24,2.18,0.1,0.0,178368575,172103000,6003000,192470675,27
207126866,6333418,158647420,2215048,161486439,2082183,1402105,6013359,455242598,51110,217535675,26857,9166,714409596,3996,3.75,1.4,1.35,0.08,0.0,123017361,116795000,5989000,137436979,27
177651494,4354783,136921212,941383,139904510,925357,3033443,7746921,419020441,71796,185622930,86304,50963,662228933,17093,3.52,1.31,1.26,0.09,0.0,113644679,90223000,23057000,127926796,27
159781412,1877295,114772498,942228,116802309,900561,1062459,5440183,288055582,33850,160515290,17243,6247,534109656,2631,2.44,0.94,0.9,0.05,0.0,77991940,76629000,1008000,92265515,27
158633164,1880071,114564713,914622,116409190,875230,1008576,5341810,289316254,38452,160854506,14243,5624,540054667,2241,2.45,0.94,0.91,0.05,0.0,78229197,75959000,1998000,92535811,27
161115368,1853874,116054200,868772,119124554,824188,1110402,5609053,288937196,32779,159998525,10413,4760,535978971,2242,2.51,0.93,0.9,0.05,0.0,78129719,73777000,3987000,92508860,27
178254876,1901634,123116139,1336936,119407300,1384486,818716,4640746,300699587,17829,179124693,9720,6070,622006898,2026,2.49,0.96,0.93,0.05,0.0,81801543,78439000,3016000,96188134,27
214200904,3237104,145128017,1132915,146529537,1113359,3492991,8378559,457387031,327100,226917799,29534,9444,772010212,4209,3.75,1.4,1.36,0.1,0.0,123611803,115245000,8017000,138004624,27
162465310,1740145,114301890,758280,115753137,726402,1077025,5412920,286158367,31551,159896576,13261,4621,553995317,2243,2.38,0.92,0.89,0.05,0.0,77586650,74284000,3011000,92000610,27
170780606,1383971,118153121,694895,117243737,727491,809888,5197294,271987001,17931,154162491,8317,3861,575454916,1829,2.29,0.89,0.86,0.05,0.0,73655521,69422000,3966000,88141119,27
163839391,1723143,116234796,916622,117610419,871681,1179091,5452143,286565360,31739,158323451,12285,4374,542329206,2246,2.41,0.92,0.89,0.05,0.0,77592444,71291000,6024000,92049011,27
517458321,2081885,325309956,1857534,328598337,1817078,911867,5756027,665396747,41820,522287067,29133,7417,1546623364,2241,5.85,2.28,2.22,0.1,0.0,179583162,172282000,6970000,193878445,27
159528633,1890894,116252635,835034,118128917,792405,1203140,5460463,291290345,33948,158136720,11245,4495,534656468,2833,2.45,0.93,0.9,0.05,0.0,78645615,72432000,5953000,92992743,27
155521866,1881537,114490404,866592,119168548,827187,1022032,5326537,291815182,33050,160894424,12562,5122,529194304,2289,2.47,0.92,0.89,0.05,0.0,78698919,78397000,0,93235079,27
518980642,2104707,326363978,1705337,328536239,1700962,949916,5887046,663885845,42406,518793020,27355,7257,1546847863,2241,5.79,2.26,2.19,0.1,0.0,179215533,175856000,2997000,193661244,27
167857382,1639275,117950421,547310,117165263,524394,1208715,5628452,280710499,32482,152198271,14357,5066,559249022,2244,2.4,0.91,0.88,0.05,0.0,76164921,67832000,7980000,90459855,27
526917623,2076082,329488805,1626026,329908371,1611619,919841,6047025,660918194,42770,518694139,28035,10382,1566852060,2237,5.76,2.25,2.19,0.1,0.0,178228103,171980000,5999000,192585744,27
172881389,1400644,117429262,838237,115533313,877206,815008,5324441,269826092,23737,157271893,7991,4687,585455548,1830,2.26,0.88,0.86,0.05,0.0,73438773,70233000,3010000,87665068,27
156627160,2165418,112486655,1014407,116154367,877129,973598,5051286,290721056,34962,164066838,15532,5109,547010421,2874,2.46,0.9,0.87,0.06,0.0,80030199,73687000,5974000,94199905,27
163079637,1650898,117760706,862714,118365097,824277,1134011,5401402,283227783,31227,155019578,9456,4304,538168596,2248,2.4,0.9,0.87,0.05,0.0,76949261,72642000,3980000,91349071,27
163985219,1682307,117427785,820576,118334637,779699,1156910,5616693,285001495,36339,157686738,14104,4626,543400018,2339,2.42,0.92,0.9,0.05,0.0,77204997,70849000,5987000,91624947,27
142356965,1369697,142678389,721746,141470732,725534,800836,5173509,277631361,16867,132688814,13915,4842,652101858,1876,2.38,0.91,0.89,0.05,0.0,75386292,70968000,3998000,89635247,27
164798328,2511333,118237538,620870,122340927,582046,1189279,7046492,294276296,46312,157184286,11327,5145,553320437,2498,2.47,0.95,0.92,0.05,0.0,79858839,75429000,4022000,94036478,27
167605762,1386141,118059780,687929,117431178,673508,809837,5220448,273775922,19619,151723139,11479,3643,567218013,1832,2.26,0.85,0.83,0.05,0.0,74463783,69189000,5013000,88844853,27
520081867,2164281,325255525,1671282,325954425,1502449,1205736,6206510,668921385,42474,530923507,33260,9103,1574317920,2875,5.84,2.29,2.22,0.11,0.0,181036276,173631000,7025000,195424159,27
541075164,2082153,335344467,1728815,332300125,1843413,1490061,7624893,684491519,44918,538737086,28340,12018,1625156050,2235,5.92,2.33,2.26,0.11,0.0,184393311,179956000,3999000,198623542,27
160266352,1787834,116681741,884118,118375537,848074,1106263,5474025,287176790,33606,156432374,10077,4699,531122141,2339,2.42,0.93,0.89,0.05,0.0,77857318,69513000,7944000,92074695,27
516816582,2186018,323274302,1817116,327319492,1714364,1091278,6030292,670191714,41190,529073218,33159,7465,1551599363,2431,5.82,2.28,2.21,0.11,0.0,181014218,173766000,6990000,195470246,27
162655801,1656325,116725103,891440,117861989,849548,1120277,5455812,284968984,30200,156900032,12178,4338,537634273,2242,2.38,0.92,0.89,0.05,0.0,77119408,72850000,3991000,91438178,27
520521695,2141565,328202403,1487921,329878164,1464334,960322,5815317,662715231,41358,523802209,33324,7070,1560187185,2236,5.76,2.28,2.21,0.1,0.0,179357596,175083000,4001000,193487607,27
153870834,2161569,112537755,949783,118098872,835015,1002305,5040701,302079499,34169,166497789,11650,4938,548895037,2443,2.51,0.95,0.92,0.06,0.0,80605195,65871000,13972000,94999300,27
521464326,2121141,327720862,1636638,328700443,1625828,944237,6243078,661926242,48943,517000257,27521,7446,1554271806,2283,5.82,2.27,2.2,0.1,0.0,178500153,173253000,5007000,192883447,27
182719373,1927797,127800455,1070235,124680249,1116736,1321733,6070673,318823242,34722,178477389,14238,5043,625638283,2437,2.67,1.01,0.98,0.06,0.0,86115895,80750000,5046000,100271016,27
164640255,1438116,117095071,781030,117496551,742982,862630,5183460,277913762,20377,155086266,8450,3923,555084308,1828,2.31,0.87,0.84,0.05,0.0,75646639,72385000,2974000,90025403,27
162385992,1744133,117169139,888142,117745970,845361,1100256,5498582,282610945,34852,155986779,13115,4415,535310976,2244,2.38,0.91,0.88,0.05,0.0,77150629,72791000,3988000,91486563,27
589735636,5021604,373340312,2300578,366506075,2336609,4923816,16518713,894286882,372376,577395508,67090,19144,1793879868,7400,7.7,2.95,2.85,0.17,0.0,241048707,226721000,14044000,255359927,27
159950620,1859893,114276826,941042,116994914,899892,1101645,5514600,290146763,33324,161442406,12766,4895,535523579,2631,2.46,0.93,0.9,0.05,0.0,78194659,73925000,3995000,92657747,27
519838943,2216191,324958433,1976985,327891332,1825972,1230714,6298320,671517456,48864,529937496,27758,8628,1559288819,2431,5.84,2.29,2.23,0.11,0.0,180998323,176556000,4012000,195276115,27
162576550,1687813,116427694,817620,117482931,780478,1130519,5460070,287920096,33169,157813516,9486,5818,545389575,2245,2.41,0.92,0.89,0.05,0.0,77436029,71138000,6011000,91763635,27
172937972,1492215,119237003,457791,116477192,557998,766174,5361297,264062963,18224,155236112,10115,3863,578798261,1827,2.26,0.87,0.84,0.04,0.0,72097292,67713000,3983000,86537970,27
519880719,2086604,326151267,1704185,327995545,1693662,909258,5785745,664155995,43648,521027985,27809,7654,1549219601,2237,5.78,2.27,2.22,0.1,0.0,179234964,176988000,1999000,193412640,27
166407429,1383308,117818634,728018,118381914,696883,773086,5091385,272460629,17263,152182482,7669,4299,547314814,1827,2.28,0.87,0.84,0.05,0.0,74637921,71338000,3014000,89112800,27
529038922,1476830,329761957,1452107,328907845,1424306,782994,6636501,645952037,28042,515802988,24640,9456,1565731607,1820,5.59,2.25,2.19,0.1,0.0,175121848,169822000,4994000,189610156,27
527764151,2202723,322271623,2088700,321156814,1934135,1484259,7093487,675811095,43916,538002270,35353,8312,1604674259,3018,5.88,2.33,2.25,0.11,0.0,183901724,179584000,4013000,198144286,27
515338950,2142020,323395477,1979605,327891719,1871619,1000973,5804542,668070654,41488,525854948,27953,7468,1543950582,2236,5.86,2.31,2.24,0.11,0.0,180186226,172908000,6996000,194543425,27
160674760,2317961,112663378,1004665,115412605,894165,1151614,4887896,301878652,38506,169017918,17762,6168,564032995,3805,2.57,0.97,0.94,0.06,0.0,81634797,75330000,5947000,96028603,27
186568057,2032586,130160660,1068034,125342569,1221992,1465213,6083108,319051926,32266,179218677,10677,5380,637527184,2829,2.73,1.03,0.99,0.06,0.0,86277734,77909000,7990000,100829146,27
161372328,1774080,115764293,884717,118001799,839703,1115903,5378487,285716104,33068,158099737,8045,9490,534425242,2241,2.4,0.92,0.89,0.05,0.0,77864947,72607000,4973000,92330182,27
166549850,1664616,117655355,875455,117662764,837474,1183766,5501891,285504468,31247,156755498,12452,4480,552460529,2244,2.44,0.93,0.9,0.05,0.0,77298409,70013000,7001000,91721848,27
540542187,1894204,335712755,1901178,335124097,1895238,812296,5800587,669930258,26190,542104508,30682,14049,1614446020,1823,5.81,2.32,2.26,0.1,0.0,180967069,177690000,2994000,195357761,27
531032178,1952602,323813366,2258846,320750273,2331935,1295616,7415752,683618264,47649,536309774,38392,8598,1605132736,2237,5.99,2.38,2.31,0.11,0.0,185193991,177826000,6993000,199620745,27
533261027,2025938,331312004,1983910,328117925,2084913,1307260,7208860,674668832,41806,531998902,24303,10097,1626801316,2237,5.84,2.3,2.24,0.11,0.0,183982015,177703000,5990000,198292951,27
156444016,1967848,114297780,897749,117951425,806496,990229,5089282,288457990,34672,162503925,16021,4996,545050337,2246,2.4,0.93,0.91,0.05,0.0,78589510,73203000,5013000,92932204,27
177931893,2299808,127821181,806088,128051432,962785,1805724,6458679,323111400,48059,169215718,21150,7925,619506469,4142,2.65,0.95,0.91,0.06,0.0,89854979,79525000,9940000,104238791,27
536675883,1405952,329875798,1305443,328003733,1451858,861274,6799131,641853767,29474,522308689,25341,6785,1591083003,1824,5.61,2.23,2.17,0.1,0.0,173269137,166894000,5996000,187783209,27
169911484,1423996,117580240,719366,117283492,702907,834526,5180002,275493438,17232,154310362,9771,4680,573152231,1831,2.39,0.9,0.88,0.05,0.0,74675630,72370000,2010000,88931680,27
168038683,1579328,119465350,841282,119583845,802374,876136,5480217,287295086,22104,156907333,16647,5563,567409265,1838,2.47,0.93,0.9,0.05,0.0,75553964,68189000,7019000,89914182,27
155481900,2001818,114014496,894028,118159596,819051,953580,4970757,289242664,32954,162031824,14898,5837,538039776,2243,2.5,0.94,0.9,0.05,0.0,79041520,74702000,4037000,93156016,27
535252150,1438016,328790019,1377295,327480384,1525954,878297,6827752,641961986,28257,523516574,24616,11887,1590731329,1823,5.65,2.26,2.19,0.1,0.0,173388274,166130000,7005000,187850987,27
167842794,1605132,119327226,585549,117530189,559864,1189506,5592193,278003008,33786,150229453,10572,5158,554604812,2245,2.41,0.92,0.89,0.05,0.0,75765293,67365000,8043000,90220602,27
157179068,1920416,114758902,880442,118094543,839407,1070266,5333264,292131862,32191,161590505,13078,5397,538487203,2241,2.51,0.94,0.91,0.05,0.0,78919755,71549000,6956000,93172841,27
162773061,1683025,116613194,884247,117946356,846729,1183555,5499137,286158378,30916,157102161,13960,4634,539686688,2288,2.49,0.93,0.9,0.05,0.0,77485504,71200000,5933000,91736942,27
164989345,1792083,116323150,1009261,119169904,964147,1083427,5359685,289594632,30710,161428154,10493,4533,548927395,2241,2.46,0.95,0.93,0.05,0.0,78378419,69077000,9010000,92713058,27
164452864,2073952,114008011,998516,115936099,978314,957815,4630743,298825855,37932,170569098,14780,7135,571764381,2437,2.56,0.97,0.94,0.05,0.0,80573591,73120000,7011000,94992579,27
514637349,2169901,322092716,1820178,327038027,1666488,1000584,5837290,669313583,42875,529725744,26297,10363,1549820927,2236,5.86,2.35,2.29,0.11,0.0,180576725,173286000,7011000,194978828,27
161732259,1739406,117314064,857646,117679892,822507,1141808,5433677,288946547,33741,156410755,12376,7432,537919883,2443,2.48,0.95,0.92,0.05,0.0,77719351,73305000,4016000,92180970,27
518609041,2167642,325143778,1749633,327806872,1621199,1266449,6257741,672316638,43783,530259320,26398,8419,1566636498,2260,5.82,2.3,2.23,0.11,0.0,180670688,173170000,7006000,195069293,27
427623685,15757065,157784843,421806,156766813,416016,192527,34538228,400893666,16058,433056049,2747,3062,1452642759,629,3.39,1.44,1.4,0.06,0.0,108454907,106157000,2002000,122806493,28
339187283,8972812,275782827,773986,274541301,776263,229924,24766604,670299817,114494,343500496,5968,104835,1372861779,624,5.54,2.18,2.12,0.09,0.0,182870256,157600000,24936000,197036127,28
548546357,6734664,365250251,971901,359495985,968790,302131,16184736,668952313,122694,532792641,7931,517632,1673625890,1122,5.39,2.08,2.02,0.09,0.0,181190792,146888000,33974000,195372752,28
635860891,6465177,494513215,896058,493940030,893107,215067,17491703,1121645983,135050,634896984,9548,516162,2521111854,616,9.15,3.67,3.55,0.16,0.0,303169307,271913000,30990000,317443940,28
283183799,6131539,344761507,648615,344606393,645911,205351,15550622,496510553,20870,283092733,3391,4872,1344882976,623,3.94,1.58,1.54,0.07,0.0,134349378,133121000,1000000,148593611,28
548504948,17562710,224067638,682684,221675514,673385,1210631,38682467,760098624,126039,529941409,290329,104549,1802294479,2121,6.38,2.55,2.47,0.12,0.0,204991225,173760000,30957000,219469279,28
554861717,202567389,162541648,558940,159040254,549449,244195,71079467,1221641907,32938,556890474,4778,8109,1697782832,632,9.75,3.83,3.71,0.17,0.0,333320271,332057000,1000000,347650608,28
564656273,16251669,158575195,430722,157921245,431608,331627,32879940,420351403,13456,566736448,2294,2674,1467681060,633,3.6,1.54,1.5,0.06,0.0,113426222,111020000,1982000,127657215,28
531515225,16066742,220007144,677549,219571652,678627,354831,36042715,712491911,120155,532185795,13229,108699,1622946934,1119,5.96,2.34,2.27,0.1,0.0,194355457,167993000,25999000,208570953,28
351729132,6285004,333265810,540891,328967889,540276,324931,15541030,487939994,41187,341963956,21054,4896,1921396394,2114,4.03,1.59,1.55,0.07,0.0,132632960,127353000,5013000,147016144,28
428238234,16552548,282374950,545323,282651545,540024,223494,38346918,556441193,15756,430296851,3515,4245,1196906117,809,4.58,1.85,1.79,0.08,0.0,150198592,147928000,1999000,164679032,28
423209482,15506008,170779593,442755,168645179,451322,367166,35076162,420136529,13630,434903483,2837,3810,1498631351,623,3.55,1.49,1.45,0.06,0.0,111938345,110521000,1004000,126363072,28
459244499,16472169,174479172,652633,173648966,655980,240936,34721194,635976523,120097,453531476,300059,105401,1409668820,631,5.31,2.1,2.04,0.09,0.0,172020545,137787000,33947000,186416315,28
594401833,16415446,176768653,667895,175887674,669188,232417,34690278,668058366,118940,593241227,4299,104223,1564396564,631,5.54,2.19,2.12,0.09,0.0,180655372,142375000,38100000,194881596,28
535331445,16329701,343840230,797655,341341134,802128,228448,34883748,796368686,122311,538536534,6286,102328,1649801921,621,6.54,2.57,2.5,0.11,0.0,214896370,202732000,11984000,229437483,28
651546671,16318974,213241642,693359,213133129,693418,249253,35383291,782949804,120008,658668524,4616,102951,1740647955,623,6.58,2.67,2.59,0.11,0.0,211454287,200310000,11017000,225713928,28
531019853,16533200,218332665,677980,218243303,677969,296737,38348239,729810913,117241,545588802,8844,105233,1763394806,832,6.11,2.46,2.39,0.1,0.0,197530241,184245000,13017000,211916681,28
589825083,16984011,181061173,671680,179142525,666535,668804,34635595,684052172,128563,572217442,22504,111466,1542295041,3375,5.63,2.23,2.17,0.1,0.0,184823591,149482000,35113000,199018336,28
418461899,6710337,360578735,806940,360836562,805393,295489,17123693,827027341,125035,411072371,6053,106804,1541391549,642,6.67,2.62,2.54,0.12,0.0,222932142,199660000,22960000,237357036,28
531984134,16308062,219093023,689266,219444972,689238,209179,34780820,803444730,126881,537022531,299012,104251,1766007820,624,6.7,2.72,2.65,0.11,0.0,216979355,198798000,17981000,231393185,28
542670886,16199967,342787677,847444,334544360,845954,329574,33197691,678243333,126063,547845407,12036,104061,1396700002,1110,5.62,2.21,2.14,0.1,0.0,184343756,161250000,22893000,198590524,28
928807245,16439890,156074278,512088,155976593,516352,227700,37946036,1013570870,28515,932011493,5168,7159,2197521849,646,8.05,3.22,3.13,0.14,0.0,273960374,270782000,2997000,288307607,28
567355354,6252485,383343016,823964,387856736,826660,351588,17095625,929414325,124196,575405052,7404,109948,2187905642,623,7.62,3.05,2.97,0.13,0.0,250342866,227006000,23000000,264614291,28
338948468,9090493,217308015,761189,220175720,761137,226117,25112977,667803329,118444,344968269,5969,108661,982427484,625,5.51,2.14,2.08,0.09,0.0,179971064,149794000,29958000,194246788,28
425994407,15873340,281910706,653799,283308473,645491,190187,34083578,555875336,16278,430239469,3554,5201,1193042707,625,4.53,1.87,1.81,0.08,0.0,149637660,148395000,1002000,163797413,28
370882943,6601343,362512854,840736,362370064,838277,249617,16306791,780594142,122628,364904063,4480,108025,1481401370,635,6.31,2.45,2.38,0.11,0.0,210855034,183675000,26952000,225261635,28
454396656,16284305,173852215,650981,173734187,656277,245542,34052030,634955175,118693,456561788,307727,105984,1405739238,629,5.37,2.08,2.01,0.09,0.0,171983814,134771000,36937000,186510819,28
386428642,6274352,402412798,982681,396750861,982431,260688,16661490,733075160,117681,389330024,296601,103948,1725746137,825,5.99,2.26,2.19,0.1,0.0,199684172,166341000,33067000,213931927,28
370794095,6588302,592583646,784994,592824441,785252,264068,16663639,834978534,123569,367005693,4830,109025,1963162452,633,6.79,2.64,2.56,0.12,0.0,225089202,188796000,35961000,239637070,28
578758761,188213605,174058778,717768,174007019,718480,221772,48886883,955839082,124127,585283715,6459,203768,1653447262,631,7.91,3.1,3.0,0.13,0.0,259928019,233728000,25969000,274327386,28
451318030,6538307,407133259,819574,402563948,818855,340031,17114116,942939457,125399,454910904,11007,498558,1724178424,1119,7.6,2.93,2.85,0.13,0.0,256257210,227008000,29001000,270498923,28
538607025,219387873,360545581,1268133,360781312,1266494,282199,27147083,935706447,127737,536108693,44450,311871,1821683282,629,7.76,3.09,3.0,0.13,0.0,252282141,223044000,29005000,266626357,28
428345615,15899945,276599984,532302,277040566,531018,215821,34475978,355752777,10081,438883274,1891,3080,1200093365,631,3.02,1.23,1.2,0.05,0.0,95929809,93693000,1993000,110250662,28
420426523,15691074,169761719,432449,167951042,422467,215787,35312557,415515648,12122,435097320,2988,3176,1489552194,634,3.56,1.5,1.46,0.06,0.0,112098430,108758000,2993000,126304081,28
563690599,16604203,160294832,436300,159482618,436351,323973,34278069,428444972,13375,567577558,2347,3391,1473398446,649,3.65,1.54,1.49,0.06,0.0,115144953,113773000,998000,129460454,28
524579413,55167806,416252422,1041734,419845637,1042450,769574,26842922,948373858,128547,529564535,20963,104942,2053844092,2000,7.67,2.99,2.89,0.14,0.0,256267974,215029000,41005000,270661819,28
554390591,16030163,158547518,438693,158591919,439017,257587,33472698,468445566,12627,566949127,2528,3644,1453281749,631,4.13,1.77,1.72,0.07,0.0,127024501,123751000,2993000,141313855,28
432064410,16128972,159554103,427561,157412725,424787,311125,35058484,402544756,12975,431102953,2804,3142,1450380666,643,3.42,1.45,1.41,0.06,0.0,109219603,106817000,1996000,123583106,28
311832461,6575487,360542685,923044,360506543,931858,267693,15119863,667079753,120449,305446185,4775,105460,1630925324,623,5.43,2.08,2.0,0.09,0.0,179760633,151587000,27924000,194062997,28
539466369,16592670,344136892,801394,340905974,806820,274285,33889317,796675664,121893,536297318,6987,103453,1378018410,626,6.59,2.59,2.51,0.11,0.0,214974605,182620000,32109000,229135094,28
425845004,15789486,158401287,419590,158436121,418176,211622,34580502,402449644,11312,438342714,2118,2831,1445915697,630,3.35,1.36,1.32,0.06,0.0,111268863,109016000,2000000,125503926,28
435471763,16046490,157873031,412075,157298724,412730,206329,32670647,365868061,15775,439664625,2276,3159,1347483546,625,3.16,1.34,1.3,0.05,0.0,99352456,97136000,2002000,113493703,28
388506062,6423349,404567305,864818,398224608,862652,307641,15549221,740231153,119681,391189316,9894,103928,1745248170,1104,6.02,2.29,2.22,0.1,0.0,199532471,167263000,32050000,213845494,28
826569250,16283314,422522124,917810,422216772,924511,279905,38509605,1100393411,130342,829659277,6669,143235,2404025443,631,9.0,3.6,3.5,0.15,0.0,298082421,267861000,29984000,312613956,28
428497954,15886388,158160813,417212,156627960,411164,184875,34581448,400097156,12052,430484061,2705,3192,1448548424,636,3.39,1.42,1.39,0.06,0.0,108060172,106822000,1007000,122193899,28
425610072,15727006,158184023,422858,157085989,425906,196809,34412599,405078918,12426,432469338,2605,3235,1440047681,629,3.45,1.47,1.43,0.06,0.0,109201131,106544000,1991000,123448319,28
247525094,9861660,160907501,571050,157689179,562955,199311,18625646,229984413,9784,240018120,2679,2697,699725970,661,1.92,0.78,0.77,0.03,0.0,62390082,60113000,2003000,76666400,28
454627634,6728851,447089952,1020908,435368257,1007212,515132,17431920,737076347,120671,460316519,13837,203466,1658366417,1637,5.94,2.24,2.16,0.11,0.0,199261160,165891000,32978000,213491597,28
433327460,16716468,157151898,419916,157584337,416115,202454,32429729,389138070,12835,429334024,3294,3705,1325554485,630,3.32,1.38,1.33,0.06,0.0,104919184,102648000,1993000,118908283,28
441606966,16995925,176028513,491527,174255119,494537,210951,32425587,325651683,11592,427040721,2640,2728,888782329,632,2.71,1.08,1.04,0.05,0.0,89541871,87295000,1983000,103847715,28
432858737,32146986,158729271,422459,156781848,419749,1180898,64149004,449935754,16358,428026060,4402,3402,1460081566,1122,3.9,1.68,1.63,0.08,0.0,120599812,119330000,1002000,134895695,28
429078155,15878830,158977595,423644,157221778,420540,198213,34726953,402556039,12641,431874948,3094,3377,1450023769,643,3.46,1.47,1.43,0.06,0.0,108467809,106211000,2003000,122803886,28
343169140,6298692,385189001,737812,392972681,742011,182827,15033474,397901476,11981,342712194,2792,3564,1316867256,630,3.23,1.27,1.23,0.06,0.0,107830748,105514000,2009000,122310966,28
427703077,15650663,158236656,419616,156854429,418806,179669,34397871,402575290,11869,431893255,2942,3202,1447384924,625,3.45,1.47,1.44,0.06,0.0,108518161,108309000,0,122595602,28
348215438,6389691,341760103,650646,338859883,655864,251656,15221165,412672351,12860,351217767,1947,2842,1417463490,632,3.39,1.37,1.32,0.06,0.0,111290886,108955000,1999000,125666915,28
588666080,16583767,174403544,661805,173425903,661194,242972,35077317,665874039,121070,577728601,3573,539488,1536432123,628,5.54,2.17,2.1,0.09,0.0,180412050,145119000,35028000,194984496,28
519678566,15573029,217044606,671372,218782526,674564,234770,36142413,725211622,118146,536751890,5391,108051,1729896802,624,6.03,2.38,2.32,0.1,0.0,195361898,168104000,27016000,209725990,28
344482212,9759919,220657053,829366,218896506,816358,190016,22643851,547904623,118433,339292143,6179,105063,995625606,624,4.58,1.74,1.68,0.08,0.0,148145304,124726000,23134000,162251189,28
422393560,15730800,170009597,413606,167437572,413085,265445,34611986,414987495,12902,433008437,3103,3159,1489436245,1064,3.57,1.49,1.45,0.06,0.0,111677659,107418000,3978000,125977519,28
559825117,16147921,158966590,434836,158809029,435988,255913,33620512,470587529,14008,565241387,2244,3813,1454930448,632,4.13,1.78,1.73,0.07,0.0,127040666,125702000,997000,141405484,28
514153144,6836769,533170256,813937,527457667,808312,234743,16351732,848854298,124874,509469725,7990,103966,2126997575,637,6.89,2.65,2.57,0.12,0.0,230423013,193112000,37021000,244663754,28
452420024,15992489,291751155,793036,293672513,787444,216614,35043045,607207435,116143,463686633,293154,105627,1155795226,634,4.98,1.91,1.85,0.09,0.0,163554310,130254000,33064000,177892651,28
454847702,16070934,172153322,657057,172077996,656740,239838,34237763,618109026,119624,468186584,298785,103893,1420278103,632,5.13,2.02,1.96,0.09,0.0,166159588,131924000,33980000,180574421,28
230875833,6550483,255879278,666270,254732951,681756,294528,13922838,472515580,113880,227523448,127926,104291,989910690,630,3.83,1.46,1.41,0.06,0.0,126550846,95085000,31027000,140960608,28
442257624,6286706,397352139,1007778,404677397,1014067,243947,17028601,724845974,117741,450001543,9494,108816,1687793103,625,5.93,2.29,2.22,0.1,0.0,195689968,163177000,32034000,210039373,28
306882513,764954,406882471,1065058,408287992,1070725,188394,2675275,554896094,15847,306484585,3699,4131,1200061909,647,4.69,1.82,1.78,0.08,0.0,150294792,147062000,2980000,164658582,28
437633330,16734140,161460972,429189,158782427,422441,430489,36597041,411023971,16530,433338382,6500,3490,1468758849,1546,3.48,1.46,1.43,0.06,0.0,110229316,105904000,3959000,124626177,28
457404921,16237837,173781431,665839,173199859,665098,220052,34043353,678093456,120167,454958592,306530,105728,1537158226,624,5.68,2.26,2.19,0.09,0.0,183619376,152256000,31052000,197828725,28
281606956,6462275,390001538,563861,385490182,563886,213317,15173798,578557367,17051,278372965,2871,4024,1320860903,630,4.71,1.86,1.82,0.08,0.0,157438059,155092000,2001000,171671774,28
529365598,15776388,333673035,821961,335137466,823299,362541,35490693,685728855,115226,551396216,6179,105240,1376389326,623,5.61,2.18,2.11,0.1,0.0,183931667,158612000,24939000,198149049,28
538526377,17277850,347455332,891406,343729670,891330,424172,40125523,810772298,127133,525104616,8312,242010,1509214324,1120,6.78,2.66,2.57,0.12,0.0,219331637,187039000,32006000,233701356,28
345320189,6299555,340947166,705270,344045913,701435,188556,15831764,402139264,12448,345472895,2801,3915,1404752299,631,3.27,1.29,1.25,0.06,0.0,108522377,107164000,1001000,122705393,28
532200531,267651897,224766723,758685,224731052,767467,351919,81153155,1154011627,136903,524472900,13143,301954,1869771887,1083,9.69,3.89,3.78,0.16,0.0,312772769,278530000,33942000,327147224,28
433097677,141266966,162989642,550840,158391017,540202,611722,76001576,1166063289,39134,431012478,13301,11805,1704638859,2093,9.07,3.4,3.28,0.17,0.0,318201878,315992000,2006000,332386766,28
427028238,15844021,157796561,427631,156362013,418536,350032,34612694,400778115,12245,432965232,2634,4144,1450924398,632,3.55,1.47,1.43,0.06,0.0,108242737,106763000,997000,122599691,28
557730441,16105122,280368328,541336,279876454,547554,232274,34293990,470956208,14074,567094832,2354,3053,1328855665,631,3.94,1.6,1.55,0.07,0.0,127234967,124874000,1997000,141319838,28
528927801,16152951,217173035,674393,217117949,672546,226117,34937361,740888541,118653,544273969,294915,203120,1760732688,622,6.2,2.39,2.31,0.1,0.0,202533907,164238000,38055000,216771125,28
425435442,15719800,158494770,424690,157373275,419963,193215,34604776,403738808,11704,431577172,2630,3147,1447175680,630,3.45,1.44,1.4,0.06,0.0,108630405,106387000,2007000,122876374,28
287366094,6278152,234346048,380960,234607646,377648,282137,15041206,396029107,15389,283434420,3867,3438,1083526774,1125,3.5,1.42,1.38,0.06,0.0,106808254,105552000,1005000,121038472,28
583651091,16403792,297451839,781454,297612936,786973,224031,34059916,716837499,121832,583796161,5592,129897,1286309341,631,6.02,2.33,2.27,0.1,0.0,193287148,167970000,24995000,207784292,28
88217398,1038757,59952116,71334,61820887,67606,825210,2225899,130101715,20372,83417476,27546,5485,322247781,3877,1.12,0.43,0.42,0.03,0.0,35471387,28146000,7036000,49771031,29
67432333,574457,40111117,69044,36121961,63878,419318,1298455,90158894,7142,67777835,7180,2316,236243584,1959,0.76,0.29,0.28,0.02,0.0,24239400,20970000,2995000,38623255,29
68280380,603228,40082127,71716,36514052,71627,389074,1315728,90231347,5582,69538792,6669,2367,235760180,1958,0.75,0.3,0.29,0.01,0.0,24497684,19131000,5034000,38482765,29
175319890,379965,108527073,552437,104977498,556427,669646,3619509,634721016,226299,168316180,15549,207250,562893392,1952,5.03,1.77,1.71,0.09,0.0,174079249,115752000,57876000,188365320,29
90896205,1076735,57648799,73025,58265850,70240,831914,2284990,134383023,21325,85250536,23051,6162,329463242,4137,1.14,0.45,0.44,0.03,0.0,36018365,27783000,7938000,50260629,29
126582132,672695,72768648,80766,70398069,80652,657911,2140664,158672478,11261,124730280,9983,3177,397900867,2600,1.35,0.52,0.51,0.03,0.0,43082049,35826000,6966000,57491102,29
72356532,713563,39295164,70187,36686258,71836,638341,1682164,98450665,7342,79832716,5267,3073,262671825,2928,0.81,0.31,0.31,0.02,0.0,26416620,20086000,6025000,40607096,29
95612091,1270080,60738829,84028,60309863,84785,1208590,3129258,159334075,13174,105586890,18312,5342,359554660,4290,1.34,0.51,0.5,0.03,0.0,43014234,36767000,5962000,57470651,29
71357140,591252,42045392,70245,38565770,72262,512224,1458232,92879907,6665,72349053,9779,3302,244950659,2155,0.75,0.29,0.27,0.02,0.0,25418115,19380000,5814000,39658978,29
66213542,613817,39589391,71852,36255335,66717,385361,1304033,90114245,5720,67936169,6371,2441,235454317,1958,0.74,0.3,0.29,0.01,0.0,24034593,19608000,4128000,38413189,29
55426442,283401,32407728,53245,28091335,57268,442303,1471933,63433239,11741,45990854,8762,2365,188824592,1958,0.56,0.21,0.2,0.01,0.0,17268905,13063000,4019000,31316659,29
122870562,543333,72115438,77412,69401165,77679,467327,1738631,153235322,8041,123299533,10772,2619,382454622,1951,1.32,0.5,0.48,0.02,0.0,41539387,37318000,4034000,55916370,29
71784418,187031,58053352,66123,51865753,72536,493147,1664892,112963377,12874,66240830,6171,1506,302435738,1953,0.92,0.37,0.35,0.02,0.0,30580065,27357000,2931000,44876002,29
72337882,203210,58625960,66037,51924577,68539,478009,1663110,112555669,11882,65920012,8552,2102,304755975,1954,0.96,0.38,0.37,0.02,0.0,30744746,27634000,2960000,44930345,29
90956078,1157536,58705586,80154,57074449,74932,720179,2211529,135112747,21390,83249451,20089,5740,330854443,4136,1.14,0.45,0.43,0.03,0.0,36324721,28039000,8011000,50723107,29
93316116,1349920,60771308,82606,55270782,76174,602822,1935349,137702616,18644,84592478,30631,9892,324054545,4528,1.25,0.47,0.46,0.03,0.0,37317593,32119000,5018000,51794953,29
70225275,672132,40945950,73134,37365899,75196,567383,1549243,95179818,8022,71603052,12888,4518,239561377,2607,0.8,0.31,0.3,0.02,0.0,25283761,21904000,3129000,39541700,29
96764195,855709,62718275,71979,60603597,73440,892954,2376625,131419285,23182,82312984,22035,4828,334640440,3687,1.13,0.44,0.42,0.03,0.0,35331664,28041000,7010000,49785289,29
144681535,1647334,100093799,110534,98224023,105568,1657121,4025080,249866369,38437,150786639,52853,12159,513604206,9538,2.14,0.83,0.8,0.05,0.0,67033984,49644000,17223000,81292899,29
126722492,565336,74122036,81141,70275250,83452,519186,1932795,154203478,10445,119817944,13217,2690,398429818,2146,1.31,0.48,0.46,0.02,0.0,43535586,38349000,4916000,58134075,29
72487089,564124,40013339,71408,36379240,77995,613974,1616089,94039581,9407,73181764,13146,4378,244786354,2605,0.79,0.31,0.3,0.02,0.0,25556442,22209000,3028000,39794151,29
73109355,498377,40150155,70473,36686994,74571,651976,1647956,93955881,10257,72388002,9969,3051,246081161,2605,0.81,0.33,0.31,0.02,0.0,25939733,20753000,4941000,40438822,29
73373577,524095,42672255,68910,38626558,68916,469225,1604394,89366043,16592,69554380,10014,3060,238186905,1958,0.76,0.3,0.3,0.01,0.0,24491891,18121000,6040000,38816998,29
130763040,491579,75353769,76139,70943224,79040,609561,1998496,154641341,11241,119335554,16823,2771,398929355,2149,1.32,0.52,0.51,0.02,0.0,42379581,38152000,4016000,56927842,29
71748203,587284,39379273,70634,36531982,75463,630041,1603325,96578379,8934,73723526,10452,4706,242039733,2607,0.85,0.33,0.31,0.02,0.0,25881404,20439000,5109000,40290765,29
118701618,1550027,78891048,97375,83744242,96669,605152,1769898,200129394,20180,120976599,43570,11274,392737701,7421,1.69,0.64,0.62,0.04,0.0,54008911,41826000,11950000,68173074,29
93034070,1302050,59756463,81940,57281023,74275,745516,2207169,138689075,19846,84602696,27057,8682,330611170,4527,1.16,0.46,0.45,0.03,0.0,37223885,29993000,6998000,51532828,29
141052656,1232509,90448537,93993,87327380,95192,554967,1795406,194490201,22509,142153881,23721,5588,475274731,3678,1.65,0.64,0.61,0.04,0.0,53242183,46960000,5994000,67641220,29
90339594,896600,59720938,80095,58826952,77363,947747,2326969,132528753,20943,83872134,24620,8148,330891285,4138,1.15,0.45,0.43,0.03,0.0,35687074,31280000,4036000,50214586,29
142447928,1224085,91912002,265436,89881074,270222,815775,2089557,206098452,11724,140967189,14711,4812,482245258,3483,1.82,0.68,0.65,0.04,0.0,55975653,51779000,3983000,70390686,29
71352078,589906,42119263,72033,38811189,73359,483972,1704473,96558095,14925,75794230,6868,2192,252235996,1957,0.78,0.32,0.31,0.02,0.0,26214737,20943000,4986000,40555608,29
128474255,542963,74930196,78224,70281680,80058,623826,1993029,156852517,9147,121704780,11461,2242,404814850,2147,1.39,0.54,0.52,0.03,0.0,42367598,38022000,4002000,56626659,29
115707865,839328,68858218,81302,68868098,79127,482102,1809840,158406449,6144,131711910,14515,3551,380324883,2146,1.38,0.54,0.52,0.03,0.0,43119676,39778000,2983000,57521480,29
70258365,564527,40814088,70440,37323751,68943,413703,1359126,92276309,5908,73442654,7839,2273,246549001,1959,0.75,0.31,0.3,0.01,0.0,24920525,22618000,2056000,39286832,29
227178455,9382276,178373131,257624,180723587,260909,9296285,15625019,679544339,149350,223508043,275604,67012,897777502,60907,5.63,2.16,2.07,0.16,0.0,183136962,121011000,62005000,197507020,29
124222302,600719,72600926,84935,70061953,87197,672888,2097089,163864714,10906,124297972,11941,3843,395441929,2599,1.35,0.55,0.54,0.02,0.0,42729116,38234000,4024000,57176924,29
146192860,1398827,92806416,96537,89832121,97612,930721,2500260,206934203,28577,141699177,19467,13657,489338899,4716,1.82,0.71,0.68,0.04,0.0,56000749,44798000,10950000,70327451,29
209112501,17708777,147269777,644475,141025023,644247,4134312,10281297,701440552,105107,210617113,180292,108687,734205928,37389,5.55,2.1,2.02,0.13,0.0,189333145,136067000,53026000,203691816,29
158159351,9658723,107498616,1373519,108688110,1241641,2601183,5904288,397687354,36351,164392448,36703,10880,547605516,7263,3.21,1.19,1.15,0.07,0.0,106890974,98721000,7977000,121244696,29
68892359,589610,40399813,76590,37061938,69685,464612,1363849,89326342,7167,66838911,5128,2555,232028163,1960,0.75,0.3,0.29,0.01,0.0,24143960,20931000,2990000,38431503,29
100084550,1726119,63824769,87642,61041862,89149,1664587,3093048,155179670,15176,98826361,32362,10551,360631781,5851,1.32,0.52,0.51,0.03,0.0,41734539,29244000,12101000,56217873,29
71981772,594378,41859166,70827,38588095,72290,524242,1422496,95330698,6814,72635746,9053,5969,247689720,2351,0.8,0.32,0.31,0.01,0.0,25477774,20175000,5043000,39840549,29
122991660,572386,72377248,79432,69294419,79967,496592,1887846,155207064,8008,124150152,10409,2690,390669367,1952,1.32,0.52,0.51,0.02,0.0,41774535,33535000,7890000,56157027,29
87728488,1160486,57410183,71526,58748438,68831,814085,2260165,133069612,22335,83681593,20304,5452,324730283,4137,1.16,0.45,0.43,0.03,0.0,35596513,29448000,5889000,50075827,29
166590879,5375852,107791029,303431,107376819,307974,666887,2930674,305306926,21677,176370680,26693,7361,543416044,4852,2.54,0.97,0.94,0.05,0.0,81904732,76690000,4979000,96362447,29
122838764,542987,72436525,77992,69897643,79605,560207,1885197,156664736,8327,124179414,9617,2727,388456435,1967,1.34,0.53,0.51,0.02,0.0,42012453,41718000,0,56496201,29
66471399,612283,39550728,69367,37094810,64329,365596,1228865,91201059,5676,69103944,5813,2731,233167209,2058,0.81,0.31,0.3,0.01,0.0,24335380,22071000,2006000,38774091,29
183247646,1092467,119898143,569732,123246673,561756,931797,4455119,687680693,227947,194972019,618411,213479,626110240,3483,5.56,2.04,1.98,0.1,0.0,186038328,159889000,25981000,200502740,29
91282262,1225957,56214138,80446,58803178,74586,657613,2158439,137211615,20427,88528174,19376,8447,326709821,4136,1.15,0.46,0.45,0.03,0.0,36998720,27704000,8905000,51415254,29
90492744,918940,60680102,72941,61382429,69834,817356,2380296,132105842,31201,84989680,20912,4542,332183598,3489,1.16,0.46,0.44,0.03,0.0,35361172,31108000,4014000,49788125,29
80493993,549267,45196684,82033,38439271,80554,766776,2295304,97861654,12992,75199519,9754,2592,275213027,2597,0.85,0.33,0.32,0.02,0.0,26708062,24414000,2034000,41013589,29
67698254,585814,39247041,68516,37254901,69081,533557,1401736,92424419,6046,73164432,5175,3331,239740371,1960,0.71,0.25,0.25,0.02,0.0,26470158,26221000,0,40885098,29
115658556,913593,66865597,82574,66912411,80996,628994,2053719,161532644,9227,134232770,10584,9003,382736962,2991,1.39,0.55,0.53,0.03,0.0,43585719,39279000,4028000,58065038,29
88506395,1193990,56910341,75842,59157982,75934,855827,2351561,132504814,23030,84066841,24941,5435,322453131,4136,1.13,0.44,0.43,0.03,0.0,36080914,28852000,6964000,50534246,29
68857693,578620,40004182,69483,36423834,65255,407186,1315202,91062474,5987,68645033,7554,2263,237210235,1957,0.78,0.3,0.29,0.02,0.0,24592488,21219000,3031000,38799755,29
124034250,520513,72817508,76905,69693008,79735,569265,1870678,155599659,9227,123094204,9646,2046,388511619,1963,1.33,0.52,0.51,0.02,0.0,41584445,38295000,3023000,55966956,29
172024230,898470,102105576,549835,102302097,549064,483321,3395715,634560189,219720,180600501,55334,213805,551502241,2373,5.06,1.89,1.84,0.09,0.0,171218737,164994000,5999000,185725359,29
72140013,590503,40358560,69618,36619251,71277,574093,1489306,92782130,9052,71768067,10993,3335,244446037,2607,0.78,0.3,0.3,0.02,0.0,25906113,23552000,2048000,40246876,29
63621361,849877,34851806,75322,34798317,74355,719557,2165606,101621284,7477,86742078,7854,6706,245384418,2996,0.82,0.33,0.32,0.02,0.0,27103633,20907000,5973000,41495917,29
89438969,921148,60573819,70253,60109976,67912,789117,2185130,127960750,20480,81238979,22343,4467,323983616,3488,1.13,0.44,0.41,0.03,0.0,34905926,29528000,5091000,49280356,29
65840050,1639669,47795715,87770,51156780,80443,733536,1939343,139750594,22421,74013811,40730,25790,256359153,7466,1.2,0.46,0.44,0.03,0.0,37427743,26113000,11048000,51836567,29
69023696,582374,39647721,70601,36624718,71074,435651,1386283,94247856,5619,73682561,6325,2952,247054824,1958,0.77,0.31,0.3,0.01,0.0,25048662,21816000,2974000,39528462,29
124451523,540158,72498228,80948,69334686,82939,583528,1907130,155311409,11482,120880229,13081,4668,392094575,2599,1.35,0.54,0.52,0.02,0.0,42249903,37978000,3997000,56567745,29
68169931,598644,40508528,70033,36712269,66024,422541,1363926,91165701,6066,69293410,6348,3291,241037696,2053,0.79,0.3,0.29,0.02,0.0,24536441,21278000,3039000,38832444,29
147641277,1156329,93637560,92048,90524415,93325,570849,2097109,196809848,28064,142395941,28267,6116,485409661,3485,1.68,0.66,0.64,0.04,0.0,53565240,47211000,6027000,67915835,29
127974888,651633,74028387,78195,71081164,80192,662140,2202477,161851395,12750,124260784,10508,3992,406816980,2598,1.38,0.54,0.53,0.03,0.0,43328441,39038000,4003000,57857739,29
126546427,533477,74091770,78402,69859111,79463,581125,2173363,157744525,19751,122935718,13047,2454,403979730,1950,1.3,0.52,0.51,0.02,0.0,42311586,35056000,7011000,56750059,29
69364818,646705,39612817,72631,36652844,76595,458772,1596391,96131661,16052,73357131,8460,3091,242691303,2602,0.82,0.32,0.31,0.02,0.0,25539008,21166000,4031000,39863488,29
122947526,582740,72367112,79677,69576823,81192,505124,1885995,154722051,8490,123843994,9327,2155,388121711,1952,1.32,0.52,0.51,0.02,0.0,41794988,38477000,2959000,56369709,29
124403788,535137,73008305,75762,70125179,77952,549369,1891853,156183236,8348,122328979,13207,2362,391677820,1951,1.33,0.52,0.51,0.02,0.0,41865450,36647000,4952000,56307464,29
68430364,600561,40475541,71397,37691224,65516,424732,1312215,90832012,6717,67534182,7598,2981,234791640,1959,0.76,0.3,0.29,0.02,0.0,24543965,21162000,3023000,38831848,29
141540191,1295912,91192746,89641,90165598,89361,552007,1996712,200164982,19992,143424944,32806,6410,477602184,3871,1.76,0.68,0.66,0.04,0.0,53920149,48658000,4965000,68332791,29
72544453,616191,39433360,71255,36244373,74022,589444,1518401,93520722,9480,73217532,9160,4847,244248984,2997,0.8,0.31,0.3,0.02,0.0,25907605,22588000,3080000,40176531,29
88525225,997267,59631365,75337,60761222,68132,781084,2160653,130250734,19731,81971925,22047,5022,320889025,3491,1.12,0.45,0.43,0.03,0.0,35463743,29980000,4996000,49862486,29
124033111,527699,72823741,78377,69757068,80362,497150,1821401,154432074,8774,121984631,10548,2200,388120305,1951,1.33,0.52,0.51,0.02,0.0,41469501,37044000,4004000,55896784,29
95209786,1075464,60329849,78912,60872076,76155,696263,2334225,135953090,28242,88740069,23189,5836,335326543,3685,1.15,0.46,0.44,0.03,0.0,36893174,27359000,9119000,51033881,29
67950273,618629,40162733,70912,37203397,72307,439161,1363907,92014439,6133,69534083,7418,3141,236026658,1957,0.77,0.31,0.3,0.01,0.0,24646126,21221000,3031000,39116655,29
69655824,486647,41110259,68883,36712351,65056,374790,1197201,86638878,7496,66676107,8781,3264,232719762,1957,0.79,0.3,0.29,0.01,0.0,23813361,21335000,2031000,38203128,29
124935437,544155,73474321,75914,70270304,80084,526141,1825269,155167100,8549,122391316,11224,2086,396465702,2088,1.32,0.52,0.5,0.02,0.0,42330476,38967000,2997000,56555374,29
89447642,879283,60459282,72192,60167911,70091,824333,2166604,131507939,21778,83448106,19971,4779,328722403,3489,1.13,0.44,0.42,0.03,0.0,35374209,31105000,4013000,49581608,29
244835140,4486078,161617470,3924745,165329632,3919695,1614997,9941799,488072162,109433,250053641,33662,11209,894667909,2575,4.1,1.58,1.53,0.08,0.0,130324307,124032000,6001000,144713341,30
276658358,4640918,181080383,4328357,181112710,4328809,1573112,10283391,505948983,114768,278376669,54982,15915,1020703659,4613,4.29,1.64,1.6,0.09,0.0,137136663,128853000,7990000,151514022,30
221552732,6111309,149530495,3619155,149764555,3635773,1341474,11592251,442898966,123440,225674492,20369,7026,806646299,2187,3.76,1.42,1.38,0.08,0.0,119838649,115544000,3984000,134137968,30
406094160,24153100,210106923,7198517,214821890,7207626,7490428,45884950,885303153,786287,421148250,21253,15792,1488298835,5216,7.64,2.9,2.8,0.2,0.0,238796367,225411000,12966000,253193377,30
319195025,4244675,214702375,4410164,214709286,4377341,1334237,10222883,586193717,78678,321404564,23433,10155,1278829849,2575,4.98,1.9,1.84,0.1,0.0,158525891,154121000,4003000,172910547,30
282655760,4812677,181519966,3998218,185066949,4025714,1121314,10913587,755141636,184561,290389152,323666,108651,1032208874,2574,6.29,2.35,2.28,0.12,0.0,203765348,189639000,13973000,217992452,30
330810997,11482969,223589589,6113812,227024210,6099941,2650155,22756908,693897719,340921,337474786,23142,11914,1254629174,3505,5.95,2.26,2.19,0.13,0.0,187527665,179377000,7972000,201746215,30
223654906,3883395,149380771,3520669,154480238,3568050,1008528,8323013,448457923,88610,229447662,27352,10464,812417039,2380,3.75,1.43,1.39,0.08,0.0,120775716,115570000,4981000,135324518,30
816226599,13716503,497292211,6041081,499448291,6051088,11765659,34333754,1578471356,832832,827471284,86341,118067,2509641310,7161,13.38,5.06,4.89,0.3,0.0,427808060,401593000,26038000,442362007,30
455925305,11061090,242182162,6542938,242519170,6568205,2369227,22130522,809385098,294635,456574063,20042,13045,1615136162,2380,6.93,2.69,2.6,0.14,0.0,218191205,213770000,3995000,232412594,30
221596294,13932112,197423632,2640978,197442949,2639264,4540205,25289450,575988191,1135071,222370904,27534,10840,985673543,3405,4.89,1.85,1.79,0.13,0.0,156050615,154801000,1005000,170273918,30
326357519,6845719,200065478,4816642,203755680,4838163,1752952,15376025,646089377,208962,333555998,35721,12281,1283688609,2966,5.5,2.14,2.07,0.11,0.0,174511375,168190000,6006000,188699474,30
221496463,4039678,159615226,3578495,164391621,3643250,1116300,8836342,445957619,74645,227171418,28271,9332,835037617,2578,3.76,1.44,1.4,0.08,0.0,120363485,119008000,1000000,134718135,30
410743600,7345577,240847973,5880006,240995732,5867269,1871304,16236685,719903499,176434,401143935,30114,17666,1482306463,4625,6.17,2.39,2.31,0.12,0.0,194091803,183803000,9989000,208453686,30
219508500,4139378,148117702,3827394,150911435,3845237,1218268,8842472,453159395,73129,231364172,23542,11076,792594863,2576,3.76,1.4,1.36,0.08,0.0,124194900,116848000,6990000,138666576,30
288103936,5701653,190663317,3703264,187375738,3705625,2798014,12413499,782956633,232387,292092351,54698,141190,1042225990,11863,6.45,2.4,2.32,0.13,0.0,211597551,166237000,45064000,226049828,30
377775243,13586883,228072402,5597872,230426239,5591108,5975479,28864623,773913274,796029,388535091,37315,13120,1383661647,5075,6.57,2.52,2.43,0.17,0.0,209610028,201360000,8014000,224046728,30
304524433,5581710,192111477,5319506,196021243,5334768,1853955,12293926,834955310,342494,314041180,224598,167294,1159393508,2965,6.94,2.57,2.49,0.14,0.0,225450018,195065000,30010000,239785017,30
815844016,8246439,475938250,5620322,468933870,5519173,4709587,19525070,1365068273,398941,806565981,177696,118125,2503391798,6619,11.66,4.49,4.35,0.23,0.0,368715141,335472000,33046000,383085263,30
352845700,4374301,217447775,4505961,217039511,4435066,1780412,10499112,620941584,111683,345932470,27340,8621,1250403734,4043,5.22,2.0,1.94,0.1,0.0,167873804,161628000,5986000,182386970,30
883017879,14666165,476239304,5922740,475631864,5956479,3539558,29150223,1438782097,503888,895002924,51541,115198,2611085219,4038,12.35,4.83,4.68,0.24,0.0,388183502,357998000,29999000,402398810,30
844264291,15364016,476215510,6127125,477297543,6126624,3810150,30304328,1429012393,526991,857941438,212263,423236,2582565596,4034,12.24,4.78,4.64,0.24,0.0,384187587,337966000,45995000,398561220,30
370728467,13510765,216651832,5176606,220332559,5196554,2623765,24040924,906074837,409515,379531058,28107,112510,1318813093,3845,7.48,2.87,2.78,0.16,0.0,245809424,204629000,40925000,260249157,30
375433106,28507205,176357151,4459910,177769851,4450626,10359487,47011471,832284199,2033681,386169300,22901,13557,1147605275,5609,7.23,2.74,2.65,0.21,0.0,224895948,213641000,11033000,239257633,30
405354307,5736253,208396912,4039024,212147303,4052678,2835695,13700394,908262742,329117,412784176,30783,112340,1293198211,4622,7.54,2.84,2.75,0.15,0.0,245577994,210253000,35042000,259998709,30
211031922,4324718,136939729,2101144,135418997,2016950,1121534,8324703,361529012,45813,205892837,18963,5965,752733254,2966,3.04,1.16,1.11,0.06,0.0,98012280,91762000,5984000,112270687,30
245626273,3444462,165430496,4357600,163997653,4298950,1033454,8030902,501284392,44333,241597557,14724,10665,951898002,2183,4.23,1.6,1.56,0.08,0.0,134934302,126701000,7981000,149338317,30
686728553,6167303,417323791,3414594,411965604,3397310,1429232,13062954,1058133519,181029,679380511,37786,108070,2033771840,1692,9.12,3.51,3.41,0.16,0.0,285742042,249492000,35926000,300261656,30
248404919,6733261,165336809,4032791,169336217,4053017,1974835,13034218,728015844,246695,256314973,28168,113660,894327516,4041,6.05,2.25,2.18,0.12,0.0,196744326,157308000,39076000,211349774,30
239043935,4479956,157214546,3450760,160452605,3464093,1563852,9468444,477717223,75212,244255155,15548,10071,867155283,3654,4.04,1.54,1.5,0.08,0.0,129118108,120820000,8054000,143313550,30
271136237,5500732,172434867,3929441,175497014,3924612,2500823,11617887,529634954,181784,277028180,26810,12874,951511914,3600,4.5,1.72,1.66,0.1,0.0,143475568,137204000,6008000,157855908,30
229506810,3726122,150366494,3405559,155298059,3451299,813720,7723897,448216353,40276,233122340,20036,9046,838547397,2381,3.81,1.47,1.42,0.07,0.0,120687359,112458000,7961000,135054413,30
223532009,4397181,148687261,3488472,151774264,3506403,1159953,9146371,452159228,76027,230979514,28937,9674,800634677,2964,3.83,1.47,1.43,0.08,0.0,122671648,116324000,6016000,137185995,30
422204938,19602382,261597063,5841745,262430018,5850870,17805082,49932976,981258817,1438381,429551340,52851,17695,1345669264,7167,8.44,3.14,3.01,0.28,0.0,265000053,254741000,9989000,279419370,30
311442207,5028408,208508627,4059544,211797638,4047398,1625314,10378406,585038592,78394,315220576,16984,14251,1120572179,3654,4.92,1.93,1.88,0.1,0.0,159200810,149868000,9052000,173555114,30
253437663,4590359,169563198,3956307,164476955,3910900,2195710,10275713,483674758,104734,241922887,26196,7621,922904471,3653,4.12,1.58,1.53,0.09,0.0,130553186,124269000,6013000,145026693,30
733201525,20630944,438131986,7683282,440545765,7646216,16793587,47606563,1629760289,792901,739936914,97895,292946,2364701900,6780,13.91,5.21,5.03,0.37,0.0,440552830,392231000,48028000,454854188,30
219919076,4086675,200369018,3745095,193484710,3694546,2025511,10420671,481703087,94826,211260048,18072,6761,1016932324,2376,4.08,1.6,1.54,0.09,0.0,130080269,123708000,5985000,144333294,30
315579516,6719859,209919221,3684546,213361578,3709126,2564170,13831345,645658737,119032,327854580,21115,10994,1339420076,5047,5.5,2.11,2.04,0.11,0.0,174606382,164303000,10018000,189109321,30
451411587,13954101,254968241,5219439,251859381,5204467,3355622,27511779,1012678632,490333,440936748,112249,152248,1536047047,4042,8.57,3.24,3.15,0.18,0.0,273293470,239053000,34007000,287652177,30
624814753,13959807,317901424,5577426,319295177,5544979,7630713,38945247,984294205,462636,626475238,35604,18112,1972312966,5608,8.57,3.29,3.18,0.21,0.0,265580174,253433000,11973000,279981064,30
330612323,7435615,194234327,4789893,194358045,4797690,2353287,16417238,600981247,224718,317087723,28699,11149,1161188821,4045,5.13,1.96,1.91,0.11,0.0,162227834,152960000,8997000,176752236,30
207086634,4022463,142576127,3394824,146970952,3474160,1512724,8747310,448219252,77065,216678206,21539,9914,749618585,3848,3.76,1.43,1.37,0.08,0.0,121905154,111670000,9970000,136294486,30
274762983,4355553,183415869,4061213,187377132,4079697,1147385,9914336,725021555,180005,283739873,30308,109551,1037128398,2573,6.03,2.23,2.16,0.11,0.0,195645209,167308000,28051000,210111143,30
309409893,4436433,200227849,4379142,200882416,4316485,1682876,10109065,572468989,105302,314500474,19898,10421,1221363175,2577,4.9,1.85,1.79,0.1,0.0,154381047,144064000,10004000,168584686,30
235631498,4128746,154405525,3520818,158533035,3541738,1588986,9348411,466817554,74876,244394571,14561,11398,865497141,3459,3.98,1.51,1.46,0.08,0.0,126289932,119951000,5997000,140551976,30
397324755,12750928,238585000,4838403,239313625,4881739,3552463,26481844,748826442,488121,401436774,23436,13363,1481550456,2966,6.39,2.39,2.32,0.14,0.0,205214736,197955000,6998000,219632344,30
211108970,3985416,140188472,3377041,141823077,3371381,1213952,8554933,428752681,80069,215726191,11497,8558,768683842,2965,3.64,1.39,1.35,0.07,0.0,115769036,111505000,4018000,129870256,30
250068158,12083818,192749886,5568664,193414046,5454308,6297326,25782920,687176692,990287,259807830,21206,12119,1063689188,5773,5.88,2.19,2.1,0.15,0.0,185836574,175491000,10028000,199994914,30
738024813,4230136,453415752,5055209,454767292,5075107,1577092,11294085,1223854614,269919,748950929,189394,117501,2314737409,2568,10.38,4.07,3.95,0.19,0.0,331688466,296426000,35050000,345870380,30
217584365,4847743,139342594,2487406,143661477,2510831,1322350,9780518,599429530,177054,225787584,173148,107723,758731373,2090,4.99,1.85,1.79,0.1,0.0,161359164,128983000,31995000,175651750,30
382591080,12709573,195036974,4788986,199009384,4778026,2836669,25167423,894789349,410055,392035436,268474,526908,1266404450,3848,7.48,2.83,2.74,0.15,0.0,242108567,201725000,40144000,256514993,30
265186180,4553635,176781064,3708735,180740070,3775854,1641398,10031758,504000029,75262,270596876,23942,9779,969980080,3654,4.28,1.66,1.62,0.09,0.0,135888315,126539000,9038000,150145900,30
887451203,14672818,477816559,5923647,473933430,5925193,3462059,30840418,1440932489,500633,898218996,50996,116325,2618889483,4039,12.41,4.85,4.71,0.24,0.0,389800349,353490000,36050000,404194347,30
706363150,6902504,436662380,4591149,439523371,4620488,1830090,14179298,1178689695,295171,718495525,44260,113685,2180584335,2569,10.01,3.88,3.77,0.18,0.0,318650802,281315000,37041000,333059386,30
886157989,14591844,476579897,5956836,473868170,5952225,3630295,29686232,1444910426,504582,900241169,46019,116156,2621151453,4036,12.22,4.86,4.72,0.24,0.0,392377562,347032000,45004000,406765739,30
357393285,12652279,196733295,6406373,200430484,6422462,3174138,25553628,721195224,342095,369311884,21708,11252,1189374439,3848,6.14,2.37,2.3,0.13,0.0,195224477,188776000,6024000,209643081,30
409587354,14707277,202029922,5626157,206364791,5646233,3417487,28808366,992984813,497875,419775278,32380,115513,1269291918,4043,8.37,3.19,3.09,0.18,0.0,268682716,234371000,34054000,283187072,30
379529987,9839507,226647089,6483677,229955777,6497408,3661668,21626804,778378037,473005,390047868,36742,13649,1459774311,3992,6.59,2.48,2.39,0.15,0.0,210178407,201782000,8031000,225082703,30
489625613,11439889,219995235,5000226,224039774,5006906,2923721,28788831,2235642795,340874,500557912,33212,27147,1620897493,5541,18.42,6.78,6.57,0.34,0.0,603582364,594339000,9005000,618086665,30
244248772,4121649,169037197,3841638,172181622,3858364,1060765,9054246,479165990,73088,250183318,22054,8933,917937217,2575,4.07,1.55,1.5,0.08,0.0,129446182,123096000,6004000,143804345,30
410861035,11590111,244379665,7587303,242415365,7545501,3376055,25675771,787840109,414748,397589037,32083,18490,1391375555,3651,6.77,2.63,2.54,0.15,0.0,212994795,202747000,9987000,227304109,30
745123439,5455330,455052271,4781784,459089167,4800648,1738840,13571901,1217715422,222046,753437173,332312,112514,2340845306,2566,10.39,4.04,3.92,0.19,0.0,329428011,301183000,27924000,343645041,30
31732347,4681555,34185724,3301223,31464090,3143477,1072340,8095755,179416729,27046,32140149,6229,2114,226447123,1822,1.49,0.55,0.53,0.04,0.0,48795526,43538000,4947000,63214714,30
794503035,14169187,476142840,5516499,479183530,5522112,4665104,28162787,1400499730,753288,810289381,43968,115562,2597695499,3982,12.01,4.65,4.51,0.24,0.0,377788218,343349000,34034000,392319612,30
765003051,5122968,466065780,4964727,463696938,4964562,2035389,13192724,1226120909,198652,748388943,35589,114228,2348771474,3647,10.49,4.07,3.95,0.19,0.0,330654246,291459000,38927000,345036913,30
224632476,6205471,148463484,3951721,146141228,3933424,1175791,11917329,610279606,150268,227336320,16620,104658,760170040,1699,5.05,1.89,1.83,0.1,0.0,164849842,135654000,28926000,179326112,30
276956777,7023009,176028155,3910121,176413121,3827537,2388263,14346209,524984001,138776,278930361,38274,12434,934815888,5998,4.51,1.7,1.65,0.1,0.0,141506332,125918000,14990000,155971817,30
259773765,4783213,164986928,3716681,167548320,3713800,1739319,10482970,693088790,191072,265496119,18397,111435,912444274,4041,5.73,2.15,2.08,0.11,0.0,187733885,147620000,39897000,202137214,30
246832359,8930124,181506011,4978126,181326790,5023261,884446,14956505,506756189,30842,247886080,26152,6473,962615476,2278,4.3,1.65,1.6,0.08,0.0,136288526,132894000,2997000,150637275,30
249713707,10176032,154064249,2376995,156838128,2387261,3001548,18161006,504548485,358089,255321845,38758,13757,883991376,7822,4.3,1.65,1.59,0.1,0.0,136421511,123022000,13002000,150771304,30
222196968,13728721,197430635,2632146,197419127,2631478,4764669,25093231,575784558,1319620,222621673,28324,10221,987892604,3405,4.97,1.89,1.83,0.13,0.0,155499104,146186000,8950000,169809872,30
735269690,4670614,458394299,4768418,456743497,4753857,1917084,12590661,1183405708,198333,719018242,49745,184515,2274790008,3449,10.17,3.93,3.81,0.18,0.0,321690296,274245000,47042000,336177943,30
233174743,4460732,152252476,3773696,156170304,3800137,1645726,9967113,489478081,75424,241722388,17872,11715,859698317,3654,4.14,1.6,1.55,0.08,0.0,132108805,125857000,6041000,146318422,30
326755851,10300484,191526395,3688259,192859498,3628561,4620182,21540234,591293811,487632,334977187,25440,12184,1127221929,6388,5.08,1.92,1.86,0.12,0.0,159699507,150339000,8960000,173932955,30
265185099,12906049,169974760,3906702,173640519,3861386,3818451,24290452,564141105,474602,275428639,23164,9980,982662674,3403,4.83,1.82,1.77,0.12,0.0,153170414,148852000,4023000,167608757,30
261785137,12296660,198915567,3753713,198508844,3700149,8083751,27622010,682936063,3679131,267376610,43634,13397,1146305813,6667,5.95,2.27,2.2,0.16,0.0,184466282,175086000,9004000,198631016,30
763682481,7292580,503151733,2148616,505131539,2147415,261087,16282834,1224387136,133009,772915705,73774,106837,2749525387,357,10.46,4.1,3.98,0.17,0.0,328761785,296399000,31935000,343081460,30
715127903,4121840,435650514,4725952,437681191,4734459,1198652,10947411,1195046929,157705,723136630,36448,115388,2236360458,2569,10.26,3.99,3.88,0.18,0.0,323056132,293811000,28981000,337362638,30
278177873,4801711,181870507,3973987,185313141,3977347,1710933,11054143,742951370,208333,286310251,168774,108660,1034202669,2572,6.19,2.31,2.23,0.12,0.0,199543734,156372000,42828000,213958547,30
5555523,314333,17073564,121305,16731666,109971,426482,1126562,79712709,21581,8432810,7282,2596,86409031,2175,0.63,0.23,0.22,0.01,0.0,21848134,18402000,3067000,36196425,31
12339490,140081,6966566,79046,6844398,74161,84274,654126,72469312,3157,12186437,926,1089,43560621,139,0.57,0.21,0.2,0.01,0.0,19792228,17571000,1952000,33858143,31
12464988,252893,57314774,6315389,57129615,6332136,124048,2159329,528234036,13888,12019794,1157,3397,208086818,134,4.04,1.52,1.48,0.07,0.0,142390995,141121000,1000000,156665071,31
12282392,233158,56880007,6766939,56785940,6779331,99564,1872413,452909488,11876,11757794,1866,3705,215404333,137,3.38,1.23,1.19,0.06,0.0,122053532,120767000,998000,136470386,31
535032088,8893613,466828194,6885989,468109640,6883294,10337072,20232390,1525327851,160746,540239509,263899,60839,2176308796,42080,12.72,4.8,4.64,0.29,0.0,411792372,341406000,70083000,426259115,31
520684141,8407388,457461109,6667216,463447703,6780890,9406550,18997951,1503014541,139347,528339189,172097,169923,2202919486,35930,12.43,4.68,4.52,0.28,0.0,406915877,355543000,51078000,421088604,31
11812493,213770,58941487,6719669,58893803,6697838,107064,2036253,481377097,12930,11699364,1776,3096,255744425,128,3.64,1.35,1.3,0.07,0.0,130176667,128933000,999000,144404172,31
11632578,169927,54298374,8257230,54179532,8242519,130753,2064535,476733563,14399,11851323,1096,3229,204438937,132,3.58,1.29,1.26,0.07,0.0,129102211,125952000,2975000,143487915,31
12598090,257222,46218851,6222027,46299474,6221831,165497,2291366,520820444,14284,12047810,1746,3984,178162286,133,4.0,1.5,1.45,0.07,0.0,140750796,140401000,0,154982006,31
12220531,229327,46700317,6323251,46839977,6330922,127951,2271468,531140579,15288,12021535,2050,3901,151934431,132,4.05,1.5,1.45,0.07,0.0,143316234,142114000,1000000,157355163,31
6625878,447671,6914401,83025,6189677,74152,317734,1159706,88568794,6411,6086570,6444,7477,55396689,2181,0.68,0.25,0.24,0.01,0.0,23891697,21643000,1967000,38471534,31
124753535,186887,75829910,6956827,75897434,6956848,105616,1572425,333876297,9725,126210274,1687,2855,539918565,133,2.58,0.98,0.96,0.05,0.0,89992373,88782000,997000,104071088,31
12768029,321117,58178271,7040948,58758024,7151817,121790,3145288,822952542,21034,12276782,1818,5704,234631132,133,6.3,2.32,2.23,0.12,0.0,222777795,220602000,1996000,236950834,31
12237534,246033,57610575,6970909,57733595,7000834,109491,2101192,503997419,13990,11931195,2503,4040,211958314,128,3.8,1.4,1.35,0.07,0.0,135856335,134656000,997000,150287238,31
286651253,323955,238845305,5275962,237198620,5260545,196243,3291609,805196570,21262,285489642,3235,16479,1043646719,135,6.55,2.42,2.34,0.11,0.0,216496378,215353000,1001000,230873362,31
15601027,246970,45673571,6714892,45801168,6740639,124127,2078609,513385547,13999,14961103,1890,4094,155301573,135,3.86,1.39,1.34,0.07,0.0,138381482,137183000,1001000,152686801,31
11827211,201257,57489577,6850186,57490539,6848068,119711,2109735,491821965,14018,11903851,2080,4112,210971982,132,3.75,1.39,1.35,0.07,0.0,132936004,131704000,997000,146999950,31
11608999,164675,57242971,7223082,57119787,7219333,116406,1383885,300604494,8140,11466090,1179,79624,223060494,132,2.31,0.87,0.85,0.04,0.0,80840108,80517000,0,95189856,31
12376699,245602,57778372,7318288,57909840,7362206,125943,2096408,501589438,12465,11907098,2005,3686,213059846,134,3.82,1.41,1.35,0.07,0.0,136077433,134844000,998000,150463094,31
44720156,183761,57415314,7106729,57380347,7149135,106817,1351121,297810328,7762,44769270,1487,2645,276661918,132,2.35,0.89,0.85,0.04,0.0,80424900,78152000,2003000,94680624,31
22642048,118841,8011823,61079,7996084,61270,101276,668286,55420217,1911,24262698,212,328,86321199,131,0.44,0.16,0.16,0.01,0.0,14488570,13200000,1015000,28399132,31
19732518,120069,8034458,60152,7989823,60665,96115,647894,55156375,1837,20832777,180,339,81347191,133,0.43,0.16,0.15,0.01,0.0,14638155,13474000,962000,29146308,31
11886133,205268,58196409,6905355,58277683,6930413,132076,2107605,508262248,12928,11513243,1825,3673,209179245,134,3.88,1.43,1.37,0.07,0.0,137433939,136245000,994000,151602057,31
12063522,219959,53076424,6393977,52942954,6387729,118919,2013426,484633131,13512,11782849,2137,3762,206165128,134,3.72,1.34,1.29,0.07,0.0,131228589,131003000,0,145591602,31
17092410,514267,72002286,7011569,72037738,6917083,365620,2077819,339441066,14384,17134568,10615,4836,370237722,2177,2.72,0.98,0.95,0.05,0.0,91810592,79579000,11936000,106107033,31
18587914,464553,49036185,6936616,49107454,6853515,407840,2628005,546732742,28749,21442974,28907,8384,178717878,4040,4.17,1.51,1.46,0.08,0.0,147316793,140048000,7002000,161522716,31
12267579,228546,47420038,6941560,47341081,6924066,111314,2226537,535521156,14292,11802667,2033,4185,219270246,129,4.08,1.46,1.4,0.07,0.0,145180151,143953000,999000,159430506,31
11914218,232976,56072385,6256558,56144411,6272237,119252,2141730,522186318,14223,11649365,1112,3264,207168972,133,4.09,1.52,1.47,0.07,0.0,141578366,140228000,1001000,155617278,31
12394511,231217,47334330,7221938,47382998,7232395,131796,2280734,527557352,14425,11696585,1620,3432,155089605,129,4.04,1.47,1.42,0.07,0.0,142763986,141457000,1003000,156963356,31
11863608,221677,58165099,7364120,58282525,7416874,113676,2071725,503804227,12880,11847333,2013,3765,206450034,133,3.83,1.39,1.35,0.07,0.0,135890167,135695000,0,150331624,31
11966262,220902,57653348,6986842,57683764,6979251,116431,2091643,489238038,13286,11842740,1999,3985,212939974,134,3.77,1.39,1.34,0.07,0.0,132415936,131169000,1001000,146473215,31
12573837,252538,47370016,7077945,47493314,7073321,149935,2269459,517212611,12751,11529602,1636,3189,155271783,134,3.9,1.39,1.35,0.07,0.0,140133377,139872000,0,154815543,31
9812386,184564,15581420,1444926,15579799,1445121,113113,1619160,355214338,9723,9568551,1333,2283,90163398,134,2.66,0.96,0.93,0.05,0.0,96301750,95086000,1000000,110436864,31
12484987,254140,58054717,7060306,58019559,7052769,100310,2201603,560436025,13784,11598562,2348,4088,222053994,134,4.35,1.64,1.59,0.08,0.0,150997141,150653000,0,165319343,31
11893531,228098,56015460,6251262,56167212,6275002,118162,2186440,524501377,14621,11703127,1528,3235,207455143,133,4.05,1.54,1.49,0.07,0.0,141787462,139539000,1993000,156041694,31
11971230,204191,46845965,6387058,46896690,6384282,101322,2181249,540718660,14993,11956621,1647,3941,240847618,129,4.13,1.54,1.49,0.08,0.0,146703804,144506000,1993000,160768532,31
278265969,312629,268205779,18701638,268226994,18714981,153520,3759405,1029297149,27168,277020369,2852,7324,1614018523,136,8.19,3.24,3.14,0.14,0.0,278586056,278369000,0,292791238,31
12096565,257106,56373138,6295135,56324684,6298431,118950,2172553,522997954,13656,11899973,1734,3212,296006825,133,3.94,1.45,1.41,0.07,0.0,141361109,139176000,2002000,155284977,31
370673139,341994,343810801,6184272,343886479,6174602,150600,3601984,946560805,24024,370763446,3753,9715,1654081819,135,7.96,3.02,2.94,0.13,0.0,256789385,255589000,998000,271104440,31
12747525,232240,54338450,6907668,54298777,6875518,138602,2183633,539968122,14001,11955899,1629,4213,267977791,132,4.21,1.63,1.59,0.07,0.0,146315820,146069000,0,160463847,31
22722626,240612,76778961,6766282,76797356,6771041,106361,2038274,509730819,12777,22212101,1683,3751,259782889,128,3.88,1.45,1.39,0.07,0.0,137301368,136074000,1000000,151437737,31
12173964,245318,47435850,6928338,47346891,6901255,119508,2167344,519401274,13125,11518234,1571,3359,155734083,132,3.92,1.44,1.39,0.07,0.0,140953665,139706000,997000,155474457,31
165505023,230899,131062928,6195131,131096107,6200968,112217,2003725,468234771,11642,166017643,1539,4001,833102627,132,3.8,1.53,1.49,0.07,0.0,126260581,126025000,0,140345019,31
166187063,233313,131242356,6330429,131151818,6327451,135861,2111211,466932989,11866,166083518,1546,3097,831954187,135,3.82,1.56,1.51,0.07,0.0,126542925,123358000,2984000,140983581,31
12036021,239925,70200155,7205659,70402701,7246896,143441,2305105,549230537,15837,11918814,2269,4236,194059948,133,4.14,1.51,1.45,0.08,0.0,148389651,148151000,0,162750634,31
164650232,231390,131115683,6212735,131551909,6229277,117739,2066397,492181871,14310,165017482,2308,4571,900612807,133,4.01,1.61,1.56,0.07,0.0,133743092,131365000,1990000,147769567,31
165966045,192459,131073816,6264880,131029303,6275238,129997,2051661,471283305,13049,166100152,1729,3302,833320927,132,3.83,1.52,1.48,0.06,0.0,127717664,127437000,0,141955911,31
164778657,210415,131500901,6360436,131378633,6347676,219366,2111808,469408560,12234,164562197,1477,3576,817467451,137,3.84,1.54,1.49,0.07,0.0,126789131,126389000,0,141078069,31
166777218,199382,131061063,6302163,131077589,6295913,119901,2007690,464642527,12706,166260315,1197,3360,831633340,135,3.8,1.54,1.5,0.07,0.0,126236181,124892000,999000,140511444,31
12323320,239427,46634960,6410880,46751533,6435590,119723,2166038,513099123,12902,11550961,1655,3326,151835009,134,3.88,1.41,1.35,0.07,0.0,138959807,137709000,997000,153379479,31
73333075,142738,64294841,5590819,64325976,5594217,104434,1321423,260033681,6919,73294799,1499,1952,390706340,133,2.03,0.76,0.73,0.04,0.0,70402413,70195000,0,84560464,31
12671103,240570,47841419,6689912,47874087,6701309,105694,2050278,504815931,12326,11873677,1946,3647,210188579,133,3.84,1.41,1.36,0.07,0.0,137002000,135685000,1005000,151208742,31
11695615,176305,47861300,6803253,47915500,6775378,124577,1418717,280639899,7978,11718528,1239,2281,334762583,129,2.14,0.8,0.78,0.04,0.0,75170736,73919000,998000,89514654,31
16383649,636979,330573277,26043408,329904452,26114525,216503,6582302,1965597297,47216,15820156,4627,12933,1403133111,135,15.0,5.56,5.37,0.27,0.0,530251498,528908000,999000,544602798,31
11462304,159483,87833055,4182138,88498859,4130291,106823,1223280,227924466,6965,11355623,1132,2034,314472721,131,1.75,0.63,0.61,0.03,0.0,61526274,60286000,1004000,75772331,31
12510501,252484,66001183,6921138,65869362,6910654,117518,2275751,560174624,14041,11789958,1506,4130,378460278,129,4.33,1.59,1.52,0.08,0.0,152873143,150601000,1994000,167358751,31
12909025,217822,45760056,6648622,45879095,6662202,136945,2193829,509619413,12909,12658156,1491,3485,152654343,136,3.83,1.36,1.31,0.07,0.0,138693472,138403000,0,152721797,31
11780895,211170,58463630,8343336,58546528,8337413,137008,2328622,536796839,15089,11900328,2386,3927,208742282,133,4.1,1.49,1.44,0.07,0.0,145388682,144051000,1000000,159570722,31
165963274,222602,131201334,6264922,131155432,6272571,130743,2020265,466114245,11761,166055588,1565,3611,832210194,135,3.84,1.53,1.48,0.07,0.0,126255027,124013000,2000000,140200454,31
2560844,83598,2701084,48043,2748535,45564,69285,432360,37198510,1640,2563887,671,1148,23621414,64,0.28,0.1,0.11,0.01,0.0,10171974,9866000,0,24227835,31
11953473,205207,53259970,6263144,52951704,6251192,135247,2178067,478322051,15658,12333245,2527,4231,206745587,128,3.62,1.33,1.29,0.07,0.0,129252502,127966000,999000,143529299,31
14867754,122974,6334377,94313,6328292,95821,99531,812379,111829664,4055,14879718,409,709,55722904,130,0.85,0.31,0.3,0.02,0.0,30180602,28955000,998000,44275429,31
450347558,337077,312352699,7261240,312292078,7277376,145316,3435057,971513035,23509,450539503,3244,7280,2064391996,136,8.08,3.33,3.24,0.13,0.0,262831376,260519000,1996000,277077066,31
12272303,240281,58841878,7090752,58959485,7090875,115789,2137474,492975317,12951,11888598,2013,3731,214230033,133,3.75,1.39,1.35,0.07,0.0,133099320,131862000,998000,147461309,31
11821905,202740,56229634,6166463,56040062,6146665,272594,2160944,473002949,16957,12831902,1671,2966,280198268,1113,3.57,1.31,1.26,0.07,0.0,128541463,124278000,3976000,142711823,31
12411350,245051,57600606,6879593,57624675,6889326,117541,2237953,512981334,12830,12000794,1946,3776,267187216,132,3.87,1.43,1.39,0.07,0.0,138599973,138107000,0,152786446,31
12412922,244762,57478506,6973175,57661360,7011066,115060,2054766,501433582,13499,11814064,1983,3697,201880115,135,3.85,1.41,1.36,0.07,0.0,135203164,133967000,999000,149594574,31
12379790,240062,59270443,7218493,59436026,7216680,99022,1968952,485858358,13058,11891018,1909,3603,214401254,127,3.73,1.34,1.29,0.07,0.0,134346954,133088000,1000000,148792900,31
12287870,234486,57241001,6981540,57248732,6988706,132022,2305290,542006041,14975,11929875,2372,4667,270574700,134,4.1,1.5,1.44,0.08,0.0,146529704,145292000,1002000,160514686,31
12462186,257395,47076413,6411544,47055679,6416871,195985,2393814,532020750,14348,11908247,1834,3693,159205569,137,4.1,1.55,1.49,0.07,0.0,143806250,142433000,1003000,158097006,31
37367270,132236,17043827,134323,17011031,131391,88537,816361,132665039,4736,37557690,830,1525,150390723,129,1.0,0.36,0.35,0.02,0.0,36021100,35787000,0,50143595,31
11873021,216438,58480904,6952276,58446963,6958827,107505,2215012,541266138,14542,11820555,2388,3834,212944886,134,4.21,1.57,1.51,0.08,0.0,146928496,146741000,0,160954893,31
12125126,237653,57375249,6956347,57387979,6977052,103373,2056219,509201318,12552,11619830,1989,3543,215791144,134,3.9,1.44,1.39,0.07,0.0,137435732,136194000,1001000,151533667,31
37999057,1594285,22000604,94774,24152429,97261,962833,3442669,105180418,28171,34591696,39878,7346,116569447,6146,0.88,0.32,0.31,0.02,0.0,28897143,16360000,12270000,43099053,31
8961366,135409,5315187,69517,5261049,70010,100674,538943,46956137,1508,9523548,164,703,48948890,134,0.38,0.15,0.14,0.01,0.0,12277422,11050000,1004000,26437925,31
13388975,247192,45892508,6353069,45879307,6349929,102200,2208472,544616652,14526,12898866,2035,3761,217344772,129,4.22,1.59,1.53,0.07,0.0,146912464,145662000,997000,161334113,31
11653072,183418,46712842,6566828,46798528,6581330,126582,2138329,526635520,14692,11795303,1238,3360,226364661,132,3.99,1.44,1.39,0.07,0.0,142632520,141397000,995000,156719102,31
12258264,236653,47215063,7061045,47304440,7066441,118815,2158877,520899140,12850,11539580,1658,3285,154780542,135,3.91,1.38,1.34,0.07,0.0,140341837,139099000,1000000,154657436,31
12194565,227576,58266642,6953238,58106013,6948858,111948,2175981,529129039,14242,11846481,1537,3327,270865428,129,4.01,1.45,1.4,0.07,0.0,143323673,142081000,1000000,157476672,31
11663330,129994,5380372,82871,5381463,83257,93500,628591,49419072,1224,12459310,166,317,41228986,134,0.38,0.14,0.14,0.01,0.0,13012368,11760000,980000,27365707,31
