@relation problema-weka.filters.unsupervised.attribute.Remove-R2-5

@attribute pkg numeric
@attribute duration_time numeric
@attribute user_time numeric
@attribute system_time numeric
@attribute class {0,1,2,3,4,5,6,7,8,9,10,11,12,13,14,15,16,17,18,19,20,21,22,23,24,25,26,27,28,29,30,31}

@data
3.08,153563545,127273000,26056000,0
2.92,148768240,122779000,25953000,0
3.04,147823987,116796000,30945000,0
3.16,150864661,122751000,28172000,0
3.08,148302854,127413000,20903000,0
3.08,148221978,109157000,39056000,0
3.18,154893629,118616000,36187000,0
0.62,35650261,34650000,1019000,0
2.08,90177816,59465000,30723000,0
3.23,152413484,110303000,42115000,0
3.14,151619777,124544000,27118000,0
3.13,155828061,129789000,25957000,0
0.17,11963033,7388000,4617000,0
0.62,35296162,31394000,3924000,0
0.62,35885817,34870000,1025000,0
0.71,31185933,29139000,2009000,0
3.08,149509416,112393000,37130000,0
0.71,40309658,39321000,1008000,0
3.19,151604871,124619000,26917000,0
1.81,89196802,60462000,28744000,0
3.16,154923057,136936000,17991000,0
3.14,152554535,128477000,24089000,0
3.12,150009092,130017000,20002000,0
3.31,156670540,124542000,32140000,0
3.21,150457529,123337000,27074000,0
0.64,36402363,32467000,3935000,0
3.19,148839473,124064000,24812000,0
1.92,95096698,68097000,27038000,0
3.2,151688083,123795000,27953000,0
3.21,151647325,118715000,32921000,0
3.11,149066320,124040000,25008000,0
0.61,35576701,33551000,2033000,0
3.21,153573877,121671000,31913000,0
3.16,149388986,118525000,30876000,0
0.63,35384905,33362000,2021000,0
3.16,151934013,126953000,24990000,0
3.19,150379849,115510000,34852000,0
0.63,37297437,35278000,2015000,0
3.12,152767680,132804000,19970000,0
1.82,83255194,55147000,28075000,0
0.61,35615027,33649000,1979000,0
0.63,36001323,35027000,1000000,0
0.62,37421801,36438000,1012000,0
3.15,151244880,127199000,24037000,0
3.13,149532595,123448000,26094000,0
3.2,148645075,123528000,25107000,0
3.08,146824261,111138000,35723000,0
3.1,150325142,127443000,22900000,0
3.08,146387676,125353000,21059000,0
3.2,149537888,119636000,29909000,0
0.63,38293778,33390000,4910000,0
3.21,149517852,120416000,29100000,0
3.17,148459909,125274000,23050000,0
1.96,98218946,96232000,2004000,0
0.65,34926127,33941000,998000,0
0.66,35554681,33620000,1977000,0
3.2,150636804,130576000,19935000,0
3.25,152956595,128800000,24150000,0
3.01,144973141,112777000,32222000,0
0.74,38083131,37015000,1000000,0
3.2,148816013,121844000,26965000,0
0.64,35530866,34599000,988000,0
0.65,36782566,35853000,995000,0
3.13,151959347,117960000,33988000,0
1.64,87008919,67946000,18984000,0
3.26,150848648,118676000,32183000,0
3.23,148315635,131244000,17031000,0
3.32,155018671,127113000,27806000,0
3.22,154712766,131669000,23117000,0
1.86,91083340,64075000,27031000,0
3.2,149027574,127199000,21862000,0
1.76,86301235,60212000,26092000,0
3.3,154775470,128828000,25965000,0
3.15,149939326,127804000,22139000,0
1.83,89428450,64312000,25121000,0
0.62,35490061,33519000,2031000,0
3.17,153028109,124911000,27980000,0
0.63,35554167,33509000,1971000,0
3.24,149904977,115158000,34746000,0
3.31,153409548,130314000,23055000,0
6.61,309653059,308455000,1001000,1
1,53956728,51973000,1998000,1
0.66,39538548,38560000,988000,1
1.82,89361224,88383000,1004000,1
3.64,169902539,168824000,998000,1
0.42,24382994,23419000,1018000,1
3.5,183000207,182044000,994000,1
0.86,51836206,48798000,3053000,1
3.49,162916183,161922000,999000,1
4.48,214720638,213754000,998000,1
1.32,66803163,65793000,996000,1
3.41,179603551,178671000,1003000,1
9.77,503340881,501359000,1997000,1
0.84,44025874,42103000,1958000,1
1.32,70240043,70285000,0,1
0.73,41284399,39336000,1966000,1
0.51,32398341,31411000,1013000,1
3.02,139760270,139454000,0,1
7.95,400919282,398827000,1999000,1
9.8,503683609,502576000,999000,1
0.41,27366785,27385000,0,1
1.31,66402258,64442000,1982000,1
2.81,135184526,132256000,3005000,1
0.75,45446982,43500000,1977000,1
0.53,33728069,31466000,2030000,1
1.25,59887511,58889000,998000,1
5.34,273736236,270820000,2986000,1
1.65,80443755,78453000,2011000,1
8.51,375830177,374883000,1002000,1
10.95,560659049,557555000,2997000,1
1.28,64436330,63455000,991000,1
1.41,64946388,63964000,999000,1
5.88,298082426,296983000,999000,1
0.85,46290085,44245000,2011000,1
0.47,29520854,27506000,2037000,1
1.65,79031467,76100000,2964000,1
7.82,374414259,372471000,1997000,1
0.8,43264667,41321000,1967000,1
1.81,86338166,85351000,1004000,1
0.63,36327610,36365000,0,1
6.04,306260026,305156000,1000000,1
0.66,37316438,36301000,1008000,1
3.46,179533878,178513000,997000,1
0.41,24144245,23159000,1006000,1
0.6,32203254,30211000,2014000,1
7.77,383025306,382056000,1000000,1
1.3,63134748,62132000,1002000,1
0.47,25366965,22458000,2929000,1
0.44,23977738,22965000,998000,1
0.75,40638052,37692000,2975000,1
1.59,78701964,76695000,2018000,1
0.72,38015401,36101000,1951000,1
1.4,69872233,67852000,1995000,1
0.66,36743725,35736000,1021000,1
4.57,210462665,204442000,6013000,1
0.42,24219356,23229000,1009000,1
1.38,69560850,67561000,2016000,1
2.53,133257486,132154000,1001000,1
6.62,330464587,330478000,0,1
0.67,37859082,36843000,1023000,1
1.36,69177642,68175000,1002000,1
1.36,68827234,66883000,1967000,1
2.55,126941063,125874000,999000,1
0.68,42156352,41050000,1001000,1
10.01,493202695,491978000,999000,1
1.24,61499433,60494000,991000,1
2.86,136637692,136547000,0,1
1.82,87700457,86682000,996000,1
10.53,498879228,497824000,999000,1
1.29,62974636,59985000,2950000,1
0.5,30911209,29948000,998000,1
1.26,64260731,63273000,1004000,1
1.21,58326923,57321000,988000,1
0.38,22984507,20050000,3007000,1
0.79,41883946,36873000,4982000,1
5.17,236667241,234722000,1997000,1
1.29,63938660,61871000,1964000,1
11,559560647,558576000,1001000,1
4.7,215734917,214764000,1003000,1
0.77,43177360,41232000,2011000,1
1.75,90554742,86302000,4014000,2
1.78,89615536,86594000,2986000,2
2.22,112723611,109701000,2991000,2
2.36,91758157,86638000,4979000,2
0.99,53383214,49499000,3959000,2
1.82,88848022,86851000,1996000,2
1.93,85106759,82042000,3001000,2
1.8,88020574,82013000,6000000,2
0.76,43226544,40151000,3011000,2
0.81,43749838,42754000,994000,2
1.64,84388387,81375000,3013000,2
1.71,89319825,88382000,1004000,2
1.86,87199998,83119000,3958000,2
1.77,87079166,84105000,3003000,2
0.76,44459200,41277000,3020000,2
0.74,45597981,41670000,3968000,2
0.78,45314413,43222000,2010000,2
1.85,87646444,83642000,3982000,2
0.75,44998169,40996000,3999000,2
0.76,41894870,37813000,4087000,2
1.9,93023762,88990000,3999000,2
1.9,89304097,87259000,2005000,2
1.72,86117374,84145000,2003000,2
1.72,89609092,87615000,1991000,2
0.84,48745903,46678000,1986000,2
1.84,85914038,85818000,0,2
1.79,86761607,84762000,1994000,2
1.92,86716164,85663000,996000,2
1.77,85316136,81268000,4013000,2
3.75,173137407,172054000,1000000,2
1.82,86421104,84459000,1987000,2
2.13,111039469,99929000,10992000,2
1.79,91299412,88267000,3009000,2
0.76,42915640,39904000,2992000,2
0.73,43303507,40362000,2953000,2
0.8,43529402,40607000,2971000,2
0.78,44496686,41505000,2964000,2
1.79,88183881,85184000,3006000,2
1.92,94813627,93812000,1008000,2
1.79,85656321,83657000,1991000,2
0.74,42543323,40566000,1978000,2
1.82,88273375,84265000,4012000,2
0.89,47899902,45863000,2038000,2
0.78,42857229,40807000,2040000,2
1.8,87185250,82165000,5010000,2
0.75,44063539,41165000,2940000,2
0.76,41536165,39556000,1977000,2
0.82,47366168,44365000,3024000,2
3.47,169428733,162375000,6973000,2
1.75,86419966,84410000,2009000,2
0.81,38480638,38525000,0,2
1.76,87017375,83017000,4000000,2
1.76,88590237,83557000,4973000,2
1.82,92010807,88976000,2999000,2
0.76,41347139,40357000,984000,2
0.76,41687045,39706000,1985000,2
3.3,159904141,156844000,3016000,2
1.8,89201478,86231000,3008000,2
1.83,88637079,85622000,3021000,2
1.77,86217534,84090000,2002000,2
0.92,56099256,55022000,1000000,2
0.77,41694450,39703000,2036000,2
1.81,85509775,84500000,1005000,2
1.73,90222105,87173000,3005000,2
0.99,52830480,50874000,1995000,2
0.78,43112932,41114000,2005000,2
0.78,42423011,37363000,5049000,2
1.9,92151031,84122000,8011000,2
0.75,41778412,38781000,2983000,2
1.78,87276867,85286000,1983000,2
2.16,108870475,104828000,3993000,2
2.27,117047928,110798000,5989000,2
1.77,84289995,79275000,4954000,2
1.87,88896472,85891000,2996000,2
0.83,44804909,39724000,4965000,2
0.76,41056747,39042000,2002000,2
1.8,90870976,85857000,4991000,2
0.79,42736885,37762000,4968000,2
1.27,63808393,58861000,4905000,2
1.05,54922693,53841000,1015000,2
2.39,125257903,116027000,9002000,3
2.59,130464417,123201000,7011000,3
2.69,133376627,129296000,3978000,3
2.2,113073781,109039000,4001000,3
4.98,243964031,192751000,51199000,3
4.18,201702415,195677000,6020000,3
6.51,311853178,263955000,47810000,3
8.75,362932538,313978000,48996000,3
4.33,205106999,201165000,3983000,3
2.4,121992662,116043000,5950000,3
2.39,121031793,114051000,7003000,3
6.75,322267824,259181000,63044000,3
2.76,141329689,130335000,11028000,3
4.76,232043721,168312000,63739000,3
6.45,306195994,258150000,48028000,3
4.65,230199873,166133000,64051000,3
4.47,218608568,170663000,47905000,3
4.76,235206442,186301000,48816000,3
2.31,115934576,109907000,6049000,3
2.43,122517873,113585000,8967000,3
2.5,122972451,115945000,6996000,3
2.42,122265697,116309000,5964000,3
4.58,224290742,173204000,51060000,3
4.1,192016558,185961000,5998000,3
6.96,323091778,253047000,70013000,3
7.94,381270292,333191000,48027000,3
2.32,118586804,113586000,4981000,3
4.19,198946062,189879000,8994000,3
6.63,310084297,261049000,49009000,3
6.66,313192789,264131000,49024000,3
2.45,122401472,118346000,4011000,3
2.57,123760776,113676000,9971000,3
4.32,208618432,199452000,9020000,3
7.05,330868768,279899000,50800000,3
2.43,121232713,114055000,7003000,3
6.38,305569496,260523000,44917000,3
4.79,230624612,179340000,51096000,3
2.86,143624398,131611000,11964000,3
2.46,122941604,116812000,5990000,3
7.54,348278661,290174000,58034000,3
6.96,329619556,287339000,42049000,3
2.73,134771022,125781000,8984000,3
6.43,304927744,254903000,49980000,3
2.5,125081254,122041000,3001000,3
2.49,124484575,120384000,3979000,3
6.59,315501486,267300000,48054000,3
2.38,120272835,117285000,2981000,3
9.22,427976254,362931000,64987000,3
6.62,304272385,256126000,48023000,3
4.9,235403275,172550000,62836000,3
2.47,120944624,117845000,2996000,3
4.89,230877268,220907000,9950000,3
2.47,122723023,114715000,7980000,3
4.94,235454741,174556000,60845000,3
6.96,323342274,258277000,65070000,3
4.95,239811595,179823000,59941000,3
2.29,114402901,107366000,7023000,3
2.28,113724348,104630000,9054000,3
2.35,118846303,113828000,4992000,3
4.82,230759546,150806000,79897000,3
6.75,316898058,274880000,41981000,3
2.5,122704162,114624000,8043000,3
3.17,155770182,147792000,7988000,3
2.51,122774047,113851000,8910000,3
4.74,228494674,166328000,62122000,3
6.76,316471859,257308000,59070000,3
2.46,122048214,114021000,8001000,3
6.59,308630389,259579000,48920000,3
2.41,123269642,115230000,8016000,3
2.67,130365282,123317000,7018000,3
4.86,232903453,182697000,50191000,3
4.59,219915504,169826000,49949000,3
4.31,202822668,193790000,8990000,3
6.5,306645376,251700000,54934000,3
6.98,328564231,284588000,43936000,3
2.48,121889904,113942000,7926000,3
4.82,229704063,181627000,47901000,3
2.25,113361746,105307000,8023000,3
6.98,325163338,280063000,45010000,3
2.47,120156578,112171000,7941000,3
4.79,255399988,99861000,8987000,4
2.75,142259407,136257000,6011000,4
6.53,309287800,178928000,9996000,4
6.26,304948357,175272000,11017000,4
4.5,220286641,90014000,13829000,4
2.59,131285900,125179000,6008000,4
4.45,224463302,87032000,18178000,4
7.13,332144996,207628000,13575000,4
2.84,144485016,134449000,9959000,4
6.91,336882166,202952000,15291000,4
6.33,307653385,175638000,13042000,4
6.28,302415692,171750000,11191000,4
4.43,221634206,93656000,8785000,4
6.44,305766519,180375000,8016000,4
4.71,231877782,101544000,12675000,4
4.6,222649829,89818000,14969000,4
4.37,218714707,85739000,14291000,4
4.48,223826265,95646000,10068000,4
4.54,227840743,98704000,11079000,4
6.44,308262448,177645000,10978000,4
5.08,253364175,123271000,12026000,4
7.72,373014182,236549000,17579000,4
4.52,224347939,96014000,10001000,4
6.56,317233042,185947000,11996000,4
6.59,311444939,177536000,14802000,4
4.54,224912753,95723000,10076000,4
2.6,132902583,123895000,8992000,4
5.06,237768014,220589000,17045000,4
4.46,210290635,88518000,11192000,4
4.99,249625840,122642000,8042000,4
4.4,217973449,85280000,14046000,4
4.52,223800433,92280000,13039000,4
4.67,223338394,220283000,3003000,4
4.53,218745624,213739000,4993000,4
8.42,414722421,277347000,18087000,4
4.46,217964069,81526000,18126000,4
4.35,216728514,81767000,15954000,4
6.51,307586158,173023000,16002000,4
4.59,225429333,93362000,12911000,4
4.74,232786974,97714000,15776000,4
4.57,215566162,211480000,4009000,4
4.39,216468479,87133000,10015000,4
2.4,122661047,115694000,6981000,4
4.65,227343250,94093000,13860000,4
6.32,301099390,171659000,11286000,4
4.41,211397993,204377000,7012000,4
3.19,160998625,149969000,10997000,4
4.75,219051597,95486000,12061000,4
4.56,219997200,86164000,15521000,4
4.39,222170141,98467000,5749000,4
5.25,259740411,127198000,14742000,4
4.23,211732383,82280000,11895000,4
2.84,144378521,136321000,7960000,4
5.3,246555443,123913000,10074000,4
6.18,292591931,167029000,6912000,4
6.41,304302585,171128000,14923000,4
2.79,140959975,128927000,11993000,4
5.38,265706484,134026000,12870000,4
4.57,225127240,93208000,12890000,4
6.4,304619239,181226000,6165000,4
10.91,517840566,382500000,14980000,4
4.1,201677138,71755000,12127000,4
7.86,370839508,238025000,14060000,4
2.86,144633378,133646000,10970000,4
4.44,218211396,87433000,13064000,4
4.34,212632799,81242000,12961000,4
3.22,158749552,147743000,10980000,4
4.57,214880288,93506000,10163000,4
4.47,219958268,90307000,11037000,4
6.36,299063522,167968000,12069000,4
4.43,217771411,83966000,15993000,4
4.52,223080576,97784000,6278000,4
2.6,135424880,131271000,4008000,4
6.55,309427304,177125000,12829000,4
6.47,305179027,177012000,9051000,4
4.4,212670318,207680000,4992000,4
3.11,154540097,141546000,12958000,4
2.76,133882092,124847000,8989000,4
6.47,304517249,174384000,11024000,4
4.55,226187669,96089000,12011000,4
4.7,255871705,94077000,8967000,5
6.33,306043610,171590000,16032000,5
4.66,232684477,89312000,25616000,5
6.22,303728471,177263000,8011000,5
6.49,313362061,181223000,12313000,5
4.42,220504839,92423000,10046000,5
3.71,193984060,181988000,11999000,5
6.42,305137341,173165000,14094000,5
4.58,227567944,102179000,6867000,5
4.48,223167793,92088000,11131000,5
4.4,222096997,88483000,14079000,5
6.42,310332563,172601000,18956000,5
3.79,188918513,179762000,8988000,5
5.14,253588429,111370000,23925000,5
4.44,220185873,89164000,13654000,5
4.44,220541538,86497000,15086000,5
4.72,237384564,101128000,17522000,5
4.41,220490327,88341000,13050000,5
6.07,287408780,277372000,9977000,5
5.52,266811044,261678000,4993000,5
4.48,222439052,93446000,10048000,5
5.55,268775029,257776000,10990000,5
4.45,221595291,91151000,12020000,5
3.53,178978581,170902000,7948000,5
4.5,218240207,91808000,10088000,5
6.47,309863998,176825000,14065000,5
5.06,252894287,121326000,12928000,5
5.83,288746106,155102000,15598000,5
4.5,226380484,94728000,13100000,5
5.34,257659592,249490000,8015000,5
5.73,276192320,268139000,8004000,5
6.41,306748089,175443000,11962000,5
5.23,259809642,128755000,11977000,5
4.49,219798676,92693000,8513000,5
4.81,235866242,94251000,22008000,5
4.43,220686002,90799000,11280000,5
4.41,218205878,89229000,10280000,5
3.34,169780037,163723000,6026000,5
6.35,303837448,174969000,10055000,5
4.53,224440588,95279000,10029000,5
4.57,224649410,88658000,18340000,5
4.39,221001734,89738000,13259000,5
4.6,224572240,92480000,13067000,5
4.6,224476636,92301000,13042000,5
6.96,343121007,208385000,15706000,5
5.55,267934771,257907000,9996000,5
3.47,172819335,163800000,8989000,5
4.6,230033573,96355000,15446000,5
5.21,257258985,123783000,14224000,5
3.95,197990322,180926000,16993000,5
4.54,224543532,90535000,16095000,5
8.48,421030248,289661000,12816000,5
3.88,194863302,182878000,11992000,5
6.16,293557726,165283000,9992000,5
5.62,273264635,262236000,11009000,5
5.21,259342092,127297000,12892000,5
4.56,222817969,91003000,12859000,5
5.51,278149973,261095000,17006000,5
7.06,327698746,183687000,25093000,5
5.28,256914457,122840000,14980000,5
6.39,307982011,179215000,8960000,5
9.2,428173477,407091000,21004000,5
5.15,253329237,123659000,11059000,5
4.68,225019182,94698000,12231000,5
6.17,296420832,281369000,15019000,5
6.45,304638858,175977000,11590000,5
6.63,310164921,181413000,10468000,5
6.42,305647074,171179000,15722000,5
6.39,307030808,177395000,10283000,5
4.56,223618100,90913000,13132000,5
4.17,207013490,76254000,12040000,5
4.61,230331734,97251000,14036000,5
4.57,222570221,93808000,11095000,5
3.83,190194917,183104000,7003000,5
6.44,305944161,175403000,11025000,5
6.35,298887823,169178000,9951000,5
6.41,300796356,172773000,9235000,5
4.28,207048290,75582000,13101000,5
4.39,215249672,81258000,15275000,5
4.87,222487311,102355000,8803000,5
7.3,335221833,326912000,7997000,6
5.59,260798924,254694000,5992000,6
1.89,91065743,84060000,7005000,6
7.75,387059655,367019000,20001000,6
7.99,391218027,379185000,12005000,6
7.26,343269940,334280000,9007000,6
6.38,294956942,284834000,9994000,6
5.94,298313108,135279000,12024000,6
6.04,282131056,220073000,62020000,6
3.27,161832646,158812000,3015000,6
7.25,332251518,317256000,14964000,6
3.91,190946584,177875000,13064000,6
3.36,166145677,155087000,11006000,6
2.14,109649250,102575000,7039000,6
5.72,267416708,263454000,3991000,6
8.17,386108259,378975000,6999000,6
2.01,99334354,85338000,13892000,6
6.82,337101761,320079000,17004000,6
7.58,350036022,338092000,12003000,6
1.67,83131349,80107000,3004000,6
7.84,388653472,364617000,24040000,6
2.7,132349209,122383000,10031000,6
1.63,79865581,76846000,3033000,6
12.14,567714715,552571000,14988000,6
3.62,176389475,167348000,9018000,6
7.25,338808024,332774000,5995000,6
8.92,409119275,273000000,17062000,6
11.9,563670138,540638000,22984000,6
11.87,567382779,548403000,18979000,6
12.21,570166373,553105000,17003000,6
1.78,86071917,81885000,3994000,6
8.34,409777620,387653000,21980000,6
7.1,346383954,201451000,25808000,6
11.08,501299993,490148000,10980000,6
1.64,78928160,73937000,4995000,6
4.7,224443771,210385000,14025000,6
4.5,218686331,88979000,11085000,6
11.68,548508947,534425000,13984000,6
2.19,106809440,97801000,8981000,6
8.65,423767263,397703000,26046000,6
2.07,96631728,88553000,8050000,6
1.77,90345268,82390000,7941000,6
8.64,425822118,396799000,28985000,6
2.01,99093944,87649000,11082000,6
1.58,77707441,73650000,3981000,6
11.98,565196484,548067000,17002000,6
1.93,98406169,94375000,3973000,6
7.06,322094516,308956000,12956000,6
6.91,316492983,307344000,9010000,6
10.01,464983013,442980000,21949000,6
1.94,92662813,87587000,5033000,6
8.4,412231723,371028000,41003000,6
7.37,341189367,332143000,9003000,6
2.06,98559948,90571000,7962000,6
6.18,274168143,267139000,7003000,6
2.32,111488656,103487000,7960000,6
5.89,258818275,247695000,11030000,6
8.54,389513503,267186000,4984000,6
12.19,567814798,546835000,20955000,6
8.11,389910344,364870000,24991000,6
3.33,163072475,158011000,5000000,6
3.06,142608179,137574000,4984000,6
3.89,186131708,161070000,25010000,6
7.26,333147026,326088000,7001000,6
7.06,322431468,305424000,16968000,6
6.04,273845835,259811000,13989000,6
9.42,460769623,308782000,32850000,6
1.73,83108073,81134000,2003000,6
5.78,263349368,255214000,7975000,6
8.68,420229037,397177000,23010000,6
1.89,90716052,84672000,6048000,6
3.69,176686081,164626000,12045000,6
5.87,261822421,252772000,9027000,6
1.8,87602644,85551000,2012000,6
1.83,88644004,85597000,3021000,6
4.65,219641087,89154000,12260000,6
6.24,299965725,282968000,16998000,6
1.84,87705174,85668000,2015000,6
5.86,265916893,259910000,6021000,6
3.39,164112156,153080000,11005000,6
8.12,361618159,217101000,144067000,7
3.15,149731055,147734000,1996000,7
6.32,295793791,158834000,136857000,7
8.06,359177493,220370000,138604000,7
3.08,154217371,994000,6911000,7
1.99,100364530,100297000,0,7
2.6,123112379,3123000,6246000,7
2.63,125823067,123655000,2010000,7
2.58,122166861,2070000,7248000,7
2.62,121560603,3683000,5429000,7
4.1,176805135,174781000,1997000,7
3.74,168065656,164062000,3977000,7
2.62,122673041,3093000,6184000,7
7.9,351539165,216587000,134743000,7
2.06,97077833,94066000,3002000,7
8.07,357896615,208846000,148890000,7
2.6,123855820,4621000,4621000,7
7.79,359760692,233784000,125884000,7
2.4,120117897,119027000,1000000,7
8.06,350947483,188829000,161853000,7
2.67,122493898,4265000,3199000,7
2.69,126797014,124788000,1996000,7
4.06,190543907,187548000,2992000,7
8.88,393085503,257044000,136023000,7
2.65,124660007,3003000,5740000,7
2.58,130444774,129441000,1003000,7
8.11,361106785,216915000,143944000,7
3.42,158774597,156783000,2010000,7
2.93,143920257,7935000,21508000,7
2.57,121766709,119822000,1997000,7
6.91,312135172,164052000,148047000,7
2.66,124276641,2078000,7274000,7
8.7,381201869,239936000,140962000,7
2.7,125197691,123095000,2001000,7
7.61,351277298,217160000,134099000,7
8.08,358957865,216198000,142471000,7
9.27,408587609,262520000,145734000,7
8.03,356926114,204845000,151885000,7
2.7,121081297,980000,8601000,7
2.64,127838231,2052000,7526000,7
1.97,100272759,100266000,0,7
8.14,370905423,234851000,135913000,7
6.99,325322439,186153000,139114000,7
2.02,97980318,96565000,995000,7
8.35,359315395,214422000,144610000,7
5.31,242610425,240620000,1996000,7
2.68,121853126,3347000,5578000,7
8.86,394018549,246423000,147252000,7
4,181972165,177972000,3999000,7
8.19,360406159,208067000,152049000,7
2.71,123363638,2101000,7196000,7
8.84,385985402,227288000,158503000,7
7.68,347133823,207070000,140047000,7
6.98,316515020,179184000,137140000,7
2.01,97693595,96705000,996000,7
2.24,102107793,95206000,6942000,7
2.78,128212447,126114000,2001000,7
8.4,361388361,211035000,150025000,7
9.1,389440974,238501000,150685000,7
2.71,120141145,1888000,6514000,7
2.58,119134008,118159000,1001000,7
8,348927552,203759000,144828000,7
9.5,418134871,274934000,142966000,7
8.27,362519795,219128000,143083000,7
2.9,135011560,132018000,3000000,7
2.11,93598732,91523000,2011000,7
8.41,362773641,222108000,140436000,7
3.64,163951895,161935000,1999000,7
7.03,321983344,180988000,140990000,7
4.14,176219948,174015000,2000000,7
6.73,300336317,155604000,144631000,7
8.17,363592353,217750000,145833000,7
2.65,123496038,1085000,7251000,7
3.06,137080122,133911000,2975000,7
4.04,178437623,175371000,2989000,7
8.18,367544600,210716000,156788000,7
2.03,99974426,99812000,0,7
7.11,324495196,179700000,144758000,7
8.27,359898540,205807000,153855000,7
8.15,353812775,199719000,153783000,7
5.47,250573247,232167000,18012000,8
4.38,203641094,197510000,6015000,8
4.99,226331807,216279000,10012000,8
6.03,290556141,236578000,53903000,8
3.35,155338299,144235000,11017000,8
3.7,173792722,164766000,8987000,8
10.75,484197004,413190000,71032000,8
4.08,184622259,177561000,7022000,8
13.51,620460671,490541000,129878000,8
3.36,157346388,144401000,12946000,8
4.3,191665604,181646000,9980000,8
3.28,151030752,138100000,12915000,8
9.6,435131143,373020000,62003000,8
3.48,161548802,154526000,7023000,8
3.91,185283560,173378000,11957000,8
3.28,153464690,138483000,14944000,8
11.43,521757125,465741000,55968000,8
2.85,129093547,117971000,10997000,8
9.19,413917225,363803000,50110000,8
6.36,294874053,204623000,90274000,8
4.01,181510552,167461000,13955000,8
5.85,263903912,254792000,9028000,8
4.09,188839972,176943000,11928000,8
6.43,296924994,229962000,66989000,8
2.88,135904149,126985000,8928000,8
4.8,221379381,206348000,15025000,8
9.83,437579131,378607000,58938000,8
9.31,426929244,370812000,56122000,8
10.59,466943962,397784000,69136000,8
4.17,195176174,183131000,12008000,8
9.44,433770038,385784000,47973000,8
3.41,159270799,138206000,21031000,8
3.28,152664359,141640000,10972000,8
3.63,168338844,157343000,10954000,8
4.53,211497360,196374000,15028000,8
7.28,344976572,328950000,15997000,8
3.39,155015107,140986000,13998000,8
4.55,207209977,189259000,17929000,8
3.58,167000820,156945000,9996000,8
4.89,222256557,209163000,13010000,8
3.42,159695036,147619000,12050000,8
4.31,198741958,187744000,10985000,8
5.92,266186107,170015000,96008000,8
11.91,546559858,479567000,66939000,8
4.17,193235553,186194000,7007000,8
5.15,230734495,221720000,8988000,8
3.78,173512241,163510000,9970000,8
4.07,190587208,175493000,14956000,8
3.19,146817979,137715000,8981000,8
3.99,178555977,167549000,10970000,8
3.6,164928921,155900000,8994000,8
3.55,165648069,149644000,15962000,8
5.8,257710904,246676000,10985000,8
4.42,202546925,187561000,14965000,8
3.51,164932830,153904000,10993000,8
3.32,152596694,145547000,7026000,8
3.37,157766606,143732000,13974000,8
13.75,618706667,610599000,7994000,8
4.52,199783024,187727000,11982000,8
12.91,578885962,516792000,61975000,8
4.24,190400973,183386000,6976000,8
3.59,164438334,152436000,11955000,8
9.95,440960461,380829000,60131000,8
3.43,160283967,148266000,12021000,8
9.38,430106958,368998000,60999000,8
10.94,496443713,450343000,46035000,8
2.9,134767828,124726000,9978000,8
7.16,327394708,312339000,15016000,8
4.25,191311665,179265000,12017000,8
9.86,445788865,382666000,63109000,8
4.1,185266589,177223000,8010000,8
3.21,148936214,140941000,7996000,8
9.74,443219721,389282000,53900000,8
9.86,443516100,364481000,78887000,8
7.83,362576663,353566000,8988000,8
10.89,495605558,423635000,71938000,8
11.88,540699581,455709000,84945000,8
4.95,228357425,220347000,7976000,8
9.36,425261730,356160000,69031000,8
3.29,151560045,136514000,15056000,8
1.11,55111464,53849000,979000,9
1.08,54223572,51246000,2956000,9
0.46,24767306,22782000,1981000,9
1.08,56772522,54796000,1992000,9
1.09,58627488,57651000,1011000,9
0.32,18766745,15784000,2959000,9
0.1,4865951,1935000,2903000,9
1.24,63454777,59433000,4029000,9
1.76,52812144,50829000,1993000,9
1.09,57222943,56283000,1005000,9
0.33,18922730,15910000,2983000,9
0.74,42161115,32086000,10027000,9
0.44,26702912,24702000,2058000,9
1.06,53798324,51748000,1990000,9
0.08,5721701,3816000,1908000,9
0.52,29107594,25065000,4010000,9
1.1,50671396,49612000,992000,9
1.12,55497182,53463000,1980000,9
0.32,21653733,17722000,3938000,9
3.04,154171786,1926000,6634000,9
0.36,21904527,19907000,1990000,9
0.43,25080077,19102000,6032000,9
1.18,61360742,57438000,3961000,9
0.09,6456818,3730000,2798000,9
0.34,20605331,16685000,3926000,9
0.32,17703748,15749000,1968000,9
0.09,4863342,2952000,1968000,9
1.1,57008639,55021000,2000000,9
1.15,58751562,54720000,4053000,9
1.18,55471449,53447000,2016000,9
1.1,56602420,53616000,2978000,9
0.48,29444453,26499000,2944000,9
0.51,28845980,22657000,6179000,9
1.16,59891181,57857000,2030000,9
2.79,139758796,15841000,6336000,9
1.1,53747783,52674000,1012000,9
0.47,29694307,28693000,1024000,9
0.08,5567335,4704000,940000,9
1.09,55944809,50952000,4995000,9
0.39,22733538,16800000,5929000,9
0.48,26863594,18927000,7969000,9
0.32,20364026,17520000,2920000,9
0.32,19121515,17074000,2008000,9
0.54,34259299,30109000,4014000,9
0.11,6689925,3838000,2879000,9
0.16,9136270,7309000,1827000,9
1.1,55440374,53459000,1979000,9
1.14,57347460,53214000,4016000,9
0.08,5702937,2865000,2865000,9
0.32,18892006,13912000,4968000,9
0.08,5607887,2807000,2807000,9
0.47,26326213,25352000,1014000,9
0.47,27242390,24217000,3027000,9
0.29,19370002,18371000,1020000,9
0.33,19147093,18168000,1009000,9
0.4,22727991,19615000,3097000,9
0.34,20191529,6054000,14126000,9
0.1,5434590,2178000,3268000,9
1.19,57373638,52392000,4942000,9
1.11,55005123,55004000,0,9
0.09,5084632,2057000,3086000,9
0.08,5488329,3299000,2199000,9
1.07,58311858,57318000,1005000,9
0.33,19386339,18367000,1020000,9
0.36,20600847,15690000,4903000,9
0.3,18435218,14546000,3879000,9
0.32,19050689,16087000,3016000,9
1.15,58087429,57068000,1001000,9
0.45,25883306,22044000,3833000,9
1.16,58810526,57809000,996000,9
1.16,58016926,52985000,4998000,9
0.13,7220584,5446000,1815000,9
1.44,68450047,58495000,9914000,9
0.09,4785293,2408000,2408000,9
1.1,55458991,52500000,2971000,9
0.38,20963061,17941000,2990000,9
0.23,12520598,5222000,7311000,9
0.08,5702642,953000,4769000,9
1.12,56632411,54608000,2022000,9
0.09,5393813,3256000,2171000,9
1.67,90579222,81364000,8930000,10
1.89,93833314,87833000,5988000,10
1.7,89313304,81327000,8032000,10
1.36,74799532,65845000,8978000,10
1.8,92306036,77235000,15045000,10
1.7,87353783,77285000,10037000,10
2.18,108348655,96412000,11927000,10
1.94,94547970,87349000,7028000,10
1.87,95608866,86607000,8959000,10
2.57,122865094,118888000,3962000,10
3.53,168418552,161412000,7017000,10
3.63,170745673,152655000,18077000,10
1.31,59875885,57819000,2028000,10
4.01,201049607,189991000,10999000,10
1.08,58289460,48242000,10050000,10
3.42,159644582,146574000,13051000,10
3.18,153097359,148993000,3999000,10
1.84,91815255,82722000,9079000,10
1.82,93008716,76933000,15986000,10
1.3,65507197,64470000,1007000,10
1.22,61170331,55159000,6017000,10
1.11,57661340,52686000,4970000,10
1.68,90204319,81093000,9010000,10
1.15,59649443,55676000,3976000,10
1.71,86805200,79725000,7064000,10
3.3,158201799,143173000,15018000,10
3.15,148916241,143909000,4996000,10
1.82,93343905,81421000,11915000,10
1.61,83264509,75346000,7931000,10
3.1,149392491,144439000,4980000,10
2.72,135444864,127444000,7965000,10
2.84,140161615,128248000,11930000,10
3,143260085,133252000,10018000,10
2.19,105276710,92210000,13029000,10
1.82,90970315,80898000,9987000,10
1.26,63964988,56940000,6992000,10
3.37,158777923,149728000,8983000,10
1.89,94390649,83317000,11042000,10
2.83,133751863,127782000,5943000,10
2.55,124594054,116595000,7972000,10
1.22,61601737,57634000,3974000,10
2.33,114427687,90322000,24085000,10
1.21,61135819,53089000,8013000,10
1.15,60207905,56149000,4010000,10
1.33,68256725,65212000,3009000,10
3.18,151418121,144345000,7016000,10
3.18,155018482,141929000,12993000,10
2.64,124191035,117055000,7003000,10
2.61,124146618,120049000,4001000,10
2.9,135609847,128597000,6978000,10
3.56,166913113,153820000,12984000,10
4.94,231480344,215483000,15961000,10
4.38,220124199,204086000,16006000,10
2.1,103336267,92292000,11034000,10
2.44,119727480,103732000,15958000,10
1.86,96411575,85468000,10932000,10
1.17,60083508,58048000,2001000,10
1.88,95098816,84042000,11005000,10
1.85,91564078,79454000,12069000,10
1.88,94877488,83004000,11857000,10
3.3,153035470,146002000,7000000,10
3.52,164346954,156294000,8015000,10
1.75,85921522,74860000,10979000,10
1.91,94355533,82317000,12046000,10
1.16,60021179,52988000,6998000,10
1.78,90241061,81186000,9020000,10
1.68,88411620,81434000,6951000,10
3.79,184867541,175755000,9038000,10
3.54,168387118,154330000,14030000,10
2.62,126977802,117809000,8985000,10
2.16,102189039,92169000,9910000,10
2.01,98503379,92487000,5966000,10
2.85,132373480,124414000,7962000,10
2.57,122563044,118510000,3983000,10
5.16,240706807,230675000,10029000,10
1.38,69450150,61495000,7934000,10
1.1,57205086,54174000,3009000,10
1.19,63745453,55753000,7964000,10
1.43,71201076,58170000,13038000,10
3.43,159174574,150137000,9008000,10
1.19,64867042,61696000,2937000,11
1.44,72062680,71071000,1001000,11
1.37,61644789,60600000,993000,11
1.89,90539950,88538000,2012000,11
1.36,65288627,64259000,1004000,11
10.08,478734341,475632000,2997000,11
2.09,105226652,103183000,2003000,11
7.98,360978767,358002000,3000000,11
1.23,60692202,58641000,2022000,11
2.06,101887436,100836000,998000,11
1.19,67144948,66134000,1002000,11
1.22,63188536,62236000,987000,11
1.37,72595179,72502000,0,11
1.18,60218717,58229000,2007000,11
1.47,71511409,69534000,1986000,11
1.28,65110817,63111000,2003000,11
1.22,63304391,61328000,1978000,11
1.63,78592959,77617000,995000,11
1.24,58141277,58043000,0,11
2.26,105059185,97029000,8002000,11
1.23,62344809,60342000,2011000,11
8.11,364240565,363156000,1000000,11
1.18,62968934,62028000,1000000,11
1.2,60640765,58659000,1988000,11
1.24,58837390,57910000,998000,11
1.25,68576865,66604000,1988000,11
8.54,403167910,402072000,1000000,11
1.21,60307100,59309000,1005000,11
1.2,64683853,61617000,2981000,11
1.15,60367057,59375000,1006000,11
1.54,71902492,70875000,998000,11
2.22,107229088,106286000,1002000,11
1.34,65649819,64662000,994000,11
1.27,62741473,60692000,1989000,11
1.22,62650375,62610000,0,11
1.85,87898409,83931000,3949000,11
1.4,67761084,63818000,3927000,11
1.94,94708367,93711000,996000,11
1.92,97689421,96658000,996000,11
9.09,395904531,393955000,2004000,11
1.9,87512622,86500000,994000,11
1.21,62737348,61734000,1012000,11
8.97,395415733,392413000,2995000,11
1.16,59055924,58106000,984000,11
1.21,60583833,58607000,1986000,11
2.32,116293640,114334000,1988000,11
1.35,67828995,66874000,1013000,11
8.46,380551200,376449000,3994000,11
0.82,42727481,38735000,3972000,11
3.45,163285461,151308000,11945000,11
16.55,738148948,735084000,2996000,11
1.25,60925507,57875000,2942000,11
1.16,63386483,62375000,1006000,11
8.3,370205683,367227000,2993000,11
1.93,95884543,94907000,999000,11
2.07,96572872,93608000,2987000,11
1.46,71669822,70493000,992000,11
1.45,75278027,72219000,3009000,11
8.21,370638271,369648000,1001000,11
1.67,75222000,73242000,1979000,11
1.22,62400737,60381000,2012000,11
8.43,376115105,375098000,1002000,11
1.76,82269218,81294000,1003000,11
1.27,61490274,60427000,1007000,11
1.22,61372951,60386000,1006000,11
1.31,62638214,61635000,994000,11
8.18,370084924,368105000,2000000,11
1.65,75744035,74750000,996000,11
1.32,59869883,58802000,996000,11
1.58,74223933,73259000,1003000,11
1.45,74772739,73787000,997000,11
1.68,79191591,76186000,3007000,11
1.67,78155854,76083000,2002000,11
1.59,74737838,73742000,1010000,11
3.09,146645984,144663000,2009000,11
1.25,65272505,63287000,2009000,11
8.6,375188403,374185000,1000000,11
1.38,66814851,61836000,4986000,11
1.34,63037260,62039000,1017000,11
8.42,371734624,368745000,2989000,11
2.77,137700214,134440000,3009000,12
3.59,181951498,171890000,10052000,12
2.8,132875072,127843000,5033000,12
0.84,46815319,42800000,3981000,12
5.11,257642433,247635000,9985000,12
0.99,52616637,47648000,4963000,12
5.53,272444460,250380000,22033000,12
2.65,126215044,123195000,3004000,12
2.84,133983480,129957000,3998000,12
1.03,52010073,45916000,5989000,12
2.79,130333317,122349000,7957000,12
1.03,52736793,47600000,5063000,12
2.71,129606051,126592000,3014000,12
2.79,130882804,126849000,3995000,12
1.02,53201311,40301000,12778000,12
2.96,144172736,127250000,16900000,12
4.28,218522708,212507000,5986000,12
4.75,226893891,221935000,4998000,12
2.2,110322468,107308000,3008000,12
2.93,144433205,131463000,12947000,12
2.73,127649454,125652000,1994000,12
2.66,124891278,123817000,998000,12
0.8,46318238,41270000,5032000,12
1.34,69093369,61955000,6994000,12
2.72,126492329,123531000,2988000,12
2.74,126610101,122599000,3986000,12
2.79,132489657,127524000,4981000,12
0.8,43056178,38939000,4098000,12
2.79,132088706,129037000,3000000,12
2.85,132536741,125586000,6977000,12
0.73,42786003,41805000,995000,12
4.99,231514830,224516000,7016000,12
5.14,243131606,230171000,12953000,12
0.93,49585924,41678000,7938000,12
2.92,136793252,130798000,6036000,12
0.92,48870426,45853000,3056000,12
3.2,151302145,146326000,5011000,12
5.36,250144975,242090000,8002000,12
0.79,40705417,35625000,5089000,12
2.81,133420326,124414000,9030000,12
2.78,134426885,129434000,4978000,12
0.95,45331248,42340000,2954000,12
2.31,112127941,98008000,14001000,12
2.87,148222243,137163000,11013000,12
0.87,50990101,46990000,3999000,12
1.03,54489649,47443000,7066000,12
2.83,132606980,127549000,5021000,12
2.74,127395672,125379000,2006000,12
5.63,246337167,229312000,17023000,12
6.42,303358765,280415000,22952000,12
2.65,131863574,121761000,9980000,12
2.79,134504550,130539000,3985000,12
2.84,133601779,128530000,5020000,12
0.79,42209006,40192000,2009000,12
2.69,127276363,125265000,2004000,12
1.16,58642306,50709000,7954000,12
3.15,154454507,146442000,7969000,12
2.92,138322571,122402000,15922000,12
1.27,62378492,58299000,4020000,12
2.13,107656567,105602000,2011000,12
1.36,67759913,59654000,8088000,12
2.92,131224643,125165000,6007000,12
2.99,140941545,131954000,8996000,12
0.92,49120218,45077000,4006000,12
0.94,49234869,43309000,5905000,12
1.13,57585878,52645000,4966000,12
0.75,44168487,40182000,3920000,12
4.96,225723061,216669000,9027000,12
4.88,227205491,214151000,13009000,12
3.46,168840936,151972000,16885000,12
1.02,54076523,48076000,6009000,12
1.04,53226896,44168000,9034000,12
4.61,211027535,200018000,11000000,12
1.05,55589427,52588000,2976000,12
2.88,133355026,129327000,4010000,12
5.42,251344125,242370000,8976000,12
0.93,48677488,44690000,3972000,12
0.8,41805033,38803000,2984000,12
0.95,49400111,43493000,5930000,12
2.87,132225112,130182000,2002000,12
0.27,17983478,15794000,1974000,13
0.62,34787444,33884000,968000,13
0.71,37721816,36663000,1018000,13
0.33,19217859,19230000,0,13
0.66,35245467,34243000,1007000,13
0.67,35704665,33720000,1983000,13
0.25,14985125,14077000,938000,13
0.31,19127622,16262000,2869000,13
0.61,35404636,34451000,1013000,13
0.66,36349739,35340000,1009000,13
0.73,39155588,38155000,1004000,13
0.3,17884874,15896000,1987000,13
0.64,33782479,32689000,1021000,13
0.3,15571435,12600000,2907000,13
0.66,35413564,34427000,1012000,13
0.26,16223832,14367000,1915000,13
0.67,40253924,38268000,2014000,13
0.63,36305204,34354000,1963000,13
0.24,14935106,13987000,999000,13
0.63,35511614,33580000,1975000,13
0.68,37332668,34319000,3028000,13
0.66,32768103,29805000,2884000,13
0.71,38372289,38400000,0,13
0.68,37249667,36308000,1008000,13
0.27,14651493,13678000,977000,13
0.7,39126708,37976000,999000,13
0.26,15791043,13885000,1983000,13
0.66,37559772,34606000,2966000,13
0.68,38631152,37621000,1016000,13
0.69,38203128,36216000,2012000,13
0.06,3607477,1213000,2426000,13
0.75,36737676,34610000,2035000,13
0.26,15420070,13500000,1928000,13
0.65,33203379,31229000,1951000,13
0.36,21804714,18812000,2970000,13
0.29,19177960,17190000,2022000,13
0.25,14782498,11122000,3707000,13
0.34,18647542,16696000,1964000,13
0.67,34126305,33124000,1003000,13
0.64,35128301,34144000,1004000,13
0.8,43661726,40550000,2967000,13
0.25,13801923,11831000,1971000,13
0.61,37570866,35576000,2032000,13
0.26,15339803,13317000,2048000,13
0.26,13883776,12748000,1062000,13
0.25,15124195,14147000,1010000,13
0.67,37957728,35114000,2926000,13
0.61,35422216,34412000,1012000,13
0.66,35559338,34524000,1015000,13
0.62,35615395,32708000,2973000,13
0.61,35536544,34551000,1016000,13
0.27,15999388,15004000,1000000,13
0.31,18292951,18295000,0,13
0.68,41158222,38209000,2939000,13
0.65,35143777,34153000,1004000,13
0.68,35048857,33151000,1950000,13
0.64,35866601,34895000,997000,13
0.65,34928566,32038000,2912000,13
0.62,37368767,36227000,1006000,13
0.69,39142499,36153000,3012000,13
0.63,35996257,35064000,1001000,13
0.64,36212329,34274000,1958000,13
0.71,37345540,35339000,2019000,13
0.63,35593946,35674000,0,13
0.66,35774774,31970000,3875000,13
0.38,22246690,22250000,0,13
0.24,15355116,14337000,1024000,13
0.63,36945550,34914000,2053000,13
0.69,31440096,30484000,983000,13
0.25,14944434,14040000,936000,13
0.64,35414752,34432000,1012000,13
0.71,37931096,34894000,2990000,13
0.69,37942925,35008000,3000000,13
0.81,33791473,32679000,1021000,13
0.26,14432270,12335000,2055000,13
0.25,15882888,12930000,2983000,13
0.75,38406744,35370000,3031000,13
0.68,36470756,33538000,2959000,13
0.61,38054745,37095000,1002000,13
0.69,37562990,35597000,2034000,13
1.53,71118684,66842000,3990000,14
3.74,185113204,175041000,10002000,14
3.63,182435314,181366000,996000,14
0.41,24063512,22083000,2007000,14
3.45,173139017,169106000,4002000,14
10.06,437595683,429486000,7990000,14
3.54,182294243,181329000,1001000,14
4.92,244839673,229920000,14929000,14
4.27,214480078,205529000,8979000,14
4.24,201696901,191608000,9979000,14
3.69,187611571,185669000,2007000,14
2.16,108796036,102788000,5987000,14
2.09,103635653,94570000,9054000,14
4.51,221667496,207660000,13977000,14
4.54,222969590,205923000,16993000,14
1.07,55878276,37911000,17957000,14
1.68,84973618,70973000,13994000,14
4.57,210227413,194203000,16016000,14
3.99,197233927,189215000,8009000,14
4.42,216451684,201415000,15030000,14
4.5,216338703,197394000,18941000,14
4.34,209712646,202764000,6957000,14
0.28,16179251,13135000,3031000,14
4.8,232675330,219657000,12921000,14
0.73,44861265,40865000,3986000,14
4.04,198442593,191345000,6976000,14
3.76,194404235,188340000,6010000,14
1.53,80761946,71930000,8868000,14
1.2,61543574,43667000,17863000,14
2.8,133106936,119053000,14006000,14
3.38,171966653,156839000,14984000,14
2.31,111452334,103405000,7954000,14
4.49,220327238,213368000,6979000,14
5.72,272351130,253289000,19021000,14
3.12,153203244,146199000,7009000,14
8.57,390664261,380541000,9987000,14
3.63,187856870,185873000,1998000,14
4.93,239704347,225697000,13981000,14
2.96,146979761,140000000,7000000,14
4.19,204217577,151072000,53025000,14
5.01,241341909,229408000,11969000,14
4.2,205912429,192930000,12928000,14
5.2,254411348,244395000,10016000,14
5.13,253053410,237944000,14996000,14
3.62,183476436,182482000,1002000,14
5.04,237967230,221888000,16064000,14
2.74,136819802,134822000,1982000,14
5.16,251295841,238187000,12955000,14
1.45,79034526,77088000,1976000,14
4.67,227948495,216910000,11046000,14
3.08,145393649,130244000,15028000,14
4.96,242555563,225475000,17035000,14
2.27,107996434,91133000,16839000,14
2.43,117704561,103842000,13845000,14
1.59,79462778,71398000,8044000,14
5.39,255940550,244976000,10954000,14
4.8,232449833,218339000,14021000,14
3.03,143795144,134670000,9045000,14
5.76,278201996,260990000,16999000,14
2.63,138647626,135710000,2971000,14
5.3,248833385,232670000,16046000,14
3.82,192097210,153977000,37994000,14
5.5,261208949,248158000,13008000,14
4.62,221344793,201387000,19939000,14
1.5,76192533,68173000,8020000,14
4.55,223690814,209738000,13982000,14
5.22,250304234,241286000,8973000,14
2.58,124174443,111172000,13020000,14
4.85,234708352,218627000,15972000,14
1.43,75739044,74745000,1010000,14
2.29,111633379,83698000,27899000,14
2.71,139534277,138542000,996000,14
1.26,67463435,62482000,4958000,14
1.39,68685616,53521000,15147000,14
4.25,207191872,197178000,10009000,14
4.58,217164665,208196000,9008000,14
2.26,115649300,113682000,1994000,14
4.09,187360028,184359000,3005000,14
1.74,87113245,70276000,16826000,14
3.87,192467800,181419000,11025000,14
1.06,61795339,54211000,6899000,15
2.89,147511943,141505000,5979000,15
1.08,57367173,54384000,3021000,15
1.17,60836380,57791000,3041000,15
1.08,55555483,52625000,2978000,15
0.47,23823883,19826000,3965000,15
1.15,60181493,54172000,6019000,15
3.69,173873733,170859000,2997000,15
1.35,68069544,59211000,8881000,15
3.79,179952215,176935000,2998000,15
1.36,74616124,72543000,1987000,15
1.11,58279547,56272000,2009000,15
1.28,61956878,55929000,5992000,15
1.04,57902397,55879000,2031000,15
3.88,182198329,180160000,2001000,15
1.17,60744222,59717000,1012000,15
1.06,61103741,57045000,4003000,15
1.09,57200531,55189000,2006000,15
1.08,56891272,53880000,2993000,15
5.19,244528948,237524000,6986000,15
1.07,55607761,54604000,1011000,15
1.14,56813664,49965000,6857000,15
1.17,64060218,61039000,3001000,15
3.77,181697594,174703000,6988000,15
1.03,58047794,53045000,5004000,15
3.79,178268361,174243000,4005000,15
1.13,58521869,55534000,2975000,15
1.07,58629372,53669000,4969000,15
1.18,59523678,55499000,3964000,15
1.88,92865743,86838000,5988000,15
1.22,62282774,56220000,6023000,15
1.07,56321229,51274000,5026000,15
3.98,185184738,183150000,2001000,15
3.77,177607417,174637000,2993000,15
8.95,401507245,392346000,8985000,15
1.08,56095294,51176000,4920000,15
1.21,61682320,55689000,5966000,15
1.29,66083613,62077000,4004000,15
3.72,173848302,170820000,2996000,15
1.25,63783153,58784000,4981000,15
1.86,92990797,89001000,4000000,15
1.11,58466088,55459000,2971000,15
1.11,55018278,48949000,5993000,15
2.14,93230005,86208000,7016000,15
3.95,178612424,176600000,2006000,15
1.18,61857622,57826000,3988000,15
3.75,175966250,171046000,4972000,15
1.07,55583967,53586000,1984000,15
1.11,57260877,55249000,2009000,15
1.05,56739376,54693000,2025000,15
1.08,51969804,49884000,2036000,15
1.16,60327253,56335000,4023000,15
1.44,69291163,67222000,2006000,15
1.19,60631271,56625000,3973000,15
3.88,176670246,171655000,4989000,15
3.76,178939694,176914000,1999000,15
1.21,60411323,58425000,1980000,15
1.17,60557763,57524000,3027000,15
3.74,177398710,173397000,4009000,15
1.27,62425321,60399000,2013000,15
1.1,56006270,51916000,3993000,15
3.71,172177718,171075000,1000000,15
3.95,180331486,175315000,4980000,15
1.2,57854054,51877000,5985000,15
3.79,173003266,171985000,999000,15
2.07,92408612,88220000,4010000,15
3.82,177180049,174185000,2986000,15
3.74,173549256,170546000,2992000,15
1.12,60949972,57950000,2997000,15
1.14,61152059,59145000,2004000,15
4.21,191059374,186990000,3999000,15
3.83,180897738,176875000,3997000,15
6.07,284213936,268151000,16009000,15
3.7,173435201,169415000,4009000,15
1.25,62682740,59743000,2987000,15
5.52,265420997,256396000,9013000,15
1.13,57172970,50057000,7008000,15
1.12,57975562,56956000,999000,15
1.24,62744328,59776000,2988000,15
3.8,176392258,175374000,1002000,15
4.82,243360641,238109000,4981000,16
4.66,239648219,233695000,5992000,16
2.66,119972180,112924000,6995000,16
2.92,154219870,986000,7696000,16
4.67,238908601,234908000,3981000,16
4.72,241034007,235007000,6000000,16
3.27,164704367,161678000,3012000,16
4.89,248334897,244359000,3989000,16
4.76,239780326,237820000,1998000,16
4.74,236720600,231654000,4992000,16
4.84,240925673,233944000,6968000,16
3.41,168054658,155029000,13002000,16
3.41,169407787,164361000,5011000,16
8.33,365850503,362831000,3006000,16
4.84,239520939,236503000,2993000,16
4.75,235708867,232628000,2995000,16
3.02,150015223,144040000,6001000,16
4.71,240027483,232076000,7968000,16
3.27,160689398,155678000,4989000,16
7.36,324106733,313088000,11003000,16
9.15,370447291,361355000,9008000,16
11.15,484848780,478836000,5985000,16
4.76,237711909,235618000,1996000,16
4.79,238340234,236168000,1992000,16
4.81,241987833,237946000,3999000,16
3.34,161046232,157026000,4000000,16
4.85,239630887,235517000,3991000,16
4.76,239442169,232452000,6983000,16
2.63,132366767,125372000,6965000,16
2.97,129381841,123327000,6015000,16
3.68,178789498,172828000,5994000,16
4.78,238965086,234958000,3999000,16
4.85,245358786,238310000,7009000,16
4.75,240704649,235738000,4973000,16
4.78,236006490,231870000,3997000,16
8.7,382587339,376619000,6009000,16
9.01,394563916,253679000,140822000,16
4.79,242588979,236589000,5989000,16
2.67,124345814,2125000,6375000,16
3.12,138785878,133751000,4990000,16
3.74,189656702,184673000,4991000,16
4.94,241880478,235881000,6022000,16
4.74,241314003,236302000,5006000,16
3.94,192755227,188770000,4016000,16
6.04,302979497,299875000,2998000,16
4.97,248362543,245383000,3004000,16
4.77,239011903,235996000,2999000,16
4.77,238227686,233253000,4984000,16
4.99,248458197,243483000,4989000,16
7.77,335309908,211168000,124098000,16
4.79,236631398,234484000,2004000,16
4.9,247226937,244239000,2990000,16
4.76,238419015,234319000,3988000,16
4.84,240482332,232367000,7978000,16
4.87,239052940,233942000,4977000,16
2.47,122258237,120100000,2001000,16
3,145058532,140037000,5001000,16
7.73,340186419,337079000,3000000,16
8.96,382575735,377433000,5005000,16
5.05,246466422,242471000,3991000,16
4.78,237342976,234320000,3004000,16
3.72,179608916,174479000,4985000,16
2.95,149256744,145230000,3978000,16
10.67,466792698,458706000,7994000,16
5,248930765,243921000,4977000,16
8.85,374767070,369756000,4996000,16
2.73,123544453,3147000,7344000,16
4.86,238665867,235657000,2995000,16
11.15,492548087,487511000,4994000,16
4.82,242361295,239378000,2992000,16
4.87,237863231,233814000,4013000,16
3.56,174600850,166607000,7981000,16
4.9,244387853,242316000,1994000,16
4.91,242033475,239940000,1999000,16
9.89,435567006,428473000,6991000,16
11.86,529055456,524016000,5000000,16
4.79,239575374,235412000,4007000,16
3.27,162459067,156433000,6016000,16
4.92,239275727,231110000,8003000,16
4.9,243446200,235436000,7980000,16
10.65,565509067,560255000,4993000,17
14.69,671210817,665232000,6002000,17
9.63,507561455,502583000,4995000,17
9.64,503802377,499817000,4006000,17
7.54,397496815,391504000,5992000,17
11,576144862,571027000,5000000,17
8.75,430747826,424642000,5994000,17
10.78,564484621,560493000,3996000,17
11.36,525890891,518817000,6997000,17
5.04,249622735,241517000,7984000,17
6.04,308634404,302617000,5992000,17
4.96,242542051,239558000,2994000,17
9.7,502541967,497514000,5005000,17
8.56,424145560,419149000,5001000,17
18.23,929300250,927190000,2000000,17
8.34,433782514,426728000,6995000,17
5.51,274929626,270918000,3998000,17
3.11,162726558,3096000,9611000,17
5.32,263340084,258310000,5006000,17
10.03,493441248,482413000,11009000,17
9.69,503228676,501156000,2000000,17
9.93,517225132,515106000,2000000,17
2.67,129609054,3054000,9162000,17
9.21,394753555,386783000,7995000,17
11.1,563354516,556400000,6992000,17
8.29,429111294,426112000,3000000,17
6.93,336509768,335532000,1001000,17
9.69,502230458,501232000,1000000,17
15.4,775026167,767045000,8000000,17
11.19,565448318,559274000,6002000,17
10.87,564389276,557280000,7003000,17
11.13,565574496,560514000,4995000,17
11.08,562644907,560587000,1998000,17
11.35,574702228,569593000,4996000,17
10.19,513814365,509800000,3998000,17
9.77,510076707,505973000,3999000,17
10.13,443285738,437110000,6001000,17
18.69,923959202,915930000,7999000,17
9.75,505119146,501078000,4000000,17
10.9,564273486,559278000,5002000,17
9.92,500951593,497782000,3004000,17
11.08,562345073,559205000,3001000,17
11.41,505474589,497458000,8007000,17
10.98,566926665,562938000,4006000,17
10.93,564202268,557222000,7002000,17
6.75,343031504,338003000,5000000,17
8.97,456768073,452715000,3997000,17
9.87,507484227,502460000,4994000,17
9.86,500729078,498481000,2001000,17
11.02,566543661,562406000,3995000,17
9.82,502890905,498828000,3990000,17
7.97,399856931,390912000,8975000,17
10.91,563232168,556134000,6989000,17
9.97,518856949,514693000,3997000,17
5.37,262551333,257534000,5010000,17
11.15,561406034,556341000,4994000,17
11.14,564863946,559712000,4997000,17
9.81,502420583,497427000,5004000,17
6.36,301090328,294994000,5999000,17
8.02,403067009,396888000,5998000,17
9.87,504083218,502074000,2000000,17
11.56,592601981,591416000,1000000,17
5.08,251199740,250142000,1000000,17
10.96,561990463,558871000,2999000,17
6.62,341594056,337478000,3993000,17
11.23,565659684,564592000,1001000,17
11.27,564409532,557232000,7002000,17
2.07,103229693,98213000,5010000,17
6,303309006,300270000,3002000,17
11.18,564204208,562170000,2000000,17
11,564270139,560149000,4001000,17
11.05,563381829,556343000,6991000,17
11.04,558278276,555217000,3001000,17
5.38,267813982,264607000,3006000,17
8.57,430109641,422120000,7983000,17
9.81,502530434,499574000,2997000,17
12.41,539461298,534485000,4995000,17
10.93,496779206,493568000,2997000,17
11.19,562253502,558186000,4001000,17
11.24,564015776,557989000,5999000,17
5,238117709,231854000,5996000,18
4.9,235401172,227423000,7979000,18
3.99,195235788,193241000,2002000,18
4.24,203039481,199974000,2999000,18
4.6,219642718,211594000,7984000,18
10.15,464305103,338241000,126090000,18
3.74,182028478,179013000,3000000,18
5.03,234779566,228753000,5993000,18
5.11,190008806,187015000,3000000,18
4.75,218509862,213452000,4987000,18
10.14,462061236,331058000,131023000,18
1.18,60123962,58100000,2003000,18
3.37,166216822,162210000,4005000,18
6.02,287911139,282878000,4997000,18
14.78,638969429,626877000,11997000,18
4.63,217889981,210757000,6991000,18
5.02,237335667,228296000,8972000,18
3,141082734,135946000,4998000,18
3.12,153390164,2297000,6532000,18
4.93,233250081,228213000,5004000,18
10.23,462916812,336899000,125962000,18
5.02,237461422,229982000,6999000,18
10.36,467589645,327683000,139864000,18
2.65,122534741,2180000,6540000,18
1.2,59852551,55841000,3988000,18
6.77,310144334,161044000,149041000,18
2.58,124628714,123593000,1004000,18
4.39,205527656,199539000,5986000,18
5.32,246749604,241718000,4994000,18
6.29,301796591,295725000,6014000,18
4.55,223790634,220810000,2997000,18
5.2,245137296,238177000,7005000,18
2.26,111451228,107496000,3981000,18
2.59,121680603,1088000,8422000,18
4.72,221129534,211200000,9962000,18
8.77,411305400,272506000,138748000,18
4.51,209831582,199891000,9944000,18
17.27,792454860,644475000,147879000,18
12.24,553123232,546106000,7001000,18
5,237037175,231997000,4999000,18
5.09,235614600,226629000,8985000,18
3.79,182912796,178917000,3998000,18
4.64,219959346,213952000,5998000,18
4.62,216428155,212419000,4007000,18
10.53,467191074,321099000,146045000,18
8.37,395463651,387400000,8008000,18
2.56,126705678,2082000,7041000,18
13.07,599244038,465150000,134043000,18
4.71,218038836,213906000,3998000,18
14.47,645739977,636629000,8994000,18
11,493856562,348790000,144912000,18
5.06,238676002,232571000,5988000,18
10.92,507062716,501895000,4998000,18
23.76,1120323182,1116155000,4000000,18
5.33,251299018,246253000,5005000,18
4.8,224524721,221401000,3005000,18
3.74,179991355,176025000,3977000,18
11.17,520103977,513857000,5998000,18
2.67,122774832,1006000,8049000,18
4.77,220660860,214651000,5990000,18
4.7,218289656,214154000,3984000,18
2.78,132390338,128382000,3980000,18
4.22,207030200,203842000,2997000,18
4.46,203144853,195055000,8002000,18
14.19,640646175,495657000,144899000,18
4.55,221419871,220421000,1001000,18
2.55,126891160,120950000,5948000,18
4.73,218036576,210008000,8000000,18
5.02,236743104,226746000,9988000,18
14.64,660350899,531287000,129069000,18
4.71,218855661,213783000,5018000,18
4.48,207057541,202003000,5000000,18
4.69,218894794,213673000,5015000,18
4.42,204785436,196720000,8029000,18
4.43,202773671,198556000,4011000,18
4.73,218783920,211801000,6993000,18
4.72,218936898,213751000,5017000,18
10.41,466272949,320489000,145767000,18
10.16,453051447,313713000,139316000,18
4.71,219013146,214983000,3999000,18
2.88,137955023,72317000,65286000,19
3.1,153793673,3023000,5903000,19
2.67,124434681,1066000,8218000,19
2.68,125959102,89999000,35999000,19
3.79,180593670,125351000,55154000,19
2.01,99200073,67121000,32057000,19
2.64,122919627,2257000,6771000,19
2.58,123366184,3163000,4989000,19
13.18,532681165,463654000,68948000,19
2.57,124817455,1956000,7607000,19
13.79,587978560,547845000,40061000,19
12.59,563005113,516865000,45988000,19
11.4,497581680,455569000,41960000,19
2.63,122887602,92641000,30209000,19
9.95,440820539,403810000,36982000,19
2.67,122552099,3283000,5472000,19
2.66,127548007,95400000,32134000,19
2.62,123721389,7864000,0,19
2.9,137478589,102596000,34862000,19
2.41,121937062,84952000,36979000,19
10.32,444502774,383280000,61044000,19
2.6,122817419,2082000,7239000,19
2.65,122178603,2018000,6055000,19
2.07,99596804,64369000,35202000,19
8.14,357275443,286341000,70837000,19
2.66,131191643,92384000,38741000,19
3.32,161962674,99940000,61962000,19
2.25,100208740,67079000,33038000,19
1.98,95120393,94056000,1000000,19
2.58,127678145,85694000,41850000,19
2.13,108110271,63964000,43975000,19
2.31,105951814,74940000,30975000,19
3.88,171257421,109095000,62054000,19
2.54,123377467,88529000,34814000,19
2.57,122364846,92421000,29813000,19
2.57,122947086,91919000,30972000,19
2.67,121155723,1901000,7595000,19
3.54,164131399,90056000,74046000,19
3.56,163057956,101027000,62016000,19
3.34,151270830,81125000,70108000,19
2.66,124156915,8861000,0,19
8.89,387416446,344348000,43043000,19
3.45,160267264,85624000,74672000,19
3.74,174552933,100672000,73760000,19
2.59,121955418,81277000,40638000,19
3.08,142508556,86686000,55798000,19
4.04,185412335,124198000,61097000,19
13.65,590352401,553275000,37018000,19
12.89,591090911,525087000,66011000,19
2.82,130757598,104600000,26150000,19
2.51,121967669,84986000,36993000,19
2.84,130497173,90615000,39831000,19
6.66,272380701,230279000,42050000,19
3.28,147618913,81781000,65824000,19
2.57,122990626,84013000,39006000,19
2.76,130440503,94296000,36113000,19
2.48,118863073,84198000,34670000,19
13.97,623229733,585205000,38013000,19
2.1,99778155,67516000,32246000,19
2.65,124018579,3128000,6064000,19
2.44,120201759,89131000,31045000,19
2.33,115704914,82492000,33198000,19
10.15,462594790,383663000,78930000,19
3.37,160802439,92420000,68310000,19
6.12,244018653,204983000,38996000,19
1.57,78869472,77879000,998000,19
2.85,134958602,97916000,36968000,19
12.3,541738553,480732000,60966000,19
2.75,136446639,107559000,28881000,19
2.63,124987627,3127000,6052000,19
3.69,172688980,103753000,68836000,19
3.45,162331288,99191000,63122000,19
9.09,401613731,372566000,28966000,19
2.64,120112514,82351000,37703000,19
2.73,120808846,2289000,6483000,19
10.54,463900502,428794000,34983000,19
3.43,162191332,92094000,70071000,19
6.69,289858660,252862000,36979000,19
13.9,601717790,523600000,78089000,19
2.61,125986273,959000,8467000,19
0.36,22586888,20278000,2027000,20
0.03,2382198,798000,1596000,20
0.03,2179781,1093000,1093000,20
0.03,2029391,2002000,0,20
0.31,20055837,16038000,4009000,20
0.8,43473074,40557000,2967000,20
0.73,37529227,35488000,2027000,20
1.28,72282147,69271000,3011000,20
0.38,24455288,22433000,2039000,20
0.27,14782440,12803000,1969000,20
0.03,2066435,1066000,1066000,20
0.32,20231413,18348000,1931000,20
0.85,44919930,40837000,4083000,20
0.77,42006370,40016000,2000000,20
0.31,18856595,16910000,1989000,20
0.04,2126509,1074000,1074000,20
0.28,16593528,15582000,1038000,20
0.73,37779337,37795000,0,20
0.77,42393938,40230000,2011000,20
0.36,22882117,20792000,2079000,20
0.4,21585534,18646000,2944000,20
0.62,35279315,33330000,2020000,20
0.39,21949632,19918000,1991000,20
0.43,24426014,19520000,4880000,20
0.28,17450442,17476000,0,20
0.37,23129680,21159000,2015000,20
0.03,1921541,974000,974000,20
0.44,26427294,22502000,3913000,20
0.05,2367588,1216000,1216000,20
0.35,21080642,18269000,2884000,20
0.75,42158863,40209000,2010000,20
0.47,27427464,27434000,0,20
0.26,15584120,13523000,2080000,20
0.25,16222847,16280000,0,20
0.46,26027857,20007000,6002000,20
0.04,2114668,1073000,1073000,20
0.26,15974736,13852000,1978000,20
0.76,40312300,40257000,0,20
0.33,21938977,20958000,998000,20
0.31,19771286,17816000,1979000,20
0.8,43251947,41282000,2013000,20
0.03,1933110,997000,997000,20
0.86,45275995,39232000,6035000,20
0.39,19990578,18982000,999000,20
0.76,41144184,40198000,1004000,20
0.66,35184196,33195000,2011000,20
0.38,23344720,19282000,4059000,20
0.5,29584356,23615000,5903000,20
0.38,22997186,21014000,2001000,20
0.7,39344187,36324000,3027000,20
0.82,41395864,39349000,2017000,20
1.09,62264413,57154000,5013000,20
0.33,18794634,16720000,2090000,20
0.78,41678608,38698000,2976000,20
1.43,75171003,71243000,3957000,20
0.42,24581623,23559000,1024000,20
0.74,37285360,35257000,1958000,20
0.35,19964214,14983000,4994000,20
0.77,41003549,39983000,1025000,20
0.04,2157631,1086000,1086000,20
0.45,24708130,19748000,4937000,20
0.73,40533951,37623000,2970000,20
0.27,17146169,16124000,1007000,20
0.49,28698987,24610000,4101000,20
0.34,21406449,16333000,5104000,20
0.04,1878755,1902000,0,20
0.04,2121032,1068000,1068000,20
0.81,43380511,40340000,3025000,20
0.48,28009286,27007000,1000000,20
0.04,1904031,981000,981000,20
0.81,41167110,39097000,2005000,20
0.67,37077131,34090000,3007000,20
0.95,42489918,39357000,3027000,20
0.27,18299774,15265000,3053000,20
0.78,40702405,35610000,5087000,20
1.44,74267486,34103000,40121000,20
0.44,24069425,17644000,5881000,20
0.43,24175603,22172000,2015000,20
0.04,2324477,793000,1587000,20
0.8,43029797,41038000,2001000,20
0.08,5077754,3771000,942000,21
3,154365900,1127000,7622000,21
0.25,14582738,9275000,5153000,21
0.46,26191139,17073000,9039000,21
7.01,309916912,309904000,0,21
0.08,5072817,4257000,851000,21
5.1,261253413,249310000,11966000,21
0.93,46779288,39840000,6972000,21
0.42,22343136,14177000,8101000,21
6.66,334424122,320410000,14017000,21
5.22,243253951,242244000,1001000,21
0.1,7124851,6130000,1021000,21
0.03,2306645,2360000,0,21
0.12,7792145,5872000,1957000,21
4.15,212336452,211337000,1001000,21
0.57,29447586,20232000,9104000,21
4.19,212276941,211173000,1000000,21
0.7,38683942,20375000,18338000,21
0.09,5535703,3720000,1860000,21
4.1,200930752,199932000,1004000,21
0.78,43790244,38683000,5089000,21
0.12,7139416,7116000,0,21
0.1,6750634,5639000,1127000,21
0.08,5063217,3409000,1704000,21
1,50548286,46471000,4041000,21
3.37,163939525,161998000,1987000,21
0.34,23127958,22056000,1002000,21
0.12,8309309,7304000,1043000,21
0.91,49273698,44187000,5021000,21
4.18,208082703,206140000,2001000,21
5.18,263371830,250332000,13017000,21
0.54,30107351,17085000,13065000,21
0.36,21132153,11072000,10065000,21
0.2,13571099,9692000,3876000,21
4.96,234574217,232585000,1996000,21
0.38,21478118,7150000,14301000,21
0.1,6696152,5611000,1122000,21
4.26,211314210,209143000,1991000,21
0.13,6561584,5557000,926000,21
3.86,192421362,190251000,1992000,21
4.97,243934581,241771000,1998000,21
3.38,163162517,162225000,1001000,21
0.17,9831239,8761000,1095000,21
0.28,15684595,14680000,978000,21
3.85,186785980,185795000,998000,21
0.56,32095609,31109000,1003000,21
1.29,65198917,53143000,12032000,21
3.19,156853436,155797000,998000,21
0.08,4943546,3975000,993000,21
0.38,22646157,17720000,4922000,21
4.61,221156380,219043000,2000000,21
0.25,15028123,9011000,6007000,21
5.5,270490071,269340000,1001000,21
0.08,5666565,4735000,947000,21
0.06,2077321,2110000,0,21
0.12,7162182,6147000,1024000,21
0.47,26578692,18692000,7870000,21
0.11,7286382,4566000,2739000,21
4.79,221851502,220864000,999000,21
4.28,211397479,209396000,2003000,21
0.51,26962763,22963000,3993000,21
4.29,210154043,209125000,1000000,21
0.47,26503179,16301000,10188000,21
0.2,11692897,8502000,3188000,21
3.87,189528013,189507000,0,21
3.42,165414490,165431000,0,21
0.37,21392243,11202000,10183000,21
0.33,16860487,11219000,5609000,21
2.62,126365572,2028000,5974000,21
2.17,99577522,80441000,19104000,21
0.72,37949606,24603000,13326000,21
0.07,4965102,2490000,2490000,21
0.08,5132120,4128000,1032000,21
0.07,4672768,3686000,921000,21
0.09,5984813,4926000,985000,21
3.29,160278645,159116000,1000000,21
3.21,158997384,156981000,1987000,21
3.28,151855767,150615000,997000,21
0.38,21082395,9025000,12034000,21
0.08,5082344,4104000,1026000,21
0.24,15162965,13860000,1066000,22
0.27,16903388,13925000,2983000,22
0.34,19170704,18180000,1010000,22
0.66,34001551,32963000,998000,22
0.67,37419486,33469000,3937000,22
0.64,39940526,36931000,2994000,22
0.63,35153268,34165000,1004000,22
0.35,21506083,15638000,5864000,22
0.27,15929731,12990000,2997000,22
0.26,15807572,14825000,988000,22
0.25,15692921,15740000,0,22
0.28,17475603,14440000,3094000,22
0.28,14480765,13363000,1027000,22
0.3,18113112,14077000,4022000,22
0.67,37445410,32525000,4928000,22
0.66,38458674,36425000,2023000,22
0.27,16139577,14129000,2018000,22
0.66,35757486,33777000,2047000,22
0.3,16260591,12399000,3815000,22
0.25,16021412,15050000,1003000,22
0.26,16290174,12460000,3833000,22
0.25,15555416,12636000,2916000,22
0.22,14941926,14953000,0,22
0.23,14794834,13010000,1858000,22
0.26,14590223,11655000,2913000,22
0.68,35460837,34440000,1012000,22
0.53,31557191,23659000,7886000,22
0.62,36283903,33281000,3025000,22
0.68,36427527,35446000,984000,22
0.63,36943764,34944000,1996000,22
0.26,15330213,14331000,1023000,22
2.2,106429718,46179000,60233000,22
0.26,16279458,14241000,2034000,22
0.64,36350492,35360000,1010000,22
0.68,36800351,31981000,4845000,22
0.29,17028817,13022000,4006000,22
0.23,14789367,13790000,985000,22
0.65,37967105,36993000,999000,22
0.67,36590281,34670000,1981000,22
0.26,16455179,13321000,3074000,22
0.65,36005984,35003000,1000000,22
0.25,15987050,13988000,1998000,22
0.65,36532587,35622000,989000,22
0.65,33945730,30104000,3884000,22
0.25,15948080,13987000,1998000,22
0.63,38567085,37516000,987000,22
0.25,14824401,13854000,989000,22
0.27,15395255,13479000,1925000,22
0.27,16939659,13977000,2995000,22
0.27,16071067,14125000,2017000,22
0.63,36368721,33359000,3032000,22
0.27,15877423,14934000,995000,22
0.3,17242562,11549000,5774000,22
0.25,14614829,11711000,2927000,22
0.65,34232725,31250000,2929000,22
0.67,36227719,34230000,2013000,22
0.4,24119769,17098000,7040000,22
0.23,15592835,13672000,1953000,22
0.27,15793729,15840000,0,22
0.26,16513465,14392000,2056000,22
0.32,19788079,17729000,2085000,22
0.27,15839939,13727000,2111000,22
0.63,38014436,36033000,2001000,22
0.64,34451061,33452000,1013000,22
0.69,39486025,34546000,4935000,22
0.26,15644390,14598000,1042000,22
0.72,39568096,34607000,4943000,22
0.64,39037341,37988000,1026000,22
0.27,16979861,14008000,3001000,22
0.39,21815971,19736000,2077000,22
0.25,15634105,10797000,4907000,22
0.68,36091793,34096000,2005000,22
0.28,17059372,15054000,2007000,22
0.66,36535147,33584000,2963000,22
0.27,15212880,12171000,3042000,22
0.27,15908960,15023000,938000,22
0.68,34045357,33026000,1000000,22
0.26,16775719,13028000,3722000,22
0.27,13893179,11724000,2131000,22
0.28,13718971,11705000,1950000,22
0.87,50475664,44162000,6022000,23
3.42,163962054,155005000,9000000,23
3.33,153962302,147003000,6952000,23
3.22,155852145,149844000,6034000,23
1.79,79045241,66792000,12144000,23
1.49,74196964,64143000,10022000,23
1.55,76733173,68740000,7969000,23
1.64,80603956,76534000,4028000,23
9.73,488308155,470275000,17972000,23
0.79,47764539,42574000,5068000,23
3.33,155596835,144580000,10968000,23
3.29,147377533,142304000,4975000,23
1.54,82517373,78468000,3973000,23
0.74,40713690,38675000,2035000,23
3.19,150250230,146233000,4006000,23
0.94,50948742,46890000,3990000,23
1.67,83126563,77085000,6006000,23
1.4,69968017,62922000,6991000,23
1.76,82420846,66422000,15862000,23
3.26,151128291,145090000,6003000,23
3.26,154875450,142891000,11990000,23
3.29,155255165,146188000,9011000,23
1.6,81905689,73895000,7988000,23
3.27,156025709,151013000,5000000,23
0.82,42285257,41277000,1006000,23
1.54,77155933,70101000,7010000,23
1.75,88193421,82148000,6010000,23
1.98,96789102,89731000,6979000,23
1.65,84266664,77263000,7023000,23
1.71,88092115,79064000,9007000,23
1.61,82747528,73748000,8969000,23
1.67,88378303,81218000,7018000,23
3.23,151712052,144709000,6985000,23
1.48,74818575,69741000,5053000,23
3.36,155638693,146580000,9035000,23
1.42,73318789,66212000,7022000,23
1.51,75100757,70101000,5007000,23
1.73,85117388,79080000,6006000,23
2.56,124483684,121446000,2986000,23
3.75,183524188,173515000,9972000,23
1.63,80845609,73766000,7073000,23
1.61,79983112,73942000,6077000,23
3.21,153769371,145742000,7985000,23
1.48,75462885,65544000,9931000,23
3.29,154960453,148934000,5997000,23
3.3,154982972,146955000,7997000,23
3.35,155340614,146411000,8963000,23
3.34,156138510,150103000,6004000,23
1.45,75782736,67702000,7965000,23
3.39,160696091,156650000,4016000,23
3.21,151810733,142762000,9048000,23
1.71,86382318,78286000,8029000,23
3.43,163042908,155064000,8003000,23
1.43,73312569,68202000,5014000,23
1.67,81404626,76377000,4959000,23
1.45,73445122,65390000,8048000,23
1.4,70810113,64794000,5981000,23
1.49,75692501,68608000,7062000,23
1.46,73699945,68683000,4977000,23
1.47,74318609,69244000,5017000,23
1.59,76436974,67478000,8930000,23
1.76,86233331,73174000,13031000,23
3.42,153618833,142607000,10969000,23
2.8,135691662,131642000,4019000,23
1.49,74316059,70268000,4015000,23
3.39,156193944,147147000,9009000,23
3.61,165071124,149092000,16009000,23
1.47,70664134,65646000,4973000,23
1.61,81247721,77211000,4011000,23
1.39,69420720,66360000,3016000,23
3.36,154763413,149764000,4992000,23
1.5,74549438,68559000,5961000,23
2.55,118661079,114716000,3990000,23
1.45,72726702,65682000,6966000,23
3.27,151091405,143019000,8001000,23
2.75,131654084,131675000,0,23
3.24,150404117,137441000,12947000,23
3.23,152712546,148741000,3966000,23
1.72,86855014,78851000,7984000,23
0.84,49498749,45513000,3957000,23
3.53,161825169,154445000,6974000,24
1.31,67257129,61224000,6022000,24
1.26,67989992,64010000,4000000,24
1.27,65310653,59240000,6024000,24
2.98,146957243,139937000,6996000,24
3.35,156916535,151866000,4995000,24
3.14,147367669,144252000,2984000,24
1.5,76247144,68362000,7926000,24
3.33,155210417,147218000,7957000,24
3.19,144221176,140098000,3974000,24
1.57,78502684,70312000,8035000,24
2,98839519,82706000,16137000,24
1.96,96953668,88033000,8902000,24
1.73,86762845,80742000,6055000,24
3.27,152751055,146746000,5989000,24
3.14,146239674,138273000,7958000,24
1.39,71455220,62546000,8935000,24
1.77,86695531,74713000,11954000,24
1.55,78080126,72117000,6009000,24
3.09,146172171,136179000,10013000,24
1.34,65710828,60673000,4973000,24
3.13,142975478,139940000,2998000,24
1.53,82111188,74970000,6997000,24
1.37,68692954,63613000,5048000,24
1.38,67109628,62085000,5006000,24
1.42,69012919,64917000,3994000,24
4.06,203058711,192044000,11002000,24
3.15,145843213,135904000,9920000,24
4.17,193069963,103047000,90041000,24
3.41,155333834,147199000,8010000,24
1.51,76580419,68492000,8057000,24
1.34,70942624,63884000,6987000,24
3.23,147454080,142414000,5014000,24
1.38,68472592,62496000,5952000,24
1.6,75864967,72742000,3030000,24
3.08,142752331,135779000,6988000,24
5.85,278894330,265874000,12993000,24
3.36,157617218,150551000,7025000,24
3.05,144993675,138006000,6949000,24
1.48,74825582,70791000,4045000,24
1.39,69757730,63696000,5879000,24
3.15,144833781,137789000,6989000,24
1.39,69205203,62162000,7018000,24
3.31,152912707,143789000,8986000,24
1.37,68061458,61136000,6902000,24
1.57,78603707,72610000,5968000,24
3.2,150502079,146485000,4013000,24
1.29,69576226,65462000,4028000,24
3.36,154149735,140913000,12992000,24
1.37,73632790,66543000,6952000,24
1.36,64601812,58573000,5956000,24
1.41,69446368,61348000,8045000,24
3.15,148312609,145284000,3005000,24
1.54,77984825,72965000,4997000,24
2.09,103956785,99936000,3997000,24
1.6,77962329,71958000,5996000,24
1.51,78026717,67193000,10869000,24
1.39,69678228,65632000,3977000,24
3.11,144617712,140611000,4017000,24
1.36,68221425,61172000,7019000,24
1.37,71552477,66492000,5037000,24
1.43,72368191,68400000,3965000,24
1.28,64262467,58226000,6023000,24
1.33,67056035,62124000,4930000,24
1.38,69580287,64515000,5040000,24
3.15,149185843,143205000,5966000,24
1.85,90102190,80986000,8998000,24
3.43,159820987,152769000,7035000,24
1.51,75907970,67829000,8099000,24
3.13,143008850,135927000,6996000,24
1.57,80225095,69209000,11033000,24
1.6,82339133,78310000,4015000,24
3.18,148618095,143484000,4982000,24
3.62,166957943,160899000,6033000,24
1.85,89874095,83734000,6053000,24
3.18,149485075,144453000,5015000,24
3.07,144573990,142545000,2007000,24
6.33,307367314,295333000,12013000,24
3.14,145911785,141848000,4024000,24
1.36,68144755,64112000,4007000,24
4.74,231564229,224320000,7010000,25
1.75,85480117,77500000,7948000,25
1.58,83527815,81515000,1988000,25
1.6,78677869,74521000,4028000,25
1.54,77515508,73538000,3975000,25
1.66,84119733,73256000,10889000,25
1.57,81767733,69798000,11965000,25
1.68,84701792,76624000,7960000,25
10.11,496272504,483252000,12979000,25
1.6,80545565,72464000,8051000,25
3.4,159729404,149708000,9980000,25
4.96,249469221,237433000,12021000,25
1.65,82652910,78694000,3984000,25
1.75,88826414,75855000,12975000,25
3.66,170011160,164940000,4998000,25
1.59,78740271,76719000,2018000,25
1.63,82024333,72148000,9883000,25
1.67,81970752,71916000,9988000,25
1.67,82033352,72132000,9881000,25
1.76,90320943,83313000,7026000,25
1.64,84327525,77277000,7025000,25
3.31,155168072,149111000,6004000,25
3.34,158085394,151073000,7003000,25
1.84,92395451,82442000,9932000,25
1.88,96193585,89185000,7014000,25
1.59,83757591,76784000,6980000,25
1.91,95353124,84437000,10927000,25
3.57,165777148,156697000,9040000,25
3.66,170899918,163800000,7034000,25
1.56,80817355,76787000,4041000,25
3.35,154779980,147816000,6991000,25
1.66,85825712,78796000,7071000,25
1.61,78960171,71081000,7897000,25
3.53,162280673,156197000,5969000,25
3.37,163509311,157470000,5979000,25
3.43,166219510,161125000,5003000,25
1.49,75006934,69033000,6002000,25
3.53,162541309,156524000,5981000,25
1.95,94290436,76393000,17858000,25
3.37,158826309,150741000,8039000,25
1.52,75309048,72265000,3011000,25
1.56,81118600,73038000,8004000,25
1.67,82384019,77341000,5022000,25
3.51,163094333,154170000,8951000,25
1.6,80377223,73442000,6947000,25
3.46,161283954,151305000,9954000,25
1.56,79603453,73551000,6045000,25
1.5,75468702,70452000,5032000,25
1.88,91914131,77899000,13982000,25
3.42,159466032,151428000,8022000,25
1.75,85312648,75255000,10034000,25
3.59,171933489,163872000,8042000,25
5.1,236749902,227721000,8988000,25
1.58,80340282,76279000,4014000,25
1.72,85043025,78051000,7004000,25
1.89,89828098,83693000,6050000,25
1.52,79961413,73936000,5994000,25
3.54,164028611,155949000,7946000,25
1.71,85110941,79081000,6006000,25
4.49,222392033,210339000,12019000,25
3.66,171341083,162324000,9018000,25
1.65,81526086,70428000,11067000,25
2.19,106736678,88525000,18107000,25
3.43,161183800,155156000,6006000,25
3.55,165759361,157794000,7989000,25
1.57,79547780,72601000,6961000,25
3.47,159446911,156425000,2989000,25
3.99,186623936,155660000,30932000,25
3.34,155027791,147982000,6999000,25
3.69,171781779,168749000,3013000,25
1.67,83011001,75029000,8003000,25
5.05,249132309,241084000,8002000,25
1.98,96536969,87622000,8961000,25
1.91,94433020,83491000,10933000,25
1.67,82824824,73813000,8977000,25
4.44,199377666,192282000,6973000,25
1.54,76292210,68282000,7916000,25
2.04,100962207,92881000,8076000,25
5.46,269525363,252466000,16964000,25
2.63,124792392,121697000,3017000,25
3.07,138845946,134530000,3986000,26
2.95,141437334,135443000,5975000,26
2.93,139941643,132890000,6994000,26
2.98,142082468,132074000,10005000,26
1.24,63386111,57307000,6032000,26
1.26,63800310,54931000,8828000,26
1.41,71639282,64574000,7062000,26
1.19,62657198,52540000,10103000,26
2.98,141550526,137515000,4015000,26
3.13,148937680,139933000,8995000,26
1.41,68271005,63144000,5011000,26
3.09,156749627,144684000,12057000,26
3.36,157370412,148371000,8962000,26
1.33,68780023,63769000,5061000,26
1.18,64458780,60432000,4028000,26
1.36,72143918,67144000,5010000,26
1.45,71093382,65077000,6007000,26
1.33,67816928,62824000,4986000,26
3.05,141145508,134922000,5996000,26
3.07,144595936,138587000,5982000,26
3.09,146550766,137555000,8971000,26
1.26,63126569,55192000,7884000,26
1.52,79031224,67038000,12006000,26
1.28,63499013,58506000,4958000,26
3.04,141423993,133380000,8022000,26
3.38,157336684,149282000,8015000,26
1.4,71054650,64027000,7003000,26
1.32,72487457,65522000,6949000,26
0.24,14025905,11010000,3002000,26
1.39,71497352,64426000,7046000,26
1.56,78139892,70100000,8011000,26
1.43,70791971,63786000,6976000,26
1.37,70263498,64232000,6021000,26
1.28,63414706,60327000,3016000,26
1.27,64273343,62258000,2008000,26
1.24,63573304,57614000,5960000,26
3.07,144041898,138028000,6001000,26
1.33,67229794,63191000,4012000,26
3.07,141305843,135283000,6012000,26
0.75,38180485,35154000,3013000,26
1.26,64086576,60069000,4004000,26
1.27,63470515,53364000,10068000,26
3.82,184592057,179578000,4988000,26
0.17,10398226,7591000,2846000,26
1.42,71955593,64924000,6991000,26
1.26,63659453,60643000,2982000,26
1.41,70813996,64822000,5983000,26
3.29,151984606,142951000,8996000,26
1.81,89098878,81065000,8006000,26
3.56,164231779,155697000,7984000,26
1.25,63594681,57650000,5963000,26
3.54,163125174,156097000,7004000,26
1.47,71885894,62035000,9846000,26
1.24,64290640,57288000,7035000,26
1.4,70589694,63522000,7058000,26
3.87,184748140,180657000,3992000,26
1.5,72625461,64603000,7951000,26
3.22,153297079,140355000,12940000,26
3.11,141202950,131274000,10020000,26
1.25,65896536,60946000,4915000,26
1.42,70414092,62330000,8042000,26
3.01,144569017,139521000,5018000,26
3.17,145916856,139870000,6037000,26
1.29,63446562,59270000,4018000,26
1.42,72163876,65132000,7014000,26
3.04,141411635,135348000,6015000,26
1.26,67700331,60710000,6966000,26
1.45,71666717,63409000,8051000,26
3.01,140612246,135631000,4986000,26
1.26,65545213,60571000,4964000,26
1.92,94877173,83996000,10870000,26
1.68,80304676,71257000,9032000,26
3.12,142038244,134998000,6948000,26
1.37,71955353,65870000,6080000,26
3.9,182424352,172368000,10021000,26
1.44,70222628,64177000,6016000,26
3.18,147409308,141333000,6014000,26
3.01,139330308,131275000,8016000,26
1.38,70764708,67705000,3031000,26
1.84,87821130,68900000,18972000,26
2.06,102250771,97979000,3999000,27
4.85,229103128,222984000,5999000,27
1.88,94496367,87443000,7035000,27
2.07,104113905,97091000,7006000,27
1.03,57724690,53653000,4049000,27
1.96,96793942,91744000,5040000,27
1.92,94808661,87791000,7063000,27
1.92,95084280,89024000,6069000,27
1.93,95765312,87751000,7977000,27
1.96,97471767,88458000,9046000,27
1.98,99250296,92296000,6947000,27
1.94,96202559,89226000,7017000,27
1.94,94852656,89774000,4987000,27
1.8,87977618,79947000,7994000,27
2.15,102845943,98807000,4032000,27
5.09,232163722,225993000,5999000,27
6.99,327601804,314499000,12979000,27
1.96,97524323,93511000,4022000,27
1.93,97003742,90011000,7000000,27
1.96,96309193,86209000,10024000,27
2.07,102714242,95736000,6980000,27
1.94,98653058,94645000,3985000,27
5.06,236929293,229928000,6997000,27
1.97,97573410,93585000,4025000,27
2.08,101954775,98957000,2998000,27
2.12,103774874,96721000,7052000,27
1.97,96244215,88211000,8019000,27
1.96,95137129,91088000,4003000,27
5.42,247494862,235453000,11972000,27
1.97,97150569,89032000,8002000,27
6.36,288083471,274991000,12952000,27
1.98,95292190,85124000,10014000,27
3.1,149992233,144972000,4999000,27
2.82,132806545,101861000,30958000,27
1.99,96691113,90676000,5978000,27
1.94,99781249,91732000,7976000,27
2.02,98061685,90134000,7923000,27
3.1,152772546,140744000,12063000,27
1.99,100921001,92816000,7984000,27
1.81,92811840,86753000,5983000,27
1.92,98576601,91586000,6968000,27
2.08,101323848,92410000,8942000,27
1.97,93908228,87790000,5985000,27
5.28,242252149,238211000,4003000,27
1.99,99071148,91051000,8004000,27
5.21,233379131,227292000,6007000,27
1.83,93113651,86092000,7007000,27
2.03,99370200,90281000,9028000,27
1.94,95545845,87516000,8047000,27
1.91,85565388,81367000,4018000,27
5.25,236869025,223887000,12993000,27
1.95,94565135,84607000,9953000,27
2.06,97628422,92557000,5030000,27
5.12,231397547,224387000,6980000,27
2.07,98815537,93691000,4983000,27
5.06,236413689,230358000,6009000,27
2.17,102134196,95120000,7008000,27
1.8,93303483,87218000,5946000,27
6.65,312271418,303250000,9007000,27
2.01,95886512,89826000,6055000,27
5.21,236743830,230710000,6018000,27
1.8,87658433,83594000,4028000,27
1.8,89679212,86665000,2988000,27
5.03,227648581,221618000,5989000,27
5.23,236812410,230766000,6019000,27
2.13,103961386,95935000,7994000,27
2.2,106646532,100590000,6035000,27
5.03,236116193,231104000,5002000,27
2.01,97165218,88215000,8920000,27
2.16,105764555,97739000,7978000,27
4.96,227458384,221417000,6011000,27
1.82,92176580,88170000,4007000,27
4.95,225817833,218875000,6964000,27
2.03,95554857,91520000,4022000,27
1.93,99951225,92991000,6924000,27
1.95,94967134,89943000,4996000,27
2.04,98127051,93118000,5006000,27
5.18,236050552,231014000,5022000,27
1.96,96603258,88614000,7965000,27
5.48,251197859,245985000,4999000,27
3.57,173820055,140618000,32910000,28
3.52,158392989,157384000,1002000,28
6.33,281868460,242724000,39116000,28
3.59,161824205,159830000,1997000,28
5.28,242154040,208152000,34024000,28
3.41,151616786,151618000,0,28
3.55,157961509,155972000,1999000,28
3.42,155689155,151649000,3964000,28
16.18,781545756,777389000,3996000,28
6.57,302749446,300635000,2004000,28
2.39,108979187,105925000,2997000,28
3.38,163318032,136277000,27055000,28
5.74,262350610,231295000,31039000,28
3.62,153035303,151032000,2000000,28
3.4,152648269,149628000,2992000,28
3.68,164597788,159601000,4987000,28
4.33,198484363,174514000,23933000,28
3.5,153908672,151908000,1998000,28
4.42,207225307,181182000,26026000,28
2.89,140774321,137787000,2995000,28
3.69,160541936,158552000,1994000,28
5.37,236988970,208846000,28113000,28
2.58,117790935,114765000,2993000,28
3.54,155364213,152319000,3006000,28
4.52,206743761,175806000,30965000,28
4.91,212449865,190312000,22036000,28
4.59,213958090,185823000,27973000,28
5.4,241145770,212144000,29019000,28
4.89,219164444,188116000,31019000,28
4.24,202368707,177237000,25033000,28
5.81,263874500,239750000,23975000,28
4.33,197692242,171718000,25957000,28
11.01,542940763,540934000,1999000,28
5.36,251184252,226163000,25018000,28
3.48,162990377,129988000,32997000,28
4.16,196041092,161033000,35007000,28
4.52,204915737,179815000,24974000,28
4.73,223580684,192350000,31056000,28
7.68,333444417,309179000,24013000,28
4.96,227674424,200627000,26950000,28
7.37,316942609,287841000,28984000,28
2.59,115985019,114001000,2000000,28
3.6,158570382,155576000,2991000,28
3.71,162314398,161357000,1002000,28
7.65,357042075,331918000,25069000,28
3.62,160567273,157590000,2992000,28
3.48,151984555,150842000,1005000,28
4.08,190763524,165671000,25101000,28
4.39,200118652,170029000,30005000,28
3.39,151056305,148050000,3001000,28
4.97,227961224,200089000,27873000,28
6.44,286373903,262320000,24029000,28
3.46,154025828,150062000,3975000,28
1.63,77604156,74627000,3025000,28
4.72,225608684,201605000,23953000,28
3.51,154179505,151175000,3003000,28
2.87,132260968,130201000,2003000,28
4.35,180954305,177844000,2997000,28
3.48,152817171,151807000,998000,28
2.88,138709731,137706000,997000,28
3.52,155203191,152091000,3001000,28
2.99,142280457,138095000,3973000,28
4.79,213929261,185813000,27971000,28
5.28,236318318,205339000,30900000,28
3.6,159174486,157134000,2001000,28
3.68,160907820,156963000,3973000,28
5.64,263347322,239290000,24029000,28
4.54,205407482,175483000,29912000,28
4.81,222342768,193453000,28918000,28
3.05,151809629,148805000,2996000,28
2.94,145960346,141957000,3998000,28
4.28,196644734,174692000,21961000,28
4.6,208441669,185288000,23035000,28
10.92,460522263,434397000,25963000,28
3.47,153341627,150351000,2987000,28
2.79,127404476,123438000,4014000,28
5.36,234364212,208317000,26039000,28
3.46,152752838,150752000,1996000,28
2.89,131367005,130346000,1002000,28
3.97,177740533,153782000,23966000,28
0.61,36357536,31259000,4884000,29
1.41,69062621,61055000,8007000,29
1.09,61051011,54108000,6886000,29
1.13,58938755,51954000,6993000,29
1.46,69409040,63430000,5946000,29
0.91,47404265,38230000,9054000,29
0.61,33193329,27153000,6034000,29
0.6,35419105,27533000,7866000,29
0.66,35879307,28692000,7173000,29
1.11,55475834,51459000,4036000,29
0.85,48881819,40908000,7982000,29
1.62,78786168,58823000,19940000,29
1.12,57573386,53415000,4031000,29
0.93,48759776,36570000,12190000,29
0.62,36767716,29601000,7145000,29
0.59,33681069,25742000,7920000,29
1.12,57049049,49032000,8005000,29
0.9,46461364,37347000,9084000,29
0.63,33560173,25684000,7903000,29
0.58,34999321,29988000,4998000,29
0.93,45605574,36650000,8914000,29
1.14,58749618,54712000,3979000,29
0.69,30037399,25983000,3997000,29
0.66,34594490,29649000,4941000,29
0.58,33359750,29418000,3922000,29
1.06,55224174,48174000,7025000,29
0.73,40938148,35135000,5855000,29
0.76,41859770,38818000,3064000,29
0.92,48288556,39201000,9046000,29
0.95,47355261,39263000,8054000,29
0.61,36245490,30354000,5875000,29
0.84,47983409,41964000,5994000,29
1.7,82322900,65249000,17065000,29
1.05,57446651,51489000,5941000,29
0.6,34388984,28312000,6066000,29
1.13,56543768,53420000,3023000,29
0.62,34713710,26760000,7929000,29
1.35,68404989,53509000,14863000,29
0.93,47670085,39549000,8112000,29
1.41,69341869,60451000,8919000,29
0.93,46549792,41443000,5054000,29
0.64,37887526,31900000,5981000,29
1.17,58603680,50632000,7942000,29
1.1,57626849,53582000,4043000,29
0.62,33828486,32810000,994000,29
1.49,72663253,62669000,9947000,29
4.91,235855399,180878000,54963000,29
0.62,31025760,26957000,3993000,29
0.65,32220609,28159000,4022000,29
1.1,53331627,51224000,2008000,29
2.05,100026371,91942000,7994000,29
0.65,29463641,25429000,3912000,29
3.66,170948404,117866000,52939000,29
0.96,47815424,41725000,5960000,29
0.92,47402305,40474000,6910000,29
0.65,35964522,27952000,7986000,29
0.6,33323538,30417000,2943000,29
1.16,57700271,50709000,6960000,29
0.91,47467191,40530000,6919000,29
0.65,28707368,27570000,1021000,29
1.12,55790348,50732000,5073000,29
3.45,162921319,100934000,61959000,29
0.66,37032525,28009000,9002000,29
0.89,45478597,37384000,8083000,29
0.91,49429529,32263000,17139000,29
0.65,33187895,29110000,4015000,29
1.1,56239037,53201000,3011000,29
1.45,70298845,59267000,11049000,29
0.63,34513445,28412000,6088000,29
1.08,55809658,48970000,6855000,29
1.13,54974258,51950000,2997000,29
0.6,33923505,26925000,6980000,29
1.43,69091744,64126000,4932000,29
0.62,34625913,28378000,6081000,29
0.89,44201094,36110000,8024000,29
1.09,57663327,51694000,5964000,29
0.58,34437493,31363000,3035000,29
0.62,34566384,29621000,4936000,29
1.1,54006005,49886000,3990000,29
0.88,46557819,34690000,11893000,29
3.81,185935906,174549000,10909000,30
4.06,193728740,172617000,21075000,30
9.68,428815034,413695000,14988000,30
10.33,463566758,432488000,31035000,30
10.21,467910604,426973000,40901000,30
4.37,205892725,197948000,7997000,30
3.25,148422478,142352000,6014000,30
3.21,153861431,147906000,5996000,30
8.3,381409686,345393000,35936000,30
4.01,190017320,179997000,9999000,30
3.23,156095385,145986000,9999000,30
3.6,172132752,165101000,7004000,30
6.08,280236905,265154000,15008000,30
3.71,174966351,166941000,7997000,30
5.38,246796313,235700000,10939000,30
3.1,146170039,139130000,7006000,30
3.54,168018707,155973000,11997000,30
3.03,147421309,141367000,5973000,30
4.37,205306576,178173000,27026000,30
4.74,220626938,213560000,7018000,30
2.84,135473913,128335000,7018000,30
10.98,496900620,460875000,35990000,30
3.94,186651437,174586000,12040000,30
4.35,203858511,196710000,6989000,30
5.2,239833795,230793000,8991000,30
2.95,136916467,132874000,4026000,30
4.68,218063839,177036000,41008000,30
9.02,414234641,379208000,35019000,30
4.09,190668369,181693000,8984000,30
5.68,266144846,226072000,40012000,30
5.91,266283840,252223000,14012000,30
5.65,262729612,232711000,29962000,30
2.46,119692594,110680000,8974000,30
3.25,153556674,146499000,7023000,30
7.57,339153499,307018000,32001000,30
4.44,209383768,176460000,32899000,30
3.06,146266148,138253000,8014000,30
3.45,159045446,151864000,7040000,30
2.88,139022606,130927000,7995000,30
3.01,141149957,133118000,8007000,30
6.58,307344008,291336000,15963000,30
3.96,182689215,172678000,9981000,30
3.19,153011726,145008000,8000000,30
10.89,499046895,461065000,38005000,30
3.19,156218399,150127000,6005000,30
6.59,298092784,268050000,29894000,30
8.06,371611503,358572000,13020000,30
4.22,192623335,183648000,8982000,30
5.54,245247809,238236000,7006000,30
2.85,135573848,128655000,6981000,30
4.74,222696041,210712000,11983000,30
3.63,172885800,144883000,27977000,30
5.77,262540418,230531000,31935000,30
10.08,456858626,428873000,27991000,30
8.08,373860043,347767000,26057000,30
10.27,465579108,429562000,35963000,30
4.96,221034571,213994000,7032000,30
6.4,294995716,264874000,29985000,30
5.57,250933007,238867000,11993000,30
17.23,758317289,745250000,13004000,30
3.23,148837218,141396000,7019000,30
5.4,241002082,231962000,8998000,30
8.5,383144153,355102000,28008000,30
1.15,56229515,53165000,3009000,30
10.04,447627960,413594000,33966000,30
8.57,391503145,350426000,41050000,30
3.81,176429891,142516000,33885000,30
3.49,163655534,149537000,14050000,30
4.11,195304911,153140000,42038000,30
3.6,160675172,158485000,2006000,30
3.54,166505933,147468000,18931000,30
4.02,185752914,173612000,11973000,30
8.28,376529852,345476000,31042000,30
3.25,153115825,145088000,8004000,30
4.21,190481358,177432000,13031000,30
3.82,177424502,169357000,8016000,30
4.76,221709265,210695000,10984000,30
8.68,394488059,368430000,26030000,30
8.3,373446227,349458000,23962000,30
4.49,204854783,176854000,27977000,30
5.43,266904271,263692000,2996000,31
3.5,170978427,170008000,1000000,31
3.97,179648027,178645000,998000,31
3.29,159550945,158569000,997000,31
2.39,113303519,106293000,6953000,31
1.56,81424473,79489000,1987000,31
3.37,162807123,160865000,1998000,31
7.2,321207778,270152000,51028000,31
3.37,163940036,162923000,999000,31
3.53,166311600,164320000,2003000,31
3.43,160158695,158132000,2001000,31
3.52,164091666,163094000,1000000,31
3.47,163132688,160057000,2982000,31
1.92,87939088,79886000,7988000,31
3.47,158508551,156550000,1994000,31
2.99,149277866,892000,6179000,31
0.47,30445728,30448000,0,31
3.29,155846402,154915000,999000,31
2.89,148371920,148380000,0,31
10.67,477557395,418573000,58939000,31
10.64,475854471,423825000,51978000,31
3.03,147378231,146301000,1002000,31
3.41,165904360,163927000,2011000,31
3.43,166396398,164222000,1990000,31
0.57,35311257,33297000,2018000,31
2.51,121048222,119074000,2001000,31
3.39,159988000,159036000,1000000,31
5.73,268636161,266666000,1997000,31
3.48,165990789,164024000,1988000,31
3.36,161797621,160685000,998000,31
1.51,83828792,81799000,1995000,31
3.47,157859823,155748000,1996000,31
1.81,94376696,92420000,1987000,31
0.39,22803072,21876000,994000,31
3.65,166657170,165659000,1003000,31
3.28,153678393,152686000,997000,31
3.61,169297985,161245000,7962000,31
3.74,172629397,171558000,997000,31
3.6,169156302,168052000,1000000,31
3.5,159669681,158657000,1004000,31
3.47,162578578,160409000,2005000,31
2.37,104603553,104616000,0,31
3.71,168809438,168806000,0,31
3.32,155978674,155025000,1000000,31
3.7,171689071,170763000,1004000,31
7.53,362089464,362110000,0,31
6.88,311255558,309033000,2000000,31
3.72,173666789,172668000,998000,31
3.41,160679038,158732000,1996000,31
3.57,169480751,168527000,997000,31
3.4,162808645,160808000,1997000,31
3.49,161607706,160550000,997000,31
3.73,178089462,176142000,2001000,31
3.7,175113697,173009000,2000000,31
3.37,163110587,162124000,1000000,31
3.41,157879569,155836000,1985000,31
3.45,162421694,161448000,996000,31
2.06,99512015,97528000,2010000,31
1.97,97724292,95691000,1993000,31
12.06,570056495,568061000,2000000,31
1.47,73395518,71416000,1983000,31
3.75,175301957,174329000,1001000,31
3.43,162744591,160796000,2009000,31
3.46,163104424,163122000,0,31
0.27,14958820,14958000,0,31
3.28,153112651,152126000,1000000,31
0.75,39689371,39708000,0,31
8.04,372904887,372939000,0,31
3.47,161743301,159694000,2008000,31
3.12,154630306,150679000,3991000,31
3.75,172211529,171224000,1001000,31
3.25,155571744,154577000,997000,31
3.84,173670100,171691000,1996000,31
0.98,50056974,49034000,1021000,31
3.57,165527426,164529000,997000,31
0.7,37192471,26123000,11052000,31
3.69,170633140,168652000,1995000,31
3.65,166711896,162680000,3967000,31
3.54,171505489,171389000,0,31
3.81,172206536,170104000,1989000,31
