@relation problema
@attribute 'pkg' real
@attribute 'cores' real
@attribute 'ram' real
@attribute 'gpu' real
@attribute 'psys' real
@attribute 'duration_time' real
@attribute 'user_time' real
@attribute 'system_time' real
@attribute 'class' {0,1,2,3,4,5,6,7,8,9,10,11,12,13,14,15,16,17,18,19,20,21,22,23,24,25,26,27,28,29,30,31}
@data
2.96,2.37,0.00,0.05,0.00,149592031,115514000,33857000,0
2.91,2.32,0.00,0.05,0.00,148742491,124573000,24110000,0
3.13,2.56,0.00,0.05,0.00,142212320,110320000,31804000,0
3.21,2.62,0.00,0.05,0.00,149168885,118134000,31035000,0
3.09,2.50,0.00,0.05,0.00,148188909,115413000,32833000,0
3.13,2.52,0.00,0.05,0.00,153680159,119711000,33918000,0
0.62,0.48,0.00,0.01,0.00,36036302,35081000,1002000,0
1.78,1.42,0.00,0.03,0.00,89456757,62322000,27140000,0
3.18,2.58,0.00,0.05,0.00,151501025,126411000,25081000,0
0.59,0.46,0.00,0.01,0.00,34581844,32529000,2033000,0
0.65,0.51,0.00,0.01,0.00,35555387,33539000,2032000,0
0.71,0.59,0.00,0.01,0.00,30837836,28660000,2047000,0
0.59,0.44,0.00,0.01,0.00,38088853,37050000,1001000,0
3.08,2.48,0.00,0.05,0.00,150272408,126227000,24043000,0
0.74,0.59,0.00,0.01,0.00,38388745,36295000,2016000,0
3.19,2.57,0.00,0.05,0.00,153664160,121432000,32114000,0
3.11,2.51,0.00,0.05,0.00,150431940,126532000,23911000,0
3.11,2.50,0.00,0.05,0.00,150605676,126676000,23938000,0
3.24,2.61,0.00,0.05,0.00,156056063,129235000,26841000,0
3.18,2.56,0.00,0.05,0.00,154012863,134184000,19879000,0
3.16,2.56,0.00,0.05,0.00,151098409,113081000,38027000,0
3.15,2.55,0.00,0.05,0.00,150779984,117809000,32946000,0
3.24,2.63,0.00,0.05,0.00,150991506,123969000,26993000,0
1.93,1.53,0.00,0.03,0.00,98674230,60825000,37891000,0
3.12,2.51,0.00,0.05,0.00,151323510,114491000,36836000,0
3.10,2.50,0.00,0.05,0.00,149614359,127739000,21955000,0
1.91,1.53,0.00,0.03,0.00,94420097,54270000,40200000,0
3.17,2.57,0.00,0.05,0.00,150413817,118593000,31890000,0
3.20,2.60,0.00,0.05,0.00,150295756,123321000,26852000,0
3.21,2.60,0.00,0.05,0.00,149955246,124960000,24992000,0
3.07,2.48,0.00,0.05,0.00,147072822,118250000,28817000,0
0.64,0.49,0.00,0.01,0.00,36246515,36256000,0,0
3.21,2.61,0.00,0.05,0.00,149200331,125225000,23852000,0
0.65,0.51,0.00,0.01,0.00,35289574,32386000,2944000,0
3.20,2.58,0.00,0.05,0.00,154690298,118705000,35910000,0
3.08,2.47,0.00,0.05,0.00,152118883,119049000,33013000,0
0.63,0.49,0.00,0.01,0.00,35768941,33797000,1988000,0
3.22,2.61,0.00,0.05,0.00,150967797,126987000,23997000,0
3.18,2.57,0.00,0.05,0.00,149867069,126893000,22980000,0
0.64,0.50,0.00,0.01,0.00,34038069,32040000,1941000,0
3.29,2.67,0.00,0.05,0.00,154346540,132756000,20961000,0
3.20,2.59,0.00,0.05,0.00,151110272,124042000,27009000,0
0.67,0.54,0.00,0.01,0.00,33257164,30248000,3024000,0
0.66,0.52,0.00,0.01,0.00,35652519,31741000,3967000,0
3.12,2.52,0.00,0.05,0.00,149632745,130605000,19088000,0
3.12,2.52,0.00,0.05,0.00,146657010,121444000,25091000,0
3.09,2.49,0.00,0.05,0.00,149282912,126260000,23047000,0
3.11,2.50,0.00,0.05,0.00,150037975,117269000,32795000,0
3.18,2.59,0.00,0.05,0.00,146190384,123101000,23018000,0
3.09,2.50,0.00,0.05,0.00,147358420,120289000,27065000,0
0.63,0.49,0.00,0.01,0.00,33510345,30549000,2956000,0
3.15,2.55,0.00,0.05,0.00,149539581,119476000,30120000,0
0.61,0.47,0.00,0.01,0.00,35753248,33858000,1934000,0
2.01,1.62,0.00,0.03,0.00,96497380,94535000,1990000,0
3.24,2.61,0.00,0.05,0.00,151229829,120394000,30844000,0
3.23,2.61,0.00,0.05,0.00,153617960,125511000,28114000,0
1.98,1.60,0.00,0.03,0.00,94937845,92828000,2018000,0
0.62,0.47,0.00,0.01,0.00,37127172,36159000,1004000,0
0.70,0.57,0.00,0.01,0.00,30415710,30359000,0,0
3.17,2.56,0.00,0.05,0.00,150494312,114375000,36118000,0
3.15,2.53,0.00,0.05,0.00,151211792,118176000,33049000,0
3.17,2.56,0.00,0.05,0.00,152619848,129436000,22900000,0
0.75,0.58,0.00,0.01,0.00,40156764,37133000,3010000,0
0.66,0.51,0.00,0.01,0.00,36866837,35845000,1024000,0
3.17,2.56,0.00,0.05,0.00,150822326,120851000,29963000,0
1.77,1.40,0.00,0.03,0.00,91914189,68904000,22968000,0
3.14,2.54,0.00,0.05,0.00,146468010,120566000,25906000,0
3.24,2.62,0.00,0.05,0.00,153598981,129667000,23938000,0
3.26,2.63,0.00,0.05,0.00,155025085,126843000,28187000,0
3.26,2.64,0.00,0.05,0.00,153055090,119050000,34014000,0
3.16,2.55,0.00,0.05,0.00,149327051,123266000,26056000,0
1.82,1.45,0.00,0.03,0.00,91233731,68421000,22807000,0
3.14,2.55,0.00,0.05,0.00,146421201,118392000,27857000,0
3.13,2.53,0.00,0.05,0.00,149486027,120384000,29093000,0
0.63,0.48,0.00,0.01,0.00,35914370,32929000,2993000,0
3.30,2.70,0.00,0.05,0.00,147619970,126493000,21082000,0
3.18,2.58,0.00,0.05,0.00,149542983,117422000,32115000,0
0.62,0.47,0.00,0.01,0.00,35631180,34643000,989000,0
3.17,2.56,0.00,0.05,0.00,151692156,124751000,26946000,0
3.23,2.62,0.00,0.05,0.00,151628738,122643000,28915000,0
6.72,5.49,0.00,0.11,0.00,309837478,307586000,1997000,1
1.21,0.95,0.00,0.02,0.00,64747362,62828000,1994000,1
1.02,0.80,0.00,0.02,0.00,53616879,52647000,993000,1
0.69,0.53,0.00,0.01,0.00,39364902,38380000,1010000,1
2.40,2.03,0.00,0.03,0.00,90549183,89464000,994000,1
3.69,3.00,0.00,0.06,0.00,172006600,171065000,1000000,1
3.45,2.71,0.00,0.06,0.00,183592541,181663000,1996000,1
0.88,0.68,0.00,0.02,0.00,49353669,47180000,2173000,1
9.69,7.67,0.00,0.17,0.00,504052563,503063000,1000000,1
3.52,2.86,0.00,0.06,0.00,164160872,161240000,2985000,1
1.35,1.08,0.00,0.02,0.00,65314510,63317000,2010000,1
3.42,2.70,0.00,0.06,0.00,179490174,178503000,1002000,1
9.76,7.74,0.00,0.17,0.00,502354027,500369000,1997000,1
0.83,0.64,0.00,0.02,0.00,46124812,44187000,2008000,1
0.73,0.56,0.00,0.01,0.00,41328154,39340000,2017000,1
0.55,0.42,0.00,0.01,0.00,31993540,31007000,1000000,1
3.02,2.46,0.00,0.05,0.00,139197686,138203000,1001000,1
7.93,6.32,0.00,0.14,0.00,401438412,400437000,1001000,1
0.84,0.65,0.00,0.02,0.00,46542408,45581000,990000,1
9.76,7.73,0.00,0.17,0.00,503804990,502671000,999000,1
0.45,0.35,0.00,0.01,0.00,25202076,25131000,0,1
1.34,1.07,0.00,0.02,0.00,65965648,63979000,1999000,1
2.79,2.24,0.00,0.05,0.00,134972557,133993000,999000,1
10.05,8.03,0.00,0.17,0.00,503239872,502239000,1000000,1
0.81,0.63,0.00,0.02,0.00,43344328,41338000,2016000,1
0.55,0.42,0.00,0.01,0.00,31690542,29775000,1985000,1
1.18,0.93,0.00,0.02,0.00,61703933,61735000,0,1
5.19,4.09,0.00,0.09,0.00,273608171,272643000,1002000,1
1.65,1.33,0.00,0.03,0.00,79900562,78954000,999000,1
1.19,0.93,0.00,0.02,0.00,66045499,64933000,998000,1
8.45,6.94,0.00,0.13,0.00,376548942,372426000,4004000,1
10.91,8.66,0.00,0.19,0.00,561177219,560204000,1000000,1
1.26,0.99,0.00,0.02,0.00,65758228,64782000,996000,1
1.23,0.98,0.00,0.02,0.00,64580945,64605000,0,1
1.37,1.09,0.00,0.02,0.00,69471526,68358000,1005000,1
5.94,4.75,0.00,0.10,0.00,293894089,292658000,998000,1
0.91,0.75,0.00,0.01,0.00,40591259,39550000,988000,1
0.46,0.33,0.00,0.01,0.00,31194838,30113000,1003000,1
1.56,1.23,0.00,0.03,0.00,82112872,80144000,2003000,1
0.82,0.63,0.00,0.02,0.00,48729365,47756000,994000,1
7.75,6.24,0.00,0.13,0.00,374746285,373778000,1002000,1
0.81,0.64,0.00,0.01,0.00,43130727,42129000,1003000,1
5.96,4.74,0.00,0.10,0.00,301899335,300848000,1002000,1
0.66,0.50,0.00,0.01,0.00,39078506,37084000,2004000,1
0.42,0.32,0.00,0.01,0.00,23643309,22457000,976000,1
0.63,0.51,0.00,0.01,0.00,28084786,27029000,1001000,1
2.70,2.20,0.00,0.04,0.00,124887643,122799000,1996000,1
7.74,6.19,0.00,0.13,0.00,382948629,382968000,0,1
0.50,0.37,0.00,0.01,0.00,30637316,28727000,1981000,1
1.25,0.99,0.00,0.02,0.00,64625293,63618000,1009000,1
0.44,0.34,0.00,0.01,0.00,25157019,24169000,1007000,1
0.44,0.33,0.00,0.01,0.00,25273349,24295000,1012000,1
0.75,0.59,0.00,0.01,0.00,40282168,40290000,0,1
0.74,0.58,0.00,0.01,0.00,40753831,39781000,1020000,1
1.57,1.24,0.00,0.03,0.00,78921907,77831000,997000,1
0.68,0.51,0.00,0.01,0.00,40102127,39107000,1002000,1
1.36,1.08,0.00,0.02,0.00,69959938,68956000,1014000,1
0.63,0.49,0.00,0.01,0.00,36288714,34298000,2017000,1
1.40,1.11,0.00,0.02,0.00,69419403,67452000,1983000,1
4.54,3.68,0.00,0.07,0.00,211823331,206820000,5019000,1
0.41,0.30,0.00,0.01,0.00,26090652,25137000,966000,1
1.36,1.07,0.00,0.02,0.00,69792460,68853000,997000,1
2.50,1.95,0.00,0.05,0.00,135647678,133660000,1994000,1
6.65,5.32,0.00,0.11,0.00,329362725,328365000,998000,1
1.40,1.12,0.00,0.02,0.00,69803768,67885000,1967000,1
2.50,2.00,0.00,0.04,0.00,125874279,124907000,1007000,1
0.70,0.54,0.00,0.01,0.00,39043360,38035000,1027000,1
10.21,8.15,0.00,0.17,0.00,509768418,507784000,1999000,1
1.25,1.00,0.00,0.02,0.00,60928412,59941000,999000,1
2.84,2.29,0.00,0.05,0.00,136624316,135569000,1004000,1
1.86,1.50,0.00,0.03,0.00,87701692,87693000,0,1
10.53,8.52,0.00,0.17,0.00,497377894,495281000,2001000,1
1.27,1.01,0.00,0.02,0.00,64467736,64483000,0,1
0.47,0.34,0.00,0.01,0.00,30847833,29824000,1028000,1
1.23,0.98,0.00,0.02,0.00,63725255,63730000,0,1
1.17,0.91,0.00,0.02,0.00,64321316,64314000,0,1
0.75,0.56,0.00,0.02,0.00,45093268,33986000,10995000,1
4.78,3.91,0.00,0.07,0.00,215629145,215443000,0,1
1.26,1.01,0.00,0.02,0.00,62334358,60308000,2010000,1
0.66,0.51,0.00,0.01,0.00,36071819,34162000,1952000,1
1.87,1.53,0.00,0.03,0.00,83639783,81269000,2006000,2
1.88,1.52,0.00,0.03,0.00,91372282,90357000,1003000,2
2.25,1.80,0.00,0.04,0.00,112535116,108537000,4019000,2
0.75,0.58,0.00,0.01,0.00,42731760,41787000,994000,2
0.99,0.77,0.00,0.02,0.00,53182854,49188000,4015000,2
1.75,1.39,0.00,0.03,0.00,89564928,87596000,1990000,2
1.88,1.52,0.00,0.03,0.00,89214124,85183000,4008000,2
1.76,1.41,0.00,0.03,0.00,88226732,84194000,4009000,2
0.79,0.62,0.00,0.01,0.00,42760333,40774000,1988000,2
0.80,0.62,0.00,0.02,0.00,45025968,43040000,2001000,2
1.62,1.27,0.00,0.03,0.00,84874434,80890000,3994000,2
1.76,1.42,0.00,0.03,0.00,85930364,84997000,988000,2
1.82,1.46,0.00,0.03,0.00,88249097,81296000,6939000,2
1.75,1.40,0.00,0.03,0.00,86149572,84170000,2004000,2
0.76,0.58,0.00,0.02,0.00,44083128,41086000,3006000,2
0.82,0.64,0.00,0.02,0.00,43850707,41854000,1993000,2
0.76,0.60,0.00,0.01,0.00,41426680,37448000,3941000,2
0.74,0.58,0.00,0.01,0.00,41122754,38156000,3012000,2
0.76,0.58,0.00,0.01,0.00,43410695,41420000,1972000,2
1.91,1.54,0.00,0.03,0.00,92434022,89338000,3011000,2
1.78,1.41,0.00,0.03,0.00,91674679,87601000,3981000,2
1.73,1.38,0.00,0.03,0.00,87464126,83542000,3978000,2
0.83,0.65,0.00,0.02,0.00,46206496,44212000,2009000,2
1.75,1.41,0.00,0.03,0.00,86533140,84553000,1989000,2
1.74,1.39,0.00,0.03,0.00,86892835,84911000,1997000,2
1.87,1.50,0.00,0.03,0.00,91184963,89207000,1982000,2
1.80,1.45,0.00,0.03,0.00,86361072,85349000,1004000,2
0.77,0.61,0.00,0.01,0.00,41475373,39337000,1966000,2
3.72,3.01,0.00,0.06,0.00,175547346,170536000,4986000,2
1.76,1.40,0.00,0.03,0.00,89124484,84151000,5008000,2
2.17,1.73,0.00,0.04,0.00,109698040,102680000,6978000,2
1.74,1.38,0.00,0.03,0.00,90132726,86974000,2965000,2
0.75,0.57,0.00,0.02,0.00,45499755,41555000,3957000,2
1.79,1.44,0.00,0.03,0.00,87814388,84816000,2993000,2
1.91,1.52,0.00,0.03,0.00,94889622,91908000,2997000,2
1.87,1.53,0.00,0.03,0.00,84502742,80380000,4019000,2
0.90,0.71,0.00,0.02,0.00,48036539,45041000,3002000,2
0.77,0.60,0.00,0.01,0.00,43093658,37120000,6019000,2
0.77,0.58,0.00,0.02,0.00,44856988,40026000,4881000,2
1.78,1.42,0.00,0.03,0.00,87501710,84477000,3017000,2
1.85,1.48,0.00,0.03,0.00,91385462,85335000,6023000,2
0.75,0.59,0.00,0.01,0.00,40397615,37285000,3023000,2
0.73,0.55,0.00,0.02,0.00,44896972,42827000,1991000,2
0.81,0.63,0.00,0.02,0.00,45216190,42278000,2949000,2
3.42,2.75,0.00,0.06,0.00,165986620,159980000,5999000,2
1.75,1.40,0.00,0.03,0.00,86532615,81599000,4975000,2
0.74,0.56,0.00,0.02,0.00,43637866,42641000,991000,2
0.74,0.56,0.00,0.01,0.00,42543315,39520000,3040000,2
0.89,0.69,0.00,0.02,0.00,48864393,46899000,1995000,2
1.74,1.38,0.00,0.03,0.00,88758217,87765000,997000,2
1.85,1.51,0.00,0.03,0.00,86511853,83460000,3016000,2
1.82,1.47,0.00,0.03,0.00,88695509,85710000,2989000,2
0.74,0.57,0.00,0.01,0.00,41593009,40589000,1014000,2
0.75,0.58,0.00,0.01,0.00,42076166,40077000,2003000,2
3.32,2.66,0.00,0.05,0.00,160925951,154876000,6034000,2
1.80,1.44,0.00,0.03,0.00,87869843,86860000,998000,2
1.80,1.44,0.00,0.03,0.00,88518236,86589000,1990000,2
1.77,1.41,0.00,0.03,0.00,88108205,86117000,2002000,2
0.98,0.76,0.00,0.02,0.00,53917283,51909000,1996000,2
0.78,0.61,0.00,0.01,0.00,41564758,40592000,990000,2
1.79,1.44,0.00,0.03,0.00,87118389,84204000,2971000,2
0.99,0.78,0.00,0.02,0.00,52879194,51876000,997000,2
1.80,1.44,0.00,0.03,0.00,88566466,85502000,3017000,2
0.77,0.60,0.00,0.01,0.00,42083209,39156000,2936000,2
0.77,0.59,0.00,0.01,0.00,42945981,40943000,1997000,2
1.91,1.54,0.00,0.03,0.00,90720215,85715000,4983000,2
0.78,0.61,0.00,0.01,0.00,41216182,39261000,1963000,2
1.76,1.41,0.00,0.03,0.00,87543162,86535000,1006000,2
1.75,1.41,0.00,0.03,0.00,85711654,82613000,3022000,2
2.14,1.70,0.00,0.04,0.00,108349509,104268000,4010000,2
0.91,0.72,0.00,0.02,0.00,48016379,41992000,5998000,2
2.28,1.81,0.00,0.04,0.00,114417415,108342000,6019000,2
1.76,1.41,0.00,0.03,0.00,85992041,82989000,2999000,2
1.83,1.46,0.00,0.03,0.00,90048451,88963000,1010000,2
2.04,1.61,0.00,0.04,0.00,104181988,101149000,3004000,2
1.78,1.43,0.00,0.03,0.00,87392311,84404000,2978000,2
1.83,1.47,0.00,0.03,0.00,91194613,88180000,3006000,2
0.78,0.60,0.00,0.01,0.00,42490577,40529000,1977000,2
1.26,0.99,0.00,0.02,0.00,66653223,64647000,1989000,2
1.14,0.92,0.00,0.02,0.00,51203528,48135000,3008000,2
2.37,1.87,0.00,0.04,0.00,124640354,114482000,9955000,3
2.60,2.07,0.00,0.04,0.00,129811374,122768000,7044000,3
2.18,1.72,0.00,0.04,0.00,112590817,104620000,7971000,3
5.02,4.02,0.00,0.08,0.00,247557249,190332000,57099000,3
4.35,3.53,0.00,0.07,0.00,203246180,197117000,6003000,3
6.46,5.21,0.00,0.10,0.00,308195852,254174000,53825000,3
5.21,4.16,0.00,0.09,0.00,258014207,203984000,53995000,3
6.71,5.42,0.00,0.11,0.00,320954106,275806000,45131000,3
6.50,5.24,0.00,0.11,0.00,311600415,262655000,48935000,3
2.43,1.93,0.00,0.04,0.00,121588303,114639000,6978000,3
2.45,1.96,0.00,0.04,0.00,118688832,111550000,7034000,3
6.87,5.55,0.00,0.11,0.00,326916281,272871000,53974000,3
2.77,2.20,0.00,0.05,0.00,139614016,130664000,8976000,3
4.67,3.74,0.00,0.08,0.00,228716209,164487000,64190000,3
6.51,5.25,0.00,0.11,0.00,311353201,264247000,47043000,3
4.82,3.88,0.00,0.08,0.00,231166748,174355000,56790000,3
4.47,3.57,0.00,0.08,0.00,222294008,169217000,53068000,3
2.81,2.23,0.00,0.05,0.00,137469256,126489000,10955000,3
2.22,1.74,0.00,0.04,0.00,114572927,108658000,5981000,3
2.43,1.93,0.00,0.04,0.00,122231247,114283000,7950000,3
2.44,1.94,0.00,0.04,0.00,123338853,119339000,4011000,3
4.52,3.61,0.00,0.08,0.00,225256024,166435000,58800000,3
6.76,5.45,0.00,0.11,0.00,322261040,275209000,47035000,3
6.64,5.36,0.00,0.11,0.00,314369514,253253000,61061000,3
6.60,5.30,0.00,0.11,0.00,316714011,255741000,60938000,3
8.01,6.43,0.00,0.13,0.00,386998416,326855000,59973000,3
2.33,1.86,0.00,0.04,0.00,116136899,110064000,6003000,3
4.05,3.24,0.00,0.07,0.00,198042751,191015000,7037000,3
6.76,5.48,0.00,0.11,0.00,314473723,258472000,55885000,3
4.08,3.29,0.00,0.07,0.00,192875714,188855000,4018000,3
2.44,1.94,0.00,0.04,0.00,121265301,112149000,8932000,3
2.49,1.99,0.00,0.04,0.00,122759496,114648000,7975000,3
4.34,3.49,0.00,0.07,0.00,208114353,202018000,6000000,3
2.42,1.92,0.00,0.04,0.00,122726401,116720000,5985000,3
6.79,5.48,0.00,0.11,0.00,324164481,278136000,46022000,3
2.40,1.89,0.00,0.04,0.00,124235757,114199000,10017000,3
2.89,2.29,0.00,0.05,0.00,144680721,138642000,6027000,3
2.50,1.98,0.00,0.04,0.00,123180688,117186000,6009000,3
7.39,5.95,0.00,0.12,0.00,354404216,307308000,47047000,3
6.95,5.59,0.00,0.11,0.00,334711512,271536000,63124000,3
2.65,2.09,0.00,0.05,0.00,135702259,125776000,9903000,3
6.51,5.23,0.00,0.11,0.00,314247410,246148000,68041000,3
2.40,1.90,0.00,0.04,0.00,121836996,115839000,5991000,3
2.48,1.98,0.00,0.04,0.00,122355744,116368000,5967000,3
6.49,5.23,0.00,0.11,0.00,310889379,254071000,56792000,3
6.83,5.54,0.00,0.11,0.00,316638106,263658000,52931000,3
2.23,1.75,0.00,0.04,0.00,116043542,111953000,3998000,3
2.54,2.03,0.00,0.04,0.00,125347007,115407000,9948000,3
8.93,7.22,0.00,0.14,0.00,422784857,358813000,63966000,3
2.18,1.70,0.00,0.04,0.00,115583662,106609000,8967000,3
4.74,3.78,0.00,0.08,0.00,235306571,178425000,56817000,3
2.43,1.92,0.00,0.04,0.00,124582031,116585000,7971000,3
4.94,3.98,0.00,0.08,0.00,234547670,224577000,9981000,3
2.68,2.14,0.00,0.04,0.00,131235103,126216000,5008000,3
2.41,1.90,0.00,0.04,0.00,124930740,117770000,6986000,3
2.52,2.01,0.00,0.04,0.00,122354280,117303000,5012000,3
6.44,5.20,0.00,0.10,0.00,304440346,268355000,36047000,3
5.01,4.04,0.00,0.08,0.00,237751184,181786000,55934000,3
6.83,5.52,0.00,0.11,0.00,324234973,266343000,57857000,3
5.00,4.03,0.00,0.08,0.00,238070491,192028000,46006000,3
2.50,1.99,0.00,0.04,0.00,123646588,115628000,7974000,3
2.21,1.75,0.00,0.04,0.00,113063089,103062000,10006000,3
2.39,1.90,0.00,0.04,0.00,119173733,111101000,8007000,3
4.73,3.81,0.00,0.08,0.00,225681661,175567000,50162000,3
2.49,1.98,0.00,0.04,0.00,122374845,112300000,10026000,3
3.19,2.54,0.00,0.05,0.00,159616269,150462000,9027000,3
4.79,3.86,0.00,0.08,0.00,230081370,170952000,58983000,3
6.71,5.44,0.00,0.11,0.00,312530704,258593000,53915000,3
2.47,1.96,0.00,0.04,0.00,124481680,116493000,7965000,3
6.82,5.54,0.00,0.11,0.00,313040111,264222000,48856000,3
2.47,1.97,0.00,0.04,0.00,121355551,114351000,6960000,3
4.60,3.69,0.00,0.08,0.00,221181094,153088000,68039000,3
4.29,3.46,0.00,0.07,0.00,203609267,199547000,4011000,3
6.63,5.36,0.00,0.11,0.00,312516784,246578000,65887000,3
2.45,1.95,0.00,0.04,0.00,122111457,111117000,11011000,3
4.89,3.93,0.00,0.08,0.00,234234405,169152000,65058000,3
2.27,1.80,0.00,0.04,0.00,113775952,105836000,7987000,3
6.79,5.49,0.00,0.11,0.00,319928707,276790000,43123000,3
2.51,2.01,0.00,0.04,0.00,122916736,113849000,9067000,3
4.81,3.87,0.00,0.08,0.00,232004020,174979000,56993000,3
4.73,3.64,0.00,0.09,0.00,265935641,91865000,14133000,4
2.74,2.14,0.00,0.05,0.00,142538196,132553000,9966000,4
6.37,5.13,0.00,0.10,0.00,304331793,171876000,14989000,4
4.81,3.82,0.00,0.08,0.00,237105585,103773000,16120000,4
6.26,5.01,0.00,0.10,0.00,305017437,168648000,18069000,4
3.58,2.96,0.00,0.05,0.00,140711782,136637000,3989000,4
4.39,3.47,0.00,0.08,0.00,222360271,96837000,7375000,4
6.92,5.53,0.00,0.11,0.00,336812282,210628000,7231000,4
2.80,2.19,0.00,0.05,0.00,144564904,133633000,10969000,4
6.93,5.54,0.00,0.11,0.00,337504333,209415000,9110000,4
6.27,5.02,0.00,0.10,0.00,304026174,177208000,9010000,4
4.44,3.52,0.00,0.08,0.00,221008098,88835000,12975000,4
2.72,2.13,0.00,0.05,0.00,140477279,128545000,11957000,4
6.38,5.11,0.00,0.11,0.00,309000808,174122000,16103000,4
2.55,2.00,0.00,0.05,0.00,133699689,123652000,9972000,4
4.59,3.63,0.00,0.08,0.00,231817692,99815000,13296000,4
4.40,3.48,0.00,0.08,0.00,221338098,94583000,8049000,4
4.35,3.45,0.00,0.07,0.00,218962177,89802000,9978000,4
4.46,3.52,0.00,0.08,0.00,225085978,98703000,7976000,4
6.25,5.02,0.00,0.10,0.00,304510196,175984000,10316000,4
5.03,3.97,0.00,0.09,0.00,253961409,126421000,9030000,4
7.64,6.09,0.00,0.13,0.00,374014381,245144000,10005000,4
4.55,3.62,0.00,0.08,0.00,223105750,93092000,12756000,4
6.61,5.30,0.00,0.11,0.00,316851404,185090000,13143000,4
4.53,3.60,0.00,0.08,0.00,223399356,98080000,7077000,4
5.14,4.08,0.00,0.09,0.00,255685233,122621000,13956000,4
2.69,2.13,0.00,0.05,0.00,134009501,125919000,8058000,4
5.11,4.11,0.00,0.08,0.00,240928321,223979000,16922000,4
4.35,3.45,0.00,0.07,0.00,218400383,85133000,14021000,4
4.99,3.95,0.00,0.09,0.00,249026219,119484000,11044000,4
4.45,3.55,0.00,0.07,0.00,217087470,91141000,8421000,4
4.73,3.81,0.00,0.08,0.00,222856563,213880000,8953000,4
8.38,6.63,0.00,0.14,0.00,418760244,282227000,17727000,4
4.39,3.48,0.00,0.07,0.00,220009582,93435000,9042000,4
4.30,3.41,0.00,0.07,0.00,215946920,86721000,10964000,4
6.51,5.24,0.00,0.11,0.00,308541624,178544000,11033000,4
4.68,3.73,0.00,0.08,0.00,231429848,97623000,15904000,4
4.42,3.53,0.00,0.07,0.00,216592427,206508000,9976000,4
4.37,3.47,0.00,0.07,0.00,216644117,88932000,9095000,4
2.42,1.91,0.00,0.04,0.00,122405471,116368000,6019000,4
6.36,5.11,0.00,0.10,0.00,302393947,170884000,12991000,4
6.92,5.48,0.00,0.12,0.00,340244979,205474000,16037000,4
4.59,3.65,0.00,0.08,0.00,225297867,92440000,14909000,4
4.63,3.69,0.00,0.08,0.00,224287108,88999000,15999000,4
6.34,5.08,0.00,0.10,0.00,305626490,177032000,12070000,4
4.39,3.52,0.00,0.07,0.00,211335731,202301000,9013000,4
3.18,2.50,0.00,0.05,0.00,160941042,149762000,10982000,4
4.65,3.70,0.00,0.08,0.00,227867830,100752000,8311000,4
4.43,3.51,0.00,0.07,0.00,219582008,85702000,15123000,4
4.46,3.58,0.00,0.07,0.00,211801011,203780000,7991000,4
5.21,4.13,0.00,0.09,0.00,256923773,122488000,14428000,4
4.28,3.39,0.00,0.07,0.00,213027451,82273000,12039000,4
5.12,4.06,0.00,0.09,0.00,250953974,112053000,19832000,4
6.21,4.99,0.00,0.10,0.00,295649239,164201000,12014000,4
6.46,5.19,0.00,0.10,0.00,306623445,169870000,18985000,4
2.88,2.28,0.00,0.05,0.00,142444282,132346000,9950000,4
4.60,3.67,0.00,0.08,0.00,221879166,97018000,6318000,4
5.32,4.20,0.00,0.09,0.00,268131557,140153000,9853000,4
5.42,4.29,0.00,0.09,0.00,270408499,138196000,12418000,4
6.35,5.10,0.00,0.10,0.00,303323274,175328000,9246000,4
4.58,3.65,0.00,0.08,0.00,223386829,90669000,14878000,4
4.13,3.29,0.00,0.07,0.00,201358765,73687000,9957000,4
7.75,6.21,0.00,0.13,0.00,372711231,239176000,14069000,4
2.88,2.27,0.00,0.05,0.00,142354848,131220000,11018000,4
4.48,3.58,0.00,0.07,0.00,218730362,93503000,7037000,4
6.33,5.09,0.00,0.10,0.00,300096268,169707000,12050000,4
5.24,4.16,0.00,0.09,0.00,257215998,126639000,12283000,4
3.06,2.38,0.00,0.05,0.00,160231788,150090000,10006000,4
4.49,3.57,0.00,0.08,0.00,222389598,91287000,12037000,4
4.45,3.54,0.00,0.07,0.00,218126965,88946000,11118000,4
6.41,5.17,0.00,0.10,0.00,299706660,169010000,11000000,4
4.42,3.50,0.00,0.08,0.00,220446045,91522000,10496000,4
5.73,4.55,0.00,0.10,0.00,283105110,149860000,14812000,4
2.61,2.04,0.00,0.05,0.00,135175285,125147000,10011000,4
6.43,5.17,0.00,0.10,0.00,307403856,174636000,12972000,4
3.07,2.41,0.00,0.05,0.00,154552443,143538000,10964000,4
4.60,3.67,0.00,0.08,0.00,227626259,97569000,11064000,4
2.68,2.12,0.00,0.05,0.00,133521435,127507000,5976000,4
6.39,5.12,0.00,0.10,0.00,306303970,173206000,13746000,4
4.56,3.63,0.00,0.08,0.00,224891617,92701000,13866000,4
4.73,3.66,0.00,0.09,0.00,260058770,87054000,17806000,5
4.59,3.62,0.00,0.08,0.00,234330847,96890000,19977000,5
6.20,4.96,0.00,0.10,0.00,300329508,170603000,11039000,5
4.53,3.60,0.00,0.08,0.00,227613152,96200000,12305000,5
4.42,3.51,0.00,0.08,0.00,221600763,92416000,10035000,5
6.32,5.09,0.00,0.10,0.00,301025419,171162000,11075000,5
4.53,3.59,0.00,0.08,0.00,226983624,95181000,13210000,5
4.37,3.46,0.00,0.08,0.00,220950994,93536000,9232000,5
3.68,2.91,0.00,0.06,0.00,185063435,170973000,13997000,5
4.51,3.56,0.00,0.08,0.00,228295671,96256000,13679000,5
5.08,4.02,0.00,0.09,0.00,253475786,111404000,23816000,5
4.48,3.55,0.00,0.08,0.00,222203662,92987000,10998000,5
3.45,2.72,0.00,0.06,0.00,173586942,158456000,15043000,5
4.79,3.82,0.00,0.08,0.00,235320084,106254000,11026000,5
4.48,3.59,0.00,0.07,0.00,216036522,85724000,11283000,5
6.00,4.79,0.00,0.10,0.00,290250112,283119000,7002000,5
5.56,4.47,0.00,0.09,0.00,262973622,257884000,5017000,5
4.41,3.47,0.00,0.08,0.00,225083949,92565000,13079000,5
5.39,4.29,0.00,0.09,0.00,262366863,250401000,11971000,5
4.43,3.50,0.00,0.08,0.00,225321579,94568000,12072000,5
3.47,2.74,0.00,0.06,0.00,175858536,165739000,10044000,5
4.44,3.52,0.00,0.07,0.00,219459521,90674000,9964000,5
6.47,5.18,0.00,0.11,0.00,311479983,172798000,19976000,5
5.05,3.99,0.00,0.09,0.00,253720079,121070000,13007000,5
5.88,4.67,0.00,0.10,0.00,288826784,156166000,14832000,5
4.58,3.67,0.00,0.07,0.00,219436749,93387000,8273000,5
5.36,4.28,0.00,0.09,0.00,259724060,253704000,6016000,5
5.70,4.55,0.00,0.09,0.00,277352120,267346000,10012000,5
6.45,5.17,0.00,0.11,0.00,310395893,181007000,11473000,5
5.16,4.07,0.00,0.09,0.00,261059905,131139000,12012000,5
4.77,3.79,0.00,0.08,0.00,235933446,98320000,19022000,5
4.54,3.63,0.00,0.07,0.00,219749222,88011000,14159000,5
4.47,3.55,0.00,0.07,0.00,219189643,84747000,15580000,5
3.45,2.73,0.00,0.06,0.00,171334346,164292000,7012000,5
6.38,5.13,0.00,0.10,0.00,302221125,172635000,11040000,5
4.67,3.72,0.00,0.08,0.00,227043680,95829000,13765000,5
7.01,5.60,0.00,0.12,0.00,340264939,210973000,9998000,5
4.60,3.68,0.00,0.08,0.00,222058669,95692000,8058000,5
4.55,3.62,0.00,0.08,0.00,224534857,91874000,13980000,5
4.38,3.46,0.00,0.08,0.00,221435526,86024000,17541000,5
4.55,3.59,0.00,0.08,0.00,229156313,94289000,16049000,5
4.40,3.48,0.00,0.07,0.00,219856202,85130000,16215000,5
3.85,3.05,0.00,0.06,0.00,189697145,176655000,12974000,5
5.52,4.41,0.00,0.09,0.00,265238727,258223000,6979000,5
3.83,3.01,0.00,0.07,0.00,193361740,182353000,11021000,5
3.47,2.73,0.00,0.06,0.00,173244745,158297000,14933000,5
4.60,3.65,0.00,0.08,0.00,228267958,101809000,7056000,5
7.36,5.89,0.00,0.12,0.00,349249833,331233000,18012000,5
5.21,4.12,0.00,0.09,0.00,260017277,132533000,9036000,5
8.48,6.72,0.00,0.14,0.00,421972928,285965000,18061000,5
3.91,3.08,0.00,0.07,0.00,195874560,182840000,12988000,5
6.11,4.91,0.00,0.10,0.00,292421529,163166000,9949000,5
4.44,3.54,0.00,0.07,0.00,215986353,84906000,13140000,5
5.76,4.61,0.00,0.09,0.00,274749524,263713000,10988000,5
5.25,4.15,0.00,0.09,0.00,261390803,131823000,11069000,5
4.45,3.52,0.00,0.08,0.00,222036308,91073000,13120000,5
4.62,3.66,0.00,0.08,0.00,227272609,99195000,11600000,5
7.02,5.64,0.00,0.11,0.00,332179093,191823000,21692000,5
6.51,5.22,0.00,0.11,0.00,310909190,181691000,9983000,5
9.20,7.40,0.00,0.15,0.00,428490835,400399000,28027000,5
6.45,5.18,0.00,0.10,0.00,305889471,171864000,15245000,5
5.27,4.20,0.00,0.09,0.00,254701835,124361000,10722000,5
6.20,4.94,0.00,0.10,0.00,299930287,286852000,13038000,5
4.06,3.20,0.00,0.07,0.00,200167573,179121000,21014000,5
6.50,5.22,0.00,0.10,0.00,307564580,170889000,18094000,5
6.56,5.27,0.00,0.11,0.00,311414442,177754000,15063000,5
4.18,3.32,0.00,0.07,0.00,204818705,77190000,8906000,5
6.49,5.23,0.00,0.10,0.00,304011162,167751000,17973000,5
4.52,3.59,0.00,0.08,0.00,222272193,89912000,12987000,5
4.27,3.42,0.00,0.07,0.00,203449098,75549000,10073000,5
4.57,3.64,0.00,0.08,0.00,223830541,90927000,13988000,5
4.58,3.64,0.00,0.08,0.00,225455824,93452000,14068000,5
4.53,3.59,0.00,0.08,0.00,223701231,96028000,9002000,5
6.30,5.06,0.00,0.10,0.00,299238234,165299000,14936000,5
4.86,3.87,0.00,0.08,0.00,235356309,102635000,16849000,5
6.37,5.11,0.00,0.10,0.00,304394038,169160000,16015000,5
4.28,3.41,0.00,0.07,0.00,208097924,82908000,6066000,5
4.55,3.63,0.00,0.08,0.00,220074369,91580000,9057000,5
4.39,3.50,0.00,0.07,0.00,214976838,87617000,8056000,5
4.75,3.83,0.00,0.08,0.00,223179431,91760000,14372000,5
7.25,5.92,0.00,0.11,0.00,334070323,326635000,7013000,6
5.59,4.54,0.00,0.09,0.00,261337629,257282000,4004000,6
1.93,1.55,0.00,0.03,0.00,91478587,85560000,5969000,6
7.94,6.31,0.00,0.13,0.00,389390707,368353000,21020000,6
7.81,6.18,0.00,0.13,0.00,390448004,370480000,19971000,6
7.53,6.12,0.00,0.12,0.00,351001196,339962000,10998000,6
6.36,5.18,0.00,0.10,0.00,290816434,278792000,11991000,6
5.96,4.68,0.00,0.11,0.00,307093174,134129000,15014000,6
3.31,2.65,0.00,0.06,0.00,162742130,152735000,9982000,6
7.18,5.84,0.00,0.11,0.00,333490568,327462000,6008000,6
3.87,3.09,0.00,0.06,0.00,190335536,174293000,16026000,6
3.39,2.71,0.00,0.06,0.00,168454809,154464000,13951000,6
2.08,1.67,0.00,0.03,0.00,101563430,96556000,4977000,6
4.75,3.82,0.00,0.08,0.00,225780012,98380000,9914000,6
5.51,4.46,0.00,0.09,0.00,260601837,258620000,2004000,6
8.01,6.46,0.00,0.13,0.00,383728521,370741000,12990000,6
2.03,1.63,0.00,0.03,0.00,98530189,83426000,15077000,6
7.41,5.99,0.00,0.12,0.00,349177448,339152000,10004000,6
1.69,1.35,0.00,0.03,0.00,83338904,79326000,4016000,6
8.02,6.37,0.00,0.13,0.00,391965351,375888000,16037000,6
2.76,2.19,0.00,0.04,0.00,131916802,124827000,7046000,6
11.79,9.43,0.00,0.19,0.00,567654102,548698000,18989000,6
3.56,2.85,0.00,0.06,0.00,175063400,163145000,11937000,6
7.23,5.85,0.00,0.11,0.00,337130473,331120000,6002000,6
11.81,9.46,0.00,0.19,0.00,565999086,549978000,15999000,6
11.77,9.43,0.00,0.19,0.00,563601600,544595000,18985000,6
11.80,9.46,0.00,0.19,0.00,563717176,547715000,15991000,6
1.72,1.37,0.00,0.03,0.00,86172145,83162000,3005000,6
8.29,6.56,0.00,0.14,0.00,411536238,381594000,29968000,6
7.02,5.58,0.00,0.12,0.00,347037813,213442000,13960000,6
11.40,9.25,0.00,0.18,0.00,524172035,516050000,8000000,6
1.65,1.32,0.00,0.03,0.00,81673027,72718000,8965000,6
4.60,3.67,0.00,0.08,0.00,226063658,215991000,9999000,6
11.52,9.27,0.00,0.19,0.00,546539027,533380000,12984000,6
8.89,7.03,0.00,0.15,0.00,438539200,407444000,30957000,6
1.76,1.38,0.00,0.03,0.00,90806392,83768000,6980000,6
1.68,1.33,0.00,0.03,0.00,86206944,82161000,4007000,6
8.49,6.68,0.00,0.15,0.00,429678771,395685000,33973000,6
9.22,7.31,0.00,0.15,0.00,451917145,438895000,12996000,6
12.43,9.98,0.00,0.20,0.00,587920697,563831000,23992000,6
1.60,1.29,0.00,0.03,0.00,77190938,72038000,5002000,6
12.22,9.85,0.00,0.19,0.00,572046388,549061000,22960000,6
8.82,7.00,0.00,0.15,0.00,431582993,409507000,22027000,6
5.69,4.65,0.00,0.09,0.00,255355599,251305000,3988000,6
1.99,1.59,0.00,0.03,0.00,96220636,87299000,8928000,6
6.97,5.63,0.00,0.11,0.00,323564433,301496000,22036000,6
6.85,5.56,0.00,0.11,0.00,311396084,300410000,10978000,6
9.74,7.88,0.00,0.15,0.00,452499832,315403000,17966000,6
10.00,8.06,0.00,0.16,0.00,467469498,443464000,23971000,6
8.33,6.59,0.00,0.14,0.00,412546846,375442000,36945000,6
2.12,1.72,0.00,0.03,0.00,97349490,92189000,5010000,6
6.17,5.04,0.00,0.09,0.00,278781126,267683000,10987000,6
3.16,2.51,0.00,0.05,0.00,154900021,145707000,9043000,6
5.92,4.83,0.00,0.09,0.00,267531013,260585000,6988000,6
7.48,6.05,0.00,0.12,0.00,344956136,336930000,7998000,6
2.31,1.85,0.00,0.04,0.00,110274421,104238000,6013000,6
5.86,4.75,0.00,0.09,0.00,270444987,256940000,12946000,6
8.37,6.80,0.00,0.13,0.00,382707809,255060000,9929000,6
3.48,2.80,0.00,0.06,0.00,163304729,151250000,12019000,6
11.89,9.54,0.00,0.19,0.00,563535044,539528000,23979000,6
8.07,6.41,0.00,0.13,0.00,390922528,370852000,20046000,6
3.98,3.20,0.00,0.06,0.00,186595839,157462000,29085000,6
2.57,2.05,0.00,0.04,0.00,123675130,111578000,12062000,6
7.21,5.85,0.00,0.11,0.00,332951181,324905000,8022000,6
7.01,5.67,0.00,0.11,0.00,323133080,314134000,8975000,6
5.98,4.85,0.00,0.09,0.00,273976842,264809000,8993000,6
9.65,7.66,0.00,0.16,0.00,474180338,332720000,22976000,6
2.72,2.16,0.00,0.04,0.00,130606322,121555000,8967000,6
1.68,1.33,0.00,0.03,0.00,86211110,83119000,3004000,6
8.45,6.67,0.00,0.14,0.00,419854668,403810000,15992000,6
1.84,1.46,0.00,0.03,0.00,90474475,88470000,1988000,6
3.61,2.90,0.00,0.06,0.00,174296050,161313000,12944000,6
1.84,1.49,0.00,0.03,0.00,86125769,80028000,6002000,6
9.52,7.57,0.00,0.16,0.00,457629115,431490000,26029000,6
1.87,1.50,0.00,0.03,0.00,88977871,85969000,2998000,6
7.25,5.88,0.00,0.11,0.00,336183483,328150000,8003000,6
6.33,5.10,0.00,0.10,0.00,298576885,283526000,14975000,6
1.81,1.46,0.00,0.03,0.00,86857527,82846000,3992000,6
1.89,1.52,0.00,0.03,0.00,90690372,83730000,6977000,6
3.34,2.66,0.00,0.06,0.00,166568632,154591000,11968000,6
2.95,2.36,0.00,0.05,0.00,148153084,145057000,3001000,7
8.11,6.55,0.00,0.12,0.00,359057155,221872000,136921000,7
7.73,6.21,0.00,0.12,0.00,350663447,201284000,149210000,7
3.22,2.62,0.00,0.05,0.00,148595203,147598000,1004000,7
6.24,5.05,0.00,0.10,0.00,293515556,164688000,128756000,7
8.09,6.55,0.00,0.12,0.00,355540683,225172000,130099000,7
2.96,2.31,0.00,0.05,0.00,158145331,1005000,7798000,7
2.03,1.64,0.00,0.03,0.00,97234649,95266000,1984000,7
2.57,2.06,0.00,0.04,0.00,123568392,1070000,7297000,7
2.54,2.02,0.00,0.04,0.00,126243116,2045000,6928000,7
2.57,2.05,0.00,0.04,0.00,123688841,1127000,7578000,7
4.00,3.31,0.00,0.06,0.00,176816642,174876000,1998000,7
3.75,3.07,0.00,0.06,0.00,166934453,164915000,1998000,7
8.03,6.47,0.00,0.12,0.00,358579106,220580000,137738000,7
1.97,1.58,0.00,0.03,0.00,97436709,94533000,2985000,7
8.05,6.48,0.00,0.12,0.00,359269164,218428000,140632000,7
2.58,2.07,0.00,0.04,0.00,122917147,2279000,6463000,7
7.76,6.29,0.00,0.12,0.00,361260217,223133000,138082000,7
2.44,1.97,0.00,0.04,0.00,114818389,113771000,1006000,7
7.85,6.33,0.00,0.12,0.00,349201919,200940000,147956000,7
2.59,2.08,0.00,0.04,0.00,123046675,2698000,6246000,7
4.00,3.23,0.00,0.06,0.00,190222293,189212000,1001000,7
8.97,7.28,0.00,0.13,0.00,390670409,256581000,133782000,7
10.30,8.35,0.00,0.16,0.00,478550056,254234000,224207000,7
2.62,2.11,0.00,0.04,0.00,123972341,1196000,7178000,7
2.57,2.04,0.00,0.04,0.00,130221388,129205000,1001000,7
8.16,6.59,0.00,0.12,0.00,361262262,220004000,141002000,7
3.40,2.77,0.00,0.05,0.00,156727612,155772000,998000,7
2.61,2.11,0.00,0.04,0.00,123584973,123592000,0,7
6.90,5.54,0.00,0.11,0.00,309603361,170782000,138823000,7
2.65,2.14,0.00,0.04,0.00,123920724,883000,7842000,7
8.80,7.14,0.00,0.13,0.00,380612669,236637000,143779000,7
2.68,2.16,0.00,0.04,0.00,126865046,124860000,2013000,7
8.71,7.06,0.00,0.13,0.00,381823655,245337000,136187000,7
9.32,7.56,0.00,0.14,0.00,407554709,263227000,144124000,7
2.66,2.14,0.00,0.04,0.00,126238464,3837000,5614000,7
2.58,2.08,0.00,0.04,0.00,122157513,2487000,6219000,7
8.01,6.46,0.00,0.12,0.00,355430578,205542000,149666000,7
8.31,6.70,0.00,0.13,0.00,371274030,233514000,137713000,7
7.86,6.34,0.00,0.12,0.00,348995111,204463000,144327000,7
2.00,1.59,0.00,0.03,0.00,99481074,97492000,2010000,7
8.33,6.76,0.00,0.12,0.00,359189648,209952000,148966000,7
8.29,6.72,0.00,0.12,0.00,358301984,211419000,146597000,7
5.38,4.40,0.00,0.08,0.00,242680440,241683000,998000,7
2.63,2.12,0.00,0.04,0.00,124512339,4028000,3754000,7
6.94,5.63,0.00,0.11,0.00,320138346,209463000,110716000,7
4.00,3.27,0.00,0.06,0.00,181297104,178315000,2988000,7
2.59,2.08,0.00,0.04,0.00,124438973,2848000,6486000,7
3.36,2.71,0.00,0.05,0.00,160787863,159816000,1005000,7
4.62,3.76,0.00,0.07,0.00,206185960,76071000,130122000,7
8.15,6.56,0.00,0.12,0.00,362893439,213814000,148870000,7
2.62,2.11,0.00,0.04,0.00,122193934,1878000,6574000,7
8.80,7.06,0.00,0.13,0.00,380371620,236029000,144017000,7
8.10,6.53,0.00,0.12,0.00,356225183,207042000,149030000,7
7.72,6.18,0.00,0.12,0.00,352706176,209372000,143254000,7
2.03,1.64,0.00,0.03,0.00,97031057,95042000,2000000,7
2.21,1.79,0.00,0.03,0.00,101614409,98592000,3018000,7
2.78,2.26,0.00,0.04,0.00,128050278,125932000,1998000,7
8.25,6.65,0.00,0.12,0.00,363964882,220415000,143270000,7
8.79,7.10,0.00,0.13,0.00,387720489,240631000,146775000,7
2.62,2.11,0.00,0.04,0.00,122621797,1112000,6675000,7
2.57,2.10,0.00,0.04,0.00,117171851,115155000,2002000,7
7.98,6.44,0.00,0.12,0.00,349062481,198904000,149928000,7
9.33,7.52,0.00,0.14,0.00,417952744,269846000,147915000,7
8.16,6.55,0.00,0.12,0.00,362315831,214391000,147581000,7
2.85,2.30,0.00,0.05,0.00,135993395,133031000,2978000,7
2.17,1.79,0.00,0.03,0.00,93451804,91489000,1988000,7
3.72,3.07,0.00,0.05,0.00,160676111,158633000,1995000,7
7.13,5.79,0.00,0.11,0.00,321646943,176781000,144820000,7
3.56,2.91,0.00,0.05,0.00,159781136,155803000,3969000,7
4.06,3.34,0.00,0.06,0.00,176545588,174449000,1993000,7
6.80,5.56,0.00,0.10,0.00,299242458,154528000,144558000,7
2.63,2.12,0.00,0.04,0.00,122683924,2144000,7279000,7
3.01,2.45,0.00,0.05,0.00,138647246,137692000,1005000,7
4.07,3.36,0.00,0.06,0.00,175433369,173431000,2004000,7
7.86,6.37,0.00,0.12,0.00,360010051,222993000,136995000,7
6.55,5.32,0.00,0.10,0.00,296256405,164111000,132089000,7
7.07,5.72,0.00,0.11,0.00,324530520,192282000,132194000,7
8.26,6.68,0.00,0.12,0.00,357763431,201728000,155790000,7
7.94,6.39,0.00,0.12,0.00,353622433,211652000,141767000,7
4.27,3.43,0.00,0.07,0.00,206890683,197543000,8979000,8
5.95,4.80,0.00,0.10,0.00,281646924,217717000,63917000,8
3.31,2.67,0.00,0.05,0.00,156573869,143505000,13045000,8
4.68,3.71,0.00,0.08,0.00,227749307,215689000,11982000,8
3.76,3.05,0.00,0.06,0.00,173752628,163681000,10041000,8
10.19,8.27,0.00,0.16,0.00,468641960,419527000,49061000,8
3.99,3.22,0.00,0.06,0.00,182770264,173694000,9036000,8
13.13,10.57,0.00,0.21,0.00,623216032,480090000,143026000,8
3.34,2.69,0.00,0.05,0.00,156548813,145584000,10968000,8
4.16,3.37,0.00,0.07,0.00,192435945,177386000,15032000,8
3.23,2.60,0.00,0.05,0.00,151349476,142381000,9024000,8
3.46,2.80,0.00,0.06,0.00,162134096,154119000,8006000,8
3.85,3.09,0.00,0.06,0.00,185069435,177043000,8047000,8
3.31,2.67,0.00,0.05,0.00,155302816,144206000,11015000,8
4.00,3.22,0.00,0.06,0.00,187425133,176261000,11016000,8
11.19,9.12,0.00,0.17,0.00,505472113,443397000,62055000,8
2.76,2.21,0.00,0.05,0.00,133130234,122207000,10929000,8
9.19,7.51,0.00,0.14,0.00,415732565,347564000,68110000,8
6.37,5.15,0.00,0.10,0.00,295029406,222010000,73003000,8
3.90,3.14,0.00,0.06,0.00,183642768,171658000,11976000,8
3.43,2.77,0.00,0.05,0.00,159894623,145954000,13900000,8
4.07,3.30,0.00,0.06,0.00,189347309,178328000,11020000,8
6.50,5.26,0.00,0.10,0.00,302373448,246305000,56069000,8
2.86,2.30,0.00,0.05,0.00,134957249,123934000,10994000,8
4.74,3.83,0.00,0.07,0.00,218900903,205856000,12990000,8
9.43,7.67,0.00,0.15,0.00,428255028,373126000,55018000,8
9.05,7.36,0.00,0.14,0.00,415783249,363823000,51974000,8
10.24,8.33,0.00,0.16,0.00,467781040,407681000,60100000,8
4.20,3.37,0.00,0.07,0.00,198048015,183896000,13992000,8
9.58,7.80,0.00,0.15,0.00,435646516,383680000,51956000,8
3.41,2.75,0.00,0.05,0.00,158868227,143850000,14984000,8
3.62,2.92,0.00,0.06,0.00,167419052,151480000,15945000,8
4.51,3.63,0.00,0.07,0.00,212122285,198182000,13942000,8
7.24,5.74,0.00,0.12,0.00,345659035,333511000,12018000,8
3.33,2.68,0.00,0.05,0.00,154379134,140341000,14034000,8
4.56,3.68,0.00,0.07,0.00,207493164,189546000,17957000,8
4.83,3.89,0.00,0.08,0.00,223358243,206296000,17024000,8
3.38,2.71,0.00,0.05,0.00,159904308,149985000,9932000,8
5.80,4.69,0.00,0.09,0.00,267138327,173719000,93386000,8
11.76,9.51,0.00,0.18,0.00,541504390,476476000,65065000,8
4.19,3.39,0.00,0.07,0.00,193112270,181862000,10991000,8
5.09,4.14,0.00,0.08,0.00,228904608,217884000,11044000,8
3.72,3.00,0.00,0.06,0.00,174838695,167841000,7035000,8
11.51,9.36,0.00,0.17,0.00,513942843,468850000,44985000,8
3.14,2.52,0.00,0.05,0.00,148266687,139263000,9017000,8
3.76,3.05,0.00,0.06,0.00,171548637,161474000,10029000,8
3.59,2.87,0.00,0.06,0.00,166506993,153528000,12960000,8
3.57,2.85,0.00,0.06,0.00,169142297,159124000,10007000,8
5.81,4.73,0.00,0.09,0.00,262834646,251793000,10990000,8
4.38,3.54,0.00,0.07,0.00,201015396,182964000,17996000,8
3.60,2.89,0.00,0.06,0.00,169553993,159477000,10030000,8
3.18,2.56,0.00,0.05,0.00,149467971,134494000,14943000,8
3.36,2.71,0.00,0.05,0.00,155627957,145614000,9973000,8
4.55,3.69,0.00,0.07,0.00,205361356,186302000,18929000,8
12.78,10.39,0.00,0.20,0.00,583221926,520086000,63010000,8
3.95,3.20,0.00,0.06,0.00,181302288,172259000,9013000,8
5.64,4.54,0.00,0.09,0.00,260511036,204623000,55897000,8
3.52,2.83,0.00,0.06,0.00,163196638,156189000,7008000,8
9.82,7.98,0.00,0.15,0.00,445593631,393610000,51948000,8
3.46,2.78,0.00,0.05,0.00,157612955,145544000,11962000,8
9.38,7.66,0.00,0.14,0.00,418451010,373244000,45029000,8
10.82,8.78,0.00,0.17,0.00,492053908,443117000,48902000,8
2.89,2.33,0.00,0.05,0.00,133129014,124988000,7999000,8
7.00,5.64,0.00,0.11,0.00,319469129,303519000,15974000,8
7.61,6.09,0.00,0.12,0.00,358633859,287493000,71122000,8
4.30,3.49,0.00,0.07,0.00,192044293,181055000,10942000,8
3.42,2.76,0.00,0.05,0.00,157447750,142137000,15014000,8
5.08,4.12,0.00,0.08,0.00,230863765,222866000,8031000,8
5.91,4.79,0.00,0.09,0.00,267177948,244150000,23014000,8
9.86,8.04,0.00,0.15,0.00,442707165,393670000,48959000,8
9.74,7.93,0.00,0.15,0.00,438668500,371619000,66931000,8
7.79,6.26,0.00,0.12,0.00,360475742,344426000,16019000,8
10.87,8.83,0.00,0.17,0.00,497437225,438509000,58934000,8
11.21,9.14,0.00,0.17,0.00,498395898,439345000,59046000,8
9.51,7.73,0.00,0.15,0.00,429645700,368576000,60929000,8
11.87,9.59,0.00,0.18,0.00,540962527,470843000,69976000,8
4.94,4.00,0.00,0.08,0.00,226540480,219537000,6985000,8
9.48,7.73,0.00,0.14,0.00,426021072,373982000,51997000,8
3.31,2.68,0.00,0.05,0.00,151301648,137360000,13935000,8
3.32,2.67,0.00,0.05,0.00,154740263,142707000,11975000,8
1.08,0.85,0.00,0.02,0.00,59512306,58223000,1003000,9
1.10,0.88,0.00,0.02,0.00,54980861,52064000,2947000,9
0.49,0.38,0.00,0.01,0.00,26167113,22311000,3880000,9
1.08,0.85,0.00,0.02,0.00,57040648,54096000,3005000,9
1.09,0.86,0.00,0.02,0.00,55660182,51626000,4049000,9
1.13,0.89,0.00,0.02,0.00,58268935,55269000,3014000,9
0.43,0.33,0.00,0.01,0.00,24649424,19468000,5123000,9
1.05,0.83,0.00,0.02,0.00,55580427,52616000,2978000,9
0.31,0.24,0.00,0.01,0.00,18405382,15262000,2861000,9
1.08,0.84,0.00,0.02,0.00,59326640,57262000,2009000,9
0.31,0.24,0.00,0.01,0.00,19007006,15910000,2983000,9
0.76,0.59,0.00,0.01,0.00,41636569,28428000,13198000,9
0.45,0.34,0.00,0.01,0.00,26911389,22784000,4142000,9
1.03,0.80,0.00,0.02,0.00,57421265,55470000,1981000,9
0.10,0.08,0.00,0.00,0.00,4845404,3607000,1202000,9
1.09,0.87,0.00,0.02,0.00,55284191,53258000,2009000,9
1.43,1.16,0.00,0.02,0.00,66660455,64695000,1990000,9
0.35,0.27,0.00,0.01,0.00,20241544,17206000,3036000,9
0.44,0.33,0.00,0.01,0.00,24960124,15614000,8783000,9
0.10,0.07,0.00,0.00,0.00,5467198,1839000,3679000,9
1.10,0.87,0.00,0.02,0.00,58618890,58635000,0,9
0.10,0.07,0.00,0.00,0.00,6364002,1820000,4550000,9
0.31,0.23,0.00,0.01,0.00,19407485,16415000,2896000,9
0.09,0.08,0.00,0.00,0.00,4297980,4222000,0,9
1.11,0.87,0.00,0.02,0.00,60158682,56196000,4014000,9
1.10,0.86,0.00,0.02,0.00,57985781,54881000,2993000,9
1.10,0.87,0.00,0.02,0.00,57800568,51816000,5978000,9
0.09,0.08,0.00,0.00,0.00,4039426,2985000,995000,9
1.15,0.92,0.00,0.02,0.00,57729836,54704000,3039000,9
1.09,0.86,0.00,0.02,0.00,56646662,53637000,3036000,9
0.52,0.40,0.00,0.01,0.00,29204403,26172000,3019000,9
1.14,0.91,0.00,0.02,0.00,57980870,56980000,999000,9
3.11,2.39,0.00,0.06,0.00,176415497,15234000,6822000,9
0.50,0.38,0.00,0.01,0.00,29085291,23064000,6016000,9
0.47,0.36,0.00,0.01,0.00,27331095,26314000,1012000,9
0.09,0.07,0.00,0.00,0.00,5609380,3730000,1865000,9
0.39,0.31,0.00,0.01,0.00,20058316,16063000,4015000,9
1.05,0.81,0.00,0.02,0.00,58806652,56821000,1993000,9
0.39,0.30,0.00,0.01,0.00,22602693,19500000,3078000,9
0.50,0.39,0.00,0.01,0.00,26705575,19762000,6916000,9
0.32,0.24,0.00,0.01,0.00,19571185,19640000,0,9
0.33,0.25,0.00,0.01,0.00,18902041,14175000,4725000,9
0.31,0.23,0.00,0.01,0.00,18214146,15356000,2879000,9
0.55,0.42,0.00,0.01,0.00,32468334,27392000,5072000,9
0.10,0.07,0.00,0.00,0.00,6518813,4347000,2173000,9
0.14,0.10,0.00,0.00,0.00,9592966,5757000,3838000,9
1.09,0.86,0.00,0.02,0.00,55671413,51620000,4048000,9
1.11,0.89,0.00,0.02,0.00,55935469,54921000,998000,9
0.11,0.08,0.00,0.00,0.00,5641338,4529000,1132000,9
0.10,0.08,0.00,0.00,0.00,4556643,3638000,909000,9
0.47,0.37,0.00,0.01,0.00,24953352,21849000,2979000,9
0.48,0.37,0.00,0.01,0.00,26838605,25662000,1026000,9
0.32,0.26,0.00,0.01,0.00,15726568,14689000,1049000,9
0.40,0.31,0.00,0.01,0.00,22824276,17627000,5184000,9
0.34,0.25,0.00,0.01,0.00,20243157,7718000,12541000,9
0.48,0.37,0.00,0.01,0.00,28356014,22315000,6086000,9
0.10,0.07,0.00,0.00,0.00,5737017,2876000,2876000,9
1.14,0.89,0.00,0.02,0.00,61542576,58580000,2978000,9
0.44,0.33,0.00,0.01,0.00,26669745,25677000,1027000,9
1.09,0.87,0.00,0.02,0.00,55578447,50609000,4961000,9
0.10,0.07,0.00,0.00,0.00,5349493,3225000,2150000,9
0.10,0.07,0.00,0.00,0.00,6098895,3085000,3085000,9
0.35,0.27,0.00,0.01,0.00,19462421,17418000,2049000,9
0.32,0.24,0.00,0.01,0.00,21980410,18965000,2994000,9
0.31,0.24,0.00,0.01,0.00,18679631,16707000,1965000,9
1.08,0.85,0.00,0.02,0.00,56732033,54555000,1983000,9
1.14,0.90,0.00,0.02,0.00,57347871,54376000,2988000,9
0.36,0.27,0.00,0.01,0.00,21088203,17066000,4015000,9
1.28,1.01,0.00,0.02,0.00,64738283,61748000,2987000,9
1.13,0.89,0.00,0.02,0.00,58456107,56497000,2017000,9
1.43,1.14,0.00,0.02,0.00,69181414,58132000,11025000,9
0.08,0.06,0.00,0.00,0.00,4665235,3526000,1175000,9
1.14,0.90,0.00,0.02,0.00,58006360,58044000,0,9
0.40,0.32,0.00,0.01,0.00,20621446,15610000,4878000,9
0.34,0.26,0.00,0.01,0.00,21044381,15984000,4995000,9
0.21,0.15,0.00,0.00,0.00,13503522,5796000,7729000,9
0.09,0.07,0.00,0.00,0.00,6008675,2011000,4023000,9
0.33,0.26,0.00,0.01,0.00,19009286,16085000,2838000,9
1.11,0.88,0.00,0.02,0.00,56220601,53189000,3010000,9
0.08,0.06,0.00,0.00,0.00,5383579,899000,4495000,9
1.13,0.88,0.00,0.02,0.00,61184189,53759000,7100000,10
1.74,1.36,0.00,0.03,0.00,91734586,85540000,6038000,10
1.90,1.50,0.00,0.03,0.00,94781704,77773000,16950000,10
1.38,1.09,0.00,0.02,0.00,70606606,61588000,8940000,10
1.73,1.34,0.00,0.03,0.00,93548124,83447000,10053000,10
1.70,1.33,0.00,0.03,0.00,87409238,79428000,7942000,10
2.18,1.72,0.00,0.04,0.00,108244193,97191000,11021000,10
3.26,2.78,0.00,0.04,0.00,106831219,100735000,5984000,10
1.82,1.42,0.00,0.03,0.00,97375315,85427000,11920000,10
3.49,2.79,0.00,0.06,0.00,170255696,162255000,8012000,10
2.69,2.18,0.00,0.04,0.00,125695824,120690000,4987000,10
1.30,1.03,0.00,0.02,0.00,65790676,60726000,5060000,10
4.14,3.30,0.00,0.07,0.00,198760769,182657000,16057000,10
1.04,0.82,0.00,0.02,0.00,53719162,47713000,5964000,10
1.16,0.92,0.00,0.02,0.00,60319189,54162000,6018000,10
3.34,2.67,0.00,0.05,0.00,161235969,147258000,14024000,10
3.13,2.54,0.00,0.05,0.00,144642566,136514000,8030000,10
3.19,2.57,0.00,0.05,0.00,150049729,142983000,6999000,10
1.81,1.42,0.00,0.03,0.00,92153212,84278000,7932000,10
1.82,1.43,0.00,0.03,0.00,92581156,80496000,12074000,10
1.28,1.00,0.00,0.02,0.00,65767062,58805000,6976000,10
1.21,0.95,0.00,0.02,0.00,62251230,54265000,7893000,10
1.11,0.86,0.00,0.02,0.00,60062996,56073000,4005000,10
1.70,1.34,0.00,0.03,0.00,86860213,82775000,4037000,10
1.58,1.23,0.00,0.03,0.00,84447872,77337000,7030000,10
1.72,1.36,0.00,0.03,0.00,85988297,78995000,6999000,10
1.17,0.91,0.00,0.02,0.00,62490970,56410000,6043000,10
1.71,1.35,0.00,0.03,0.00,85764302,76657000,9077000,10
3.37,2.72,0.00,0.05,0.00,157433171,149390000,8020000,10
3.14,2.53,0.00,0.05,0.00,150064565,142044000,8002000,10
1.84,1.45,0.00,0.03,0.00,92611128,88591000,4026000,10
1.61,1.26,0.00,0.03,0.00,83086555,73063000,10008000,10
3.17,2.57,0.00,0.05,0.00,144698170,138660000,5985000,10
2.76,2.19,0.00,0.05,0.00,135585144,124508000,11045000,10
2.81,2.23,0.00,0.05,0.00,138379910,128327000,10025000,10
3.05,2.48,0.00,0.05,0.00,139815821,138737000,1005000,10
2.21,1.77,0.00,0.04,0.00,105941011,94818000,11095000,10
1.75,1.39,0.00,0.03,0.00,90622532,79693000,10957000,10
3.26,2.61,0.00,0.05,0.00,156178020,144128000,12010000,10
1.24,0.97,0.00,0.02,0.00,64928680,57907000,6988000,10
1.96,1.56,0.00,0.03,0.00,95084824,82984000,11997000,10
2.83,2.27,0.00,0.05,0.00,136096365,129085000,7004000,10
2.69,2.19,0.00,0.04,0.00,123984170,119984000,3966000,10
1.20,0.95,0.00,0.02,0.00,61601627,57519000,4036000,10
2.38,1.89,0.00,0.04,0.00,115000326,86745000,28242000,10
1.87,1.47,0.00,0.03,0.00,94626085,87552000,7044000,10
1.22,0.97,0.00,0.02,0.00,61468171,57405000,4028000,10
1.15,0.90,0.00,0.02,0.00,60235794,54288000,5922000,10
1.41,1.13,0.00,0.02,0.00,68614885,60566000,7943000,10
3.16,2.52,0.00,0.05,0.00,154536778,144562000,9969000,10
3.16,2.54,0.00,0.05,0.00,150050333,142964000,6998000,10
2.64,2.13,0.00,0.04,0.00,124749452,122631000,2010000,10
2.63,2.10,0.00,0.04,0.00,127410496,121434000,5972000,10
2.85,2.30,0.00,0.05,0.00,134716191,127707000,6983000,10
1.88,1.47,0.00,0.03,0.00,96710758,84705000,11958000,10
2.05,1.62,0.00,0.04,0.00,103209418,91283000,11906000,10
2.40,1.90,0.00,0.04,0.00,117710512,106622000,10961000,10
1.88,1.49,0.00,0.03,0.00,94292304,83227000,11030000,10
3.40,2.74,0.00,0.05,0.00,158779863,142752000,15972000,10
1.91,1.51,0.00,0.03,0.00,94351846,81463000,12914000,10
1.77,1.38,0.00,0.03,0.00,92813839,82698000,10085000,10
1.95,1.54,0.00,0.03,0.00,97227677,89183000,8016000,10
3.29,2.65,0.00,0.05,0.00,153589581,145538000,8029000,10
3.37,2.70,0.00,0.05,0.00,160564534,151601000,8976000,10
1.78,1.42,0.00,0.03,0.00,87751429,77644000,10083000,10
1.90,1.50,0.00,0.03,0.00,95700434,84724000,10964000,10
1.10,0.84,0.00,0.02,0.00,62415938,55462000,6932000,10
1.78,1.39,0.00,0.03,0.00,92493032,81548000,10939000,10
1.73,1.36,0.00,0.03,0.00,86158663,78123000,8012000,10
3.67,2.90,0.00,0.06,0.00,183970096,172926000,10995000,10
3.86,3.10,0.00,0.06,0.00,181078387,167995000,12999000,10
1.21,0.96,0.00,0.02,0.00,61126240,57162000,3942000,10
2.12,1.69,0.00,0.04,0.00,103290774,87378000,15887000,10
1.91,1.48,0.00,0.03,0.00,101131913,91986000,8998000,10
2.80,2.26,0.00,0.04,0.00,130910831,119915000,10992000,10
5.07,4.08,0.00,0.08,0.00,238532292,228351000,10015000,10
1.36,1.06,0.00,0.02,0.00,71373141,62383000,8911000,10
2.80,2.29,0.00,0.04,0.00,122763913,116716000,5985000,10
1.48,1.18,0.00,0.02,0.00,70264197,56113000,14028000,10
3.50,2.84,0.00,0.05,0.00,154863772,146635000,8034000,10
1.20,0.93,0.00,0.02,0.00,66474950,65178000,1002000,11
1.82,1.45,0.00,0.03,0.00,93099896,90120000,3004000,11
1.37,1.10,0.00,0.02,0.00,66872789,65918000,1014000,11
8.38,6.85,0.00,0.13,0.00,380914017,380935000,0,11
2.14,1.73,0.00,0.03,0.00,102029708,99083000,3002000,11
7.87,6.42,0.00,0.12,0.00,361966890,360895000,999000,11
1.25,0.99,0.00,0.02,0.00,63616590,63503000,0,11
2.08,1.67,0.00,0.03,0.00,101332144,99371000,2007000,11
1.37,1.09,0.00,0.02,0.00,69975692,68999000,999000,11
1.21,0.98,0.00,0.02,0.00,58693620,56666000,1988000,11
1.30,1.02,0.00,0.02,0.00,68427745,66452000,2013000,11
1.45,1.16,0.00,0.02,0.00,71887766,69917000,1997000,11
1.28,1.02,0.00,0.02,0.00,64211682,61161000,2959000,11
10.84,8.70,0.00,0.18,0.00,530483437,529366000,1000000,11
1.23,0.97,0.00,0.02,0.00,63644266,62672000,994000,11
1.65,1.35,0.00,0.03,0.00,76448694,75464000,1006000,11
1.23,0.98,0.00,0.02,0.00,61128825,60151000,1002000,11
2.17,1.74,0.00,0.04,0.00,107449181,100494000,6964000,11
1.29,1.03,0.00,0.02,0.00,63871524,62877000,998000,11
1.95,1.57,0.00,0.03,0.00,95336295,94353000,1003000,11
8.24,6.77,0.00,0.12,0.00,365488025,365507000,0,11
1.20,0.95,0.00,0.02,0.00,61068326,60085000,1001000,11
1.29,1.03,0.00,0.02,0.00,64892806,63868000,997000,11
1.41,1.14,0.00,0.02,0.00,67405345,65429000,1982000,11
0.06,0.05,0.00,0.00,0.00,4802331,2889000,1926000,11
8.49,6.86,0.00,0.14,0.00,404293989,403288000,1000000,11
1.20,0.95,0.00,0.02,0.00,61483724,58168000,2957000,11
1.22,0.97,0.00,0.02,0.00,60865740,58920000,1997000,11
1.21,0.96,0.00,0.02,0.00,62705309,60713000,1990000,11
1.18,0.92,0.00,0.02,0.00,61967000,60978000,999000,11
1.57,1.28,0.00,0.02,0.00,72339920,71356000,991000,11
2.24,1.81,0.00,0.04,0.00,107304436,105228000,1985000,11
1.98,1.60,0.00,0.03,0.00,94242289,91139000,2971000,11
1.22,0.96,0.00,0.02,0.00,64269157,63329000,1005000,11
1.23,0.98,0.00,0.02,0.00,61868608,61886000,0,11
1.29,1.03,0.00,0.02,0.00,64390098,62426000,1981000,11
1.82,1.48,0.00,0.03,0.00,85171875,83181000,2004000,11
1.41,1.13,0.00,0.02,0.00,69723455,67783000,1993000,11
1.93,1.54,0.00,0.03,0.00,97004909,94031000,3001000,11
1.95,1.57,0.00,0.03,0.00,94892068,93943000,988000,11
9.04,7.45,0.00,0.13,0.00,395210633,392212000,3001000,11
1.83,1.47,0.00,0.03,0.00,88622738,86682000,1992000,11
1.21,0.96,0.00,0.02,0.00,62572611,60610000,1987000,11
7.91,6.37,0.00,0.12,0.00,351321478,195147000,156117000,11
1.19,0.94,0.00,0.02,0.00,62521556,59576000,2978000,11
1.34,1.06,0.00,0.02,0.00,67271854,66279000,1004000,11
1.57,1.27,0.00,0.03,0.00,75391576,73387000,2010000,11
9.51,7.80,0.00,0.14,0.00,424637078,423655000,999000,11
1.31,1.05,0.00,0.02,0.00,65146548,64179000,1002000,11
0.83,0.64,0.00,0.02,0.00,44398024,41462000,2961000,11
3.43,2.75,0.00,0.06,0.00,166640620,161641000,4988000,11
1.22,0.98,0.00,0.02,0.00,61286396,59234000,2007000,11
1.23,0.98,0.00,0.02,0.00,57764197,56740000,1013000,11
8.25,6.75,0.00,0.13,0.00,371439011,368461000,2995000,11
1.94,1.56,0.00,0.03,0.00,93615409,92636000,1006000,11
2.03,1.63,0.00,0.03,0.00,99311097,98336000,1003000,11
1.44,1.14,0.00,0.03,0.00,74239531,73052000,1000000,11
1.50,1.20,0.00,0.02,0.00,72176394,69091000,3003000,11
8.22,6.72,0.00,0.13,0.00,368317481,367324000,1000000,11
1.62,1.32,0.00,0.03,0.00,75923903,74913000,998000,11
1.23,0.98,0.00,0.02,0.00,60889314,59846000,1014000,11
8.14,6.66,0.00,0.12,0.00,365387117,364320000,1000000,11
1.72,1.38,0.00,0.03,0.00,82756945,81754000,1009000,11
1.28,1.01,0.00,0.02,0.00,64805878,63818000,997000,11
11.36,9.17,0.00,0.18,0.00,541164027,540205000,1000000,11
1.61,1.30,0.00,0.03,0.00,75952951,75001000,1000000,11
1.29,1.02,0.00,0.02,0.00,64919606,60931000,3995000,11
1.55,1.25,0.00,0.03,0.00,74262505,72169000,2004000,11
1.30,1.04,0.00,0.02,0.00,64943131,62956000,1998000,11
2.07,1.66,0.00,0.03,0.00,99452470,96489000,2984000,11
1.47,1.17,0.00,0.03,0.00,75193832,74251000,1003000,11
8.42,6.89,0.00,0.13,0.00,375013882,374028000,1000000,11
1.64,1.32,0.00,0.03,0.00,79886664,76911000,2996000,11
1.65,1.33,0.00,0.03,0.00,79246290,76292000,2972000,11
3.08,2.48,0.00,0.05,0.00,146025813,144033000,2000000,11
1.29,1.02,0.00,0.02,0.00,66649994,65727000,995000,11
8.47,6.94,0.00,0.13,0.00,378434399,376331000,2001000,11
1.44,1.17,0.00,0.02,0.00,66135875,60091000,6009000,11
1.33,1.06,0.00,0.02,0.00,65614928,63556000,1986000,11
8.35,6.84,0.00,0.13,0.00,371724412,370622000,998000,11
2.80,2.26,0.00,0.05,0.00,136181820,129887000,5994000,12
3.42,2.73,0.00,0.06,0.00,170725658,162730000,7986000,12
2.78,2.25,0.00,0.05,0.00,132820128,131814000,998000,12
0.83,0.63,0.00,0.02,0.00,48880766,45883000,2992000,12
0.83,0.66,0.00,0.02,0.00,44045759,42018000,2000000,12
1.00,0.79,0.00,0.02,0.00,52073750,47118000,4908000,12
5.51,4.37,0.00,0.09,0.00,274392456,256331000,18023000,12
2.63,2.12,0.00,0.04,0.00,126274230,121267000,5011000,12
0.91,0.70,0.00,0.02,0.00,51236819,44202000,7032000,12
1.29,1.01,0.00,0.02,0.00,68456514,63329000,5026000,12
2.80,2.26,0.00,0.04,0.00,132516200,126484000,6023000,12
1.04,0.82,0.00,0.02,0.00,53674240,47699000,5962000,12
2.73,2.20,0.00,0.04,0.00,130623213,125619000,4984000,12
1.03,0.81,0.00,0.02,0.00,52663219,43548000,9114000,12
2.75,2.24,0.00,0.04,0.00,126389515,124327000,1989000,12
2.70,2.17,0.00,0.04,0.00,127002762,124862000,1997000,12
1.03,0.81,0.00,0.02,0.00,52802155,41857000,10962000,12
2.88,2.28,0.00,0.05,0.00,143908304,132059000,11915000,12
4.29,3.42,0.00,0.07,0.00,214244760,207219000,7007000,12
4.89,3.95,0.00,0.08,0.00,231545946,221405000,10018000,12
2.15,1.70,0.00,0.04,0.00,109146971,102132000,7009000,12
2.87,2.28,0.00,0.05,0.00,144579375,139568000,4984000,12
0.93,0.73,0.00,0.02,0.00,47554481,44470000,3032000,12
2.66,2.15,0.00,0.04,0.00,125202645,121194000,4006000,12
2.68,2.16,0.00,0.04,0.00,128733560,125775000,2994000,12
2.60,2.09,0.00,0.04,0.00,126581625,122492000,4016000,12
0.88,0.72,0.00,0.01,0.00,39664447,36632000,2970000,12
1.75,1.39,0.00,0.03,0.00,88005436,83045000,4943000,12
1.35,1.07,0.00,0.02,0.00,68006852,61901000,6088000,12
2.75,2.24,0.00,0.04,0.00,126158272,121165000,4965000,12
2.68,2.15,0.00,0.04,0.00,128741344,122740000,5987000,12
0.82,0.63,0.00,0.02,0.00,46258821,42247000,4023000,12
2.77,2.22,0.00,0.05,0.00,134534130,126556000,7972000,12
2.89,2.35,0.00,0.05,0.00,133186184,127213000,5963000,12
0.74,0.58,0.00,0.01,0.00,40511595,37537000,2963000,12
0.77,0.60,0.00,0.01,0.00,41772666,36729000,4963000,12
0.92,0.72,0.00,0.02,0.00,49266046,39403000,9850000,12
2.81,2.28,0.00,0.04,0.00,131667273,126587000,5023000,12
0.92,0.72,0.00,0.02,0.00,48284238,45234000,3015000,12
3.16,2.54,0.00,0.05,0.00,150101219,144122000,6005000,12
2.90,2.32,0.00,0.05,0.00,141141752,136093000,5003000,12
5.24,4.22,0.00,0.08,0.00,249543254,240504000,9018000,12
2.81,2.27,0.00,0.05,0.00,131397996,126352000,4974000,12
2.26,1.79,0.00,0.04,0.00,114102029,99078000,15011000,12
0.93,0.74,0.00,0.02,0.00,48216997,40354000,7874000,12
1.03,0.80,0.00,0.02,0.00,55804683,47966000,7831000,12
2.72,2.19,0.00,0.04,0.00,130078553,128105000,1986000,12
5.44,4.35,0.00,0.08,0.00,241791456,231730000,10031000,12
6.49,5.19,0.00,0.11,0.00,311398308,289413000,21955000,12
3.03,2.45,0.00,0.05,0.00,143757615,138730000,4990000,12
2.81,2.29,0.00,0.05,0.00,131721063,123448000,7964000,12
0.79,0.61,0.00,0.01,0.00,42152744,40117000,2005000,12
2.61,2.07,0.00,0.04,0.00,131398859,123383000,8024000,12
2.68,2.17,0.00,0.04,0.00,127247459,122236000,5009000,12
1.11,0.86,0.00,0.02,0.00,60004329,54997000,4999000,12
3.17,2.53,0.00,0.05,0.00,155522531,145514000,9966000,12
2.97,2.39,0.00,0.05,0.00,135575733,126497000,9035000,12
1.23,0.98,0.00,0.02,0.00,61951777,57928000,3995000,12
2.15,1.71,0.00,0.04,0.00,107054761,100054000,6934000,12
1.36,1.09,0.00,0.02,0.00,66281029,63155000,3007000,12
2.86,2.34,0.00,0.04,0.00,128786571,126627000,1994000,12
3.05,2.48,0.00,0.05,0.00,139877864,131829000,7989000,12
0.94,0.74,0.00,0.02,0.00,48760507,43782000,4975000,12
3.09,2.48,0.00,0.05,0.00,148604088,134638000,13962000,12
1.07,0.83,0.00,0.02,0.00,59958522,54870000,4988000,12
0.77,0.60,0.00,0.01,0.00,42012732,37116000,4883000,12
4.78,3.85,0.00,0.08,0.00,227551306,215535000,12029000,12
4.77,3.85,0.00,0.08,0.00,225238897,218199000,7006000,12
2.87,2.33,0.00,0.05,0.00,133695660,129623000,4019000,12
1.03,0.81,0.00,0.02,0.00,54310515,48271000,6033000,12
1.05,0.83,0.00,0.02,0.00,52997039,44176000,8835000,12
4.67,3.79,0.00,0.07,0.00,208980035,190053000,18905000,12
1.04,0.81,0.00,0.02,0.00,53575278,41675000,11907000,12
1.03,0.80,0.00,0.02,0.00,55774959,46631000,9123000,12
1.04,0.82,0.00,0.02,0.00,53542353,45437000,8077000,12
2.90,2.36,0.00,0.05,0.00,132007830,125995000,5999000,12
0.94,0.74,0.00,0.02,0.00,48693187,44580000,3962000,12
0.77,0.59,0.00,0.02,0.00,44066741,42037000,2001000,12
0.95,0.75,0.00,0.02,0.00,46638651,41618000,4954000,12
2.82,2.28,0.00,0.05,0.00,132587009,127455000,5017000,12
0.27,0.20,0.00,0.01,0.00,17873499,13974000,3726000,13
0.68,0.56,0.00,0.01,0.00,30866617,29859000,995000,13
0.69,0.54,0.00,0.01,0.00,38347957,36350000,2019000,13
0.33,0.26,0.00,0.01,0.00,19055282,16221000,2862000,13
0.61,0.45,0.00,0.01,0.00,37765663,36751000,1020000,13
0.61,0.47,0.00,0.01,0.00,33982400,33013000,1000000,13
0.31,0.23,0.00,0.01,0.00,20208670,19290000,964000,13
0.63,0.48,0.00,0.01,0.00,38368173,37269000,1007000,13
0.29,0.22,0.00,0.01,0.00,18450132,17446000,1026000,13
0.63,0.48,0.00,0.01,0.00,36096437,35114000,1003000,13
0.26,0.20,0.00,0.01,0.00,15447005,14515000,967000,13
0.64,0.50,0.00,0.01,0.00,33892585,30877000,2988000,13
0.68,0.52,0.00,0.01,0.00,38848276,35807000,3069000,13
0.68,0.54,0.00,0.01,0.00,36161957,35181000,1005000,13
0.25,0.19,0.00,0.00,0.00,13332997,11250000,2045000,13
0.61,0.46,0.00,0.01,0.00,37295477,36308000,1008000,13
0.69,0.55,0.00,0.01,0.00,35173740,34175000,1005000,13
0.27,0.21,0.00,0.01,0.00,15309997,13403000,1914000,13
0.24,0.18,0.00,0.01,0.00,15876455,14894000,992000,13
0.64,0.49,0.00,0.01,0.00,35555718,34592000,988000,13
0.68,0.52,0.00,0.01,0.00,39112365,37153000,2008000,13
0.66,0.50,0.00,0.01,0.00,39234742,37249000,2013000,13
0.25,0.21,0.00,0.00,0.00,11741633,8128000,3612000,13
0.28,0.22,0.00,0.01,0.00,15589395,13532000,2081000,13
0.73,0.59,0.00,0.01,0.00,33811224,32751000,992000,13
0.27,0.21,0.00,0.00,0.00,13988060,12945000,995000,13
0.66,0.49,0.00,0.01,0.00,40505152,38450000,2023000,13
0.72,0.57,0.00,0.01,0.00,37197323,36058000,1001000,13
0.64,0.48,0.00,0.01,0.00,40917655,40808000,0,13
0.62,0.47,0.00,0.01,0.00,36927160,35021000,1945000,13
0.24,0.18,0.00,0.01,0.00,16001954,15028000,1001000,13
0.05,0.03,0.00,0.00,0.00,3492622,2338000,1169000,13
0.69,0.52,0.00,0.01,0.00,39870163,36682000,3056000,13
0.68,0.53,0.00,0.01,0.00,36807307,35826000,995000,13
0.38,0.29,0.00,0.01,0.00,21719556,19785000,1978000,13
0.29,0.22,0.00,0.01,0.00,17741843,14774000,2954000,13
0.26,0.19,0.00,0.01,0.00,15825458,15867000,0,13
0.30,0.23,0.00,0.01,0.00,18348837,15523000,2910000,13
0.60,0.47,0.00,0.01,0.00,34534308,33590000,1017000,13
0.64,0.49,0.00,0.01,0.00,36843377,33973000,2911000,13
0.25,0.19,0.00,0.00,0.00,13920851,12933000,994000,13
0.64,0.50,0.00,0.01,0.00,33739101,30846000,2891000,13
0.23,0.17,0.00,0.01,0.00,15900360,14995000,937000,13
0.26,0.20,0.00,0.01,0.00,14811521,13831000,987000,13
0.67,0.52,0.00,0.01,0.00,37444690,34497000,2956000,13
0.66,0.52,0.00,0.01,0.00,35051266,33042000,2002000,13
0.63,0.50,0.00,0.01,0.00,36810151,35834000,995000,13
0.64,0.49,0.00,0.01,0.00,35370898,34375000,1011000,13
0.65,0.51,0.00,0.01,0.00,33563515,31429000,2027000,13
0.28,0.23,0.00,0.00,0.00,13734489,11725000,1954000,13
0.32,0.27,0.00,0.00,0.00,14860960,14858000,0,13
0.71,0.55,0.00,0.01,0.00,38433409,35473000,2956000,13
0.65,0.50,0.00,0.01,0.00,37722473,35751000,1986000,13
0.34,0.26,0.00,0.01,0.00,20013003,18047000,2005000,13
0.68,0.54,0.00,0.01,0.00,33976354,32004000,2000000,13
0.67,0.52,0.00,0.01,0.00,35759519,34757000,993000,13
0.61,0.46,0.00,0.01,0.00,37160601,35249000,1958000,13
0.67,0.52,0.00,0.01,0.00,36192453,35233000,1006000,13
0.60,0.45,0.00,0.01,0.00,37396881,35304000,2017000,13
0.61,0.46,0.00,0.01,0.00,37332062,36392000,983000,13
0.67,0.53,0.00,0.01,0.00,34256077,34271000,0,13
0.65,0.49,0.00,0.01,0.00,38979297,35999000,2999000,13
0.68,0.53,0.00,0.01,0.00,35937127,34829000,995000,13
0.64,0.49,0.00,0.01,0.00,37333610,36316000,1008000,13
0.64,0.50,0.00,0.01,0.00,35987438,35010000,1000000,13
0.36,0.27,0.00,0.01,0.00,23696458,21618000,2058000,13
0.25,0.19,0.00,0.01,0.00,14695122,11704000,2926000,13
0.67,0.53,0.00,0.01,0.00,34530945,33433000,1013000,13
0.26,0.20,0.00,0.01,0.00,14708329,13750000,982000,13
0.62,0.48,0.00,0.01,0.00,33698191,31582000,2037000,13
0.72,0.56,0.00,0.01,0.00,37963520,34965000,2997000,13
0.27,0.21,0.00,0.01,0.00,15192466,13194000,2029000,13
0.66,0.52,0.00,0.01,0.00,33976536,31959000,1936000,13
0.68,0.51,0.00,0.01,0.00,40632702,38601000,1979000,13
0.25,0.19,0.00,0.01,0.00,14965264,14037000,1002000,13
0.27,0.21,0.00,0.00,0.00,13447776,11355000,2064000,13
0.73,0.57,0.00,0.01,0.00,39130607,36161000,3013000,13
0.62,0.47,0.00,0.01,0.00,37113421,36136000,1003000,13
0.67,0.52,0.00,0.01,0.00,36320912,35331000,1009000,13
0.74,0.59,0.00,0.01,0.00,37638701,35673000,1981000,13
3.73,2.97,0.00,0.06,0.00,187738429,178440000,9022000,14
4.27,3.39,0.00,0.07,0.00,215667052,197693000,17972000,14
3.52,2.80,0.00,0.06,0.00,178606690,177611000,1003000,14
0.38,0.29,0.00,0.01,0.00,24219792,23242000,1010000,14
3.78,3.00,0.00,0.07,0.00,195003668,194047000,995000,14
4.13,3.29,0.00,0.07,0.00,205625978,198634000,6987000,14
3.58,2.85,0.00,0.06,0.00,181186443,180186000,1001000,14
4.92,3.91,0.00,0.08,0.00,245670162,232685000,12982000,14
4.17,3.33,0.00,0.07,0.00,205964448,191959000,13997000,14
3.43,2.72,0.00,0.06,0.00,178625812,177646000,998000,14
2.14,1.69,0.00,0.04,0.00,108190011,105175000,3005000,14
2.03,1.60,0.00,0.04,0.00,103875511,96888000,6991000,14
4.48,3.56,0.00,0.08,0.00,223189351,209248000,13949000,14
4.47,3.55,0.00,0.08,0.00,223005297,208002000,15000000,14
1.07,0.84,0.00,0.02,0.00,56626350,40451000,16180000,14
1.67,1.32,0.00,0.03,0.00,85301241,72241000,13043000,14
4.56,3.68,0.00,0.07,0.00,211120699,197143000,13939000,14
3.98,3.17,0.00,0.07,0.00,197518794,183552000,13965000,14
2.87,2.27,0.00,0.05,0.00,147834801,145764000,2010000,14
4.32,3.45,0.00,0.07,0.00,214064896,199980000,13998000,14
4.58,3.69,0.00,0.07,0.00,213570933,195502000,18046000,14
4.21,3.35,0.00,0.07,0.00,210300231,203296000,6975000,14
0.28,0.21,0.00,0.01,0.00,16359212,12506000,3848000,14
0.76,0.58,0.00,0.01,0.00,43227608,36335000,6874000,14
4.01,3.19,0.00,0.07,0.00,199803888,195788000,4016000,14
3.75,2.96,0.00,0.07,0.00,194284416,191209000,3003000,14
1.60,1.28,0.00,0.03,0.00,79052269,73894000,4992000,14
1.22,0.96,0.00,0.02,0.00,61469806,44627000,16859000,14
2.79,2.23,0.00,0.05,0.00,135510899,118584000,16940000,14
2.25,1.78,0.00,0.04,0.00,114968805,105052000,9910000,14
5.57,4.46,0.00,0.09,0.00,269554901,252553000,16970000,14
8.03,6.53,0.00,0.12,0.00,360870581,351805000,9020000,14
3.59,2.84,0.00,0.06,0.00,187123039,185080000,1990000,14
3.09,2.48,0.00,0.05,0.00,146006410,131900000,14096000,14
1.49,1.17,0.00,0.03,0.00,75004729,60991000,13998000,14
2.93,2.33,0.00,0.05,0.00,147164988,141074000,6003000,14
4.17,3.29,0.00,0.07,0.00,207642032,149348000,58135000,14
3.66,2.88,0.00,0.06,0.00,190819183,188706000,2007000,14
5.11,4.07,0.00,0.09,0.00,252234406,244231000,8007000,14
4.98,4.00,0.00,0.08,0.00,238716434,223698000,14979000,14
2.77,2.22,0.00,0.05,0.00,133039191,132006000,1007000,14
5.04,4.01,0.00,0.08,0.00,247919465,233904000,13994000,14
4.84,3.86,0.00,0.08,0.00,234617958,221622000,12977000,14
4.74,3.80,0.00,0.08,0.00,227334499,211292000,16022000,14
5.03,4.02,0.00,0.08,0.00,242254274,227198000,15013000,14
3.06,2.44,0.00,0.05,0.00,150011614,133952000,15994000,14
5.04,4.03,0.00,0.08,0.00,242418559,230420000,12021000,14
5.43,4.37,0.00,0.09,0.00,257340597,244270000,13014000,14
2.71,2.14,0.00,0.05,0.00,142478207,140485000,2006000,14
2.49,2.00,0.00,0.04,0.00,115866605,98921000,16816000,14
1.63,1.31,0.00,0.03,0.00,77828158,68777000,8970000,14
5.47,4.42,0.00,0.09,0.00,254796892,246699000,7958000,14
4.86,3.89,0.00,0.08,0.00,233813669,219811000,13987000,14
4.49,3.58,0.00,0.08,0.00,220847576,207845000,12990000,14
3.25,2.61,0.00,0.05,0.00,157351492,150309000,6967000,14
3.02,2.41,0.00,0.05,0.00,147837162,131880000,15865000,14
5.71,4.55,0.00,0.10,0.00,281220960,264177000,17011000,14
2.67,2.12,0.00,0.05,0.00,137057893,136120000,1000000,14
5.19,4.15,0.00,0.09,0.00,250369780,236394000,13964000,14
3.78,2.99,0.00,0.06,0.00,187796403,155669000,32138000,14
5.36,4.28,0.00,0.09,0.00,262321751,250239000,12011000,14
4.51,3.59,0.00,0.08,0.00,221657729,211636000,10030000,14
1.45,1.15,0.00,0.03,0.00,74685926,67706000,6969000,14
4.46,3.54,0.00,0.08,0.00,223783624,210696000,13043000,14
5.20,4.17,0.00,0.08,0.00,249218599,235237000,13954000,14
2.60,2.08,0.00,0.04,0.00,124768220,109811000,14974000,14
4.81,3.84,0.00,0.08,0.00,235070201,219985000,14931000,14
1.44,1.15,0.00,0.02,0.00,72318664,67249000,5018000,14
4.33,3.44,0.00,0.07,0.00,216822462,208869000,7994000,14
2.26,1.79,0.00,0.04,0.00,113871411,91884000,21972000,14
2.70,2.13,0.00,0.05,0.00,141800952,139833000,1997000,14
1.27,0.98,0.00,0.02,0.00,70390883,67177000,3007000,14
1.40,1.11,0.00,0.02,0.00,69065894,57025000,12005000,14
4.25,3.39,0.00,0.07,0.00,206943365,194803000,11987000,14
4.48,3.59,0.00,0.07,0.00,216718466,204636000,11920000,14
2.25,1.78,0.00,0.04,0.00,114972970,113949000,990000,14
4.01,3.25,0.00,0.06,0.00,187056222,183793000,2996000,14
4.90,3.90,0.00,0.08,0.00,240825106,226655000,13978000,14
3.73,2.98,0.00,0.06,0.00,184344667,179335000,5009000,14
1.71,1.34,0.00,0.03,0.00,88058718,76063000,12010000,14
1.06,0.82,0.00,0.02,0.00,59304141,53033000,6003000,15
2.93,2.31,0.00,0.05,0.00,150116851,137086000,13008000,15
1.08,0.85,0.00,0.02,0.00,57222803,54237000,3013000,15
1.19,0.94,0.00,0.02,0.00,62329248,58337000,3955000,15
1.11,0.89,0.00,0.02,0.00,55395799,51290000,4022000,15
1.20,0.96,0.00,0.02,0.00,61390502,59430000,1981000,15
3.66,2.96,0.00,0.06,0.00,174886221,172822000,1997000,15
1.35,1.08,0.00,0.02,0.00,66092180,60073000,6007000,15
3.83,3.10,0.00,0.06,0.00,180353786,176340000,4007000,15
1.39,1.09,0.00,0.03,0.00,74754719,72647000,1990000,15
4.21,3.41,0.00,0.07,0.00,198424230,194398000,4008000,15
1.19,0.94,0.00,0.02,0.00,63108174,61024000,2000000,15
1.19,0.94,0.00,0.02,0.00,60008934,55974000,3998000,15
3.65,2.96,0.00,0.06,0.00,172577051,169469000,3008000,15
1.10,0.86,0.00,0.02,0.00,58493533,54378000,4028000,15
1.07,0.84,0.00,0.02,0.00,57290805,53210000,4015000,15
1.23,0.98,0.00,0.02,0.00,60010708,58969000,999000,15
1.25,0.99,0.00,0.02,0.00,65321890,62356000,3017000,15
3.76,3.06,0.00,0.06,0.00,172280523,168235000,3981000,15
5.12,4.11,0.00,0.08,0.00,246357445,241358000,5007000,15
3.66,2.96,0.00,0.06,0.00,173916318,169800000,3995000,15
1.05,0.81,0.00,0.02,0.00,58892484,54821000,3987000,15
1.08,0.84,0.00,0.02,0.00,59331893,56311000,3016000,15
1.07,0.85,0.00,0.02,0.00,55352269,52311000,3017000,15
1.05,0.80,0.00,0.02,0.00,60823832,55798000,4982000,15
5.11,4.13,0.00,0.08,0.00,242990410,235985000,6999000,15
3.77,3.05,0.00,0.06,0.00,177635526,170556000,6981000,15
1.06,0.84,0.00,0.02,0.00,55719282,50380000,4939000,15
3.80,3.08,0.00,0.06,0.00,180043844,173866000,5995000,15
1.16,0.92,0.00,0.02,0.00,58900820,55899000,2994000,15
1.09,0.89,0.00,0.02,0.00,53992768,52008000,2000000,15
1.18,0.93,0.00,0.02,0.00,60865607,57862000,3045000,15
1.04,0.82,0.00,0.02,0.00,56037952,54017000,2000000,15
1.87,1.51,0.00,0.03,0.00,89293634,83301000,5950000,15
1.32,1.06,0.00,0.02,0.00,62143178,58116000,4008000,15
4.02,3.26,0.00,0.06,0.00,187259733,184244000,3003000,15
3.83,3.10,0.00,0.06,0.00,180068619,178066000,2000000,15
1.08,0.85,0.00,0.02,0.00,56731881,52733000,3979000,15
1.23,0.99,0.00,0.02,0.00,59744774,53767000,5865000,15
1.32,1.05,0.00,0.02,0.00,64188901,60148000,4009000,15
1.27,1.01,0.00,0.02,0.00,64288541,60336000,3956000,15
1.89,1.52,0.00,0.03,0.00,92742390,90732000,2016000,15
1.13,0.89,0.00,0.02,0.00,58221744,55261000,2960000,15
1.40,1.11,0.00,0.02,0.00,71550392,67489000,3969000,15
1.96,1.54,0.00,0.03,0.00,99755042,91750000,7978000,15
3.87,3.14,0.00,0.06,0.00,179371898,175359000,4008000,15
1.24,0.98,0.00,0.02,0.00,64219860,63249000,1003000,15
3.86,3.15,0.00,0.06,0.00,174541458,168500000,6017000,15
3.90,3.17,0.00,0.06,0.00,181136958,177044000,4001000,15
1.21,0.96,0.00,0.02,0.00,61534710,57526000,3967000,15
1.08,0.85,0.00,0.02,0.00,55952091,50938000,4993000,15
1.04,0.82,0.00,0.02,0.00,54777864,53771000,995000,15
1.22,0.96,0.00,0.02,0.00,62430572,57482000,4955000,15
1.15,0.91,0.00,0.02,0.00,59876933,52014000,7851000,15
1.29,1.05,0.00,0.02,0.00,59061071,55895000,2994000,15
1.11,0.88,0.00,0.02,0.00,55898378,52852000,2991000,15
1.41,1.12,0.00,0.02,0.00,70531755,63463000,7051000,15
1.18,0.94,0.00,0.02,0.00,60573382,57593000,3031000,15
1.24,0.98,0.00,0.02,0.00,63151262,59164000,4011000,15
3.77,3.06,0.00,0.06,0.00,175668429,170667000,4990000,15
3.79,3.08,0.00,0.06,0.00,176654521,173637000,3011000,15
1.19,0.94,0.00,0.02,0.00,60639384,57598000,3031000,15
1.19,0.95,0.00,0.02,0.00,58484804,55476000,2971000,15
1.31,1.04,0.00,0.02,0.00,65948364,63904000,1997000,15
1.07,0.83,0.00,0.02,0.00,59076383,56117000,2953000,15
3.73,3.04,0.00,0.06,0.00,170929193,169847000,999000,15
3.93,3.19,0.00,0.06,0.00,183797709,178595000,4988000,15
3.72,3.01,0.00,0.06,0.00,174211530,171058000,2983000,15
2.05,1.63,0.00,0.03,0.00,98440618,91388000,7029000,15
3.80,3.08,0.00,0.06,0.00,177039958,175073000,2000000,15
3.67,2.98,0.00,0.06,0.00,172213733,169212000,3003000,15
1.20,0.96,0.00,0.02,0.00,57790630,52711000,5068000,15
3.79,3.08,0.00,0.06,0.00,173524146,168412000,4982000,15
3.81,3.07,0.00,0.06,0.00,181683719,175637000,5987000,15
6.01,4.83,0.00,0.10,0.00,282098626,258148000,23921000,15
3.76,3.06,0.00,0.06,0.00,173287686,171267000,2003000,15
1.25,1.00,0.00,0.02,0.00,61720402,56663000,5059000,15
1.10,0.87,0.00,0.02,0.00,56577286,55594000,992000,15
1.18,0.94,0.00,0.02,0.00,58268501,55227000,2958000,15
1.26,1.00,0.00,0.02,0.00,63219743,60197000,3009000,15
4.79,3.81,0.00,0.08,0.00,243653705,239364000,4006000,16
4.62,3.67,0.00,0.08,0.00,238832433,233759000,4973000,16
2.39,1.92,0.00,0.04,0.00,116251166,110228000,6012000,16
4.66,3.71,0.00,0.08,0.00,237695377,233580000,4009000,16
4.72,3.75,0.00,0.08,0.00,240957121,233839000,6995000,16
3.22,2.55,0.00,0.06,0.00,165199661,162177000,3003000,16
4.94,3.96,0.00,0.08,0.00,243502103,239264000,4004000,16
4.65,3.70,0.00,0.08,0.00,237321447,234309000,3003000,16
2.94,2.27,0.00,0.04,0.00,131835382,127885000,3965000,16
3.43,2.75,0.00,0.06,0.00,168639858,156623000,11971000,16
3.76,2.99,0.00,0.06,0.00,190031489,183020000,7000000,16
4.76,3.80,0.00,0.08,0.00,240634280,235575000,4990000,16
3.03,2.38,0.00,0.05,0.00,157675165,2713000,6332000,16
3.35,2.66,0.00,0.06,0.00,172693291,167620000,4988000,16
6.30,5.03,0.00,0.11,0.00,316001636,313838000,1998000,16
8.44,6.97,0.00,0.12,0.00,366271828,359130000,7002000,16
4.75,3.79,0.00,0.08,0.00,239780047,233638000,6016000,16
4.82,3.86,0.00,0.08,0.00,238033373,233901000,3998000,16
3.11,2.50,0.00,0.05,0.00,149533209,140439000,8964000,16
4.82,3.86,0.00,0.08,0.00,237726907,231621000,5990000,16
3.34,2.69,0.00,0.05,0.00,160469987,158273000,2003000,16
7.54,6.23,0.00,0.11,0.00,324430047,313260000,10974000,16
9.27,7.08,0.00,0.13,0.00,372355120,360296000,12009000,16
11.32,9.37,0.00,0.16,0.00,482324864,476319000,6004000,16
4.91,3.95,0.00,0.08,0.00,236426267,233281000,3003000,16
3.34,2.69,0.00,0.05,0.00,161081684,155060000,6002000,16
4.68,3.71,0.00,0.08,0.00,241294390,235171000,5978000,16
4.70,3.72,0.00,0.08,0.00,242365095,238382000,4006000,16
5.09,4.07,0.00,0.08,0.00,249853767,244878000,4997000,16
2.69,2.15,0.00,0.04,0.00,132609666,126655000,5983000,16
3.56,2.83,0.00,0.06,0.00,180844035,176856000,3996000,16
4.94,3.97,0.00,0.08,0.00,240748732,233696000,6990000,16
4.73,3.77,0.00,0.08,0.00,238945396,235935000,2999000,16
8.67,7.12,0.00,0.13,0.00,383257779,374283000,9006000,16
4.83,3.85,0.00,0.08,0.00,241233254,237207000,4003000,16
4.71,3.75,0.00,0.08,0.00,239472522,234438000,5009000,16
2.59,2.08,0.00,0.04,0.00,123164012,2130000,7203000,16
3.12,2.43,0.00,0.05,0.00,138698067,134535000,4015000,16
4.74,3.76,0.00,0.08,0.00,241766778,235680000,5991000,16
3.76,3.00,0.00,0.06,0.00,187627161,181579000,5986000,16
4.82,3.85,0.00,0.08,0.00,240338744,236360000,4006000,16
4.72,3.75,0.00,0.08,0.00,239466299,235445000,4007000,16
6.02,4.81,0.00,0.10,0.00,300535115,296516000,4006000,16
4.91,3.89,0.00,0.09,0.00,251037756,249882000,999000,16
4.09,3.26,0.00,0.07,0.00,204033231,198043000,5971000,16
4.83,3.88,0.00,0.08,0.00,234211469,232177000,2001000,16
4.92,3.92,0.00,0.08,0.00,247642509,241592000,5989000,16
7.54,6.07,0.00,0.11,0.00,336906347,206855000,129909000,16
4.80,3.82,0.00,0.08,0.00,241043966,237014000,4000000,16
6.06,4.83,0.00,0.09,0.00,278714341,146828000,131846000,16
4.86,3.86,0.00,0.08,0.00,246771399,243842000,2998000,16
4.72,3.75,0.00,0.08,0.00,238701914,233682000,4993000,16
4.82,3.86,0.00,0.08,0.00,237657035,234641000,2995000,16
11.22,9.18,0.00,0.17,0.00,503886908,495863000,7997000,16
2.45,1.95,0.00,0.04,0.00,123759938,119841000,3961000,16
2.98,2.39,0.00,0.05,0.00,145048206,141043000,4001000,16
2.76,2.21,0.00,0.05,0.00,136333447,131324000,4974000,16
7.70,6.32,0.00,0.12,0.00,339426053,334387000,5005000,16
8.78,7.23,0.00,0.13,0.00,382627900,378655000,3996000,16
4.76,3.80,0.00,0.08,0.00,237259201,235247000,2002000,16
4.96,3.97,0.00,0.08,0.00,246518237,244547000,2004000,16
3.67,2.93,0.00,0.06,0.00,182460718,176448000,6015000,16
2.98,2.39,0.00,0.05,0.00,147068576,143094000,4002000,16
10.44,8.55,0.00,0.16,0.00,465788570,456772000,9015000,16
5.07,4.06,0.00,0.08,0.00,248438763,243408000,5008000,16
2.67,2.16,0.00,0.04,0.00,124041816,3012000,8137000,16
11.00,9.01,0.00,0.17,0.00,493752115,486588000,6994000,16
4.83,3.85,0.00,0.08,0.00,240636179,238521000,2004000,16
4.73,3.75,0.00,0.08,0.00,241458263,236437000,5009000,16
3.51,2.79,0.00,0.06,0.00,176532208,170509000,6017000,16
4.91,3.93,0.00,0.08,0.00,240461495,232490000,7982000,16
4.86,3.89,0.00,0.08,0.00,238929289,233944000,4977000,16
10.18,8.37,0.00,0.15,0.00,447359000,442174000,5001000,16
9.76,7.98,0.00,0.15,0.00,438914431,431544000,6992000,16
11.66,9.58,0.00,0.17,0.00,515414423,513448000,2001000,16
4.78,3.81,0.00,0.08,0.00,237808110,231673000,5965000,16
2.93,2.36,0.00,0.05,0.00,144950734,141942000,2998000,16
3.18,2.51,0.00,0.06,0.00,165087826,160016000,5000000,16
4.79,3.84,0.00,0.08,0.00,238216353,232172000,5978000,16
4.84,3.86,0.00,0.08,0.00,243013463,233049000,9959000,16
14.79,12.11,0.00,0.23,0.00,674297333,668959000,4999000,17
9.77,7.73,0.00,0.17,0.00,509412957,506388000,3002000,17
10.06,8.02,0.00,0.17,0.00,507191209,503220000,4001000,17
9.59,7.57,0.00,0.17,0.00,503938105,500819000,2998000,17
9.05,7.40,0.00,0.14,0.00,400290516,394263000,5988000,17
8.67,6.93,0.00,0.15,0.00,432856271,424748000,7995000,17
10.98,8.71,0.00,0.19,0.00,566458887,562445000,4003000,17
11.27,9.17,0.00,0.18,0.00,523345809,520209000,3001000,17
5.20,4.20,0.00,0.08,0.00,246901636,241907000,4998000,17
6.03,4.81,0.00,0.10,0.00,304855257,297818000,6972000,17
4.92,3.93,0.00,0.08,0.00,244804620,240801000,3996000,17
17.04,13.98,0.00,0.26,0.00,758474962,752440000,6003000,17
9.83,7.80,0.00,0.17,0.00,503689620,499657000,3997000,17
8.52,6.81,0.00,0.14,0.00,425876815,418881000,6998000,17
18.16,14.41,0.00,0.32,0.00,930217170,928112000,2000000,17
10.98,8.69,0.00,0.19,0.00,567437979,563437000,3996000,17
8.37,6.62,0.00,0.15,0.00,433476588,428439000,4993000,17
10.78,8.50,0.00,0.19,0.00,559091309,554050000,5000000,17
3.12,2.46,0.00,0.05,0.00,160356714,3088000,9265000,17
5.33,4.27,0.00,0.09,0.00,262050019,254911000,6997000,17
10.50,8.40,0.00,0.18,0.00,516926480,511953000,4999000,17
10.01,8.02,0.00,0.17,0.00,493671924,480666000,12990000,17
9.65,7.63,0.00,0.17,0.00,501223930,498125000,3000000,17
10.14,8.06,0.00,0.18,0.00,516042094,515013000,1001000,17
2.72,2.19,0.00,0.04,0.00,128220035,2815000,11696000,17
10.40,8.36,0.00,0.17,0.00,507466276,506450000,1000000,17
10.97,8.70,0.00,0.19,0.00,563251336,560246000,2995000,17
8.25,6.52,0.00,0.15,0.00,427902310,422788000,4997000,17
6.94,5.59,0.00,0.11,0.00,335612312,330533000,4992000,17
9.83,7.81,0.00,0.17,0.00,502254173,499120000,3000000,17
11.07,8.80,0.00,0.19,0.00,565040189,560073000,5000000,17
10.83,8.55,0.00,0.19,0.00,564974148,558000000,7000000,17
10.86,8.58,0.00,0.19,0.00,566311631,555181000,11003000,17
11.03,8.71,0.00,0.20,0.00,576092964,573076000,3000000,17
9.91,7.84,0.00,0.17,0.00,514010009,510008000,3992000,17
9.76,7.71,0.00,0.17,0.00,506926501,504897000,1999000,17
9.91,8.13,0.00,0.15,0.00,441214194,436254000,4991000,17
18.29,14.55,0.00,0.31,0.00,923501827,916480000,7003000,17
9.73,7.70,0.00,0.17,0.00,502449061,498280000,4002000,17
10.88,8.60,0.00,0.19,0.00,564376873,559355000,5003000,17
9.68,7.65,0.00,0.17,0.00,503430788,499386000,3995000,17
11.16,9.11,0.00,0.17,0.00,505898752,496923000,8998000,17
10.97,8.68,0.00,0.19,0.00,564509956,558410000,5993000,17
10.91,8.62,0.00,0.19,0.00,566526751,561557000,5004000,17
6.73,5.34,0.00,0.12,0.00,343481296,339459000,4005000,17
8.78,6.93,0.00,0.16,0.00,457164252,455042000,2000000,17
9.79,7.77,0.00,0.17,0.00,501205605,498194000,3001000,17
10.89,8.60,0.00,0.19,0.00,565661309,562639000,2998000,17
7.77,6.16,0.00,0.14,0.00,398413443,393263000,5003000,17
10.21,8.12,0.00,0.18,0.00,516469206,515354000,1000000,17
5.33,4.27,0.00,0.09,0.00,262952195,257847000,4997000,17
10.86,8.58,0.00,0.19,0.00,563353261,559212000,4001000,17
12.09,9.84,0.00,0.19,0.00,555082629,544064000,11001000,17
9.72,7.68,0.00,0.17,0.00,502994847,497987000,4999000,17
10.89,8.60,0.00,0.19,0.00,566549790,555374000,11007000,17
6.43,5.21,0.00,0.10,0.00,299914822,293771000,5995000,17
8.18,6.56,0.00,0.14,0.00,401300093,396020000,5000000,17
11.71,9.31,0.00,0.20,0.00,592791633,590653000,2002000,17
2.10,1.66,0.00,0.04,0.00,107410587,102437000,4972000,17
5.11,4.11,0.00,0.08,0.00,246685900,244608000,1996000,17
10.94,8.66,0.00,0.19,0.00,562674058,556719000,5996000,17
10.94,8.65,0.00,0.19,0.00,565998614,558965000,6987000,17
10.96,8.68,0.00,0.19,0.00,564511806,560459000,3996000,17
2.06,1.67,0.00,0.03,0.00,101123604,99038000,2000000,17
6.05,4.84,0.00,0.10,0.00,299661250,297575000,2003000,17
9.82,7.77,0.00,0.17,0.00,503049435,499034000,4000000,17
10.94,8.66,0.00,0.19,0.00,563440695,560382000,2996000,17
10.90,8.60,0.00,0.19,0.00,567046469,562036000,5000000,17
10.98,8.69,0.00,0.19,0.00,563050856,556851000,5987000,17
10.96,8.66,0.00,0.19,0.00,566451437,561302000,4993000,17
11.56,9.45,0.00,0.18,0.00,519661908,515601000,4004000,17
11.14,8.87,0.00,0.19,0.00,561370175,556365000,5003000,17
5.37,4.30,0.00,0.09,0.00,264636173,259629000,4992000,17
9.76,7.70,0.00,0.17,0.00,502167466,499134000,3000000,17
9.74,7.70,0.00,0.17,0.00,501693199,498684000,2998000,17
12.33,10.15,0.00,0.18,0.00,539221722,534088000,5000000,17
10.71,8.68,0.00,0.17,0.00,498179396,492177000,6002000,17
10.90,8.60,0.00,0.19,0.00,565787064,559792000,5997000,17
10.98,8.68,0.00,0.19,0.00,564379120,559349000,4994000,17
10.84,8.89,0.00,0.16,0.00,476368569,469357000,7005000,17
4.83,3.74,0.00,0.08,0.00,237228789,232028000,5000000,18
4.88,3.77,0.00,0.08,0.00,238521623,229535000,8981000,18
3.99,3.19,0.00,0.07,0.00,196280663,193256000,3003000,18
2.97,2.34,0.00,0.05,0.00,153760977,8750000,0,18
4.23,3.28,0.00,0.07,0.00,201458900,196435000,5011000,18
4.59,3.58,0.00,0.07,0.00,217937851,208923000,8996000,18
10.10,8.03,0.00,0.16,0.00,464243441,316148000,148069000,18
3.64,2.92,0.00,0.06,0.00,178934685,175972000,2999000,18
3.07,2.41,0.00,0.04,0.00,132898857,128953000,3967000,18
4.65,3.61,0.00,0.07,0.00,220045193,215022000,5000000,18
10.09,8.03,0.00,0.16,0.00,464540728,328678000,135867000,18
4.64,3.62,0.00,0.07,0.00,220117430,212979000,6999000,18
1.20,0.94,0.00,0.02,0.00,62959329,59021000,3934000,18
6.11,4.81,0.00,0.10,0.00,289515898,285452000,4006000,18
14.74,11.46,0.00,0.22,0.00,643735920,628724000,14993000,18
4.65,3.63,0.00,0.07,0.00,218238933,213288000,5006000,18
5.02,3.94,0.00,0.08,0.00,235571843,228615000,6988000,18
2.93,2.35,0.00,0.05,0.00,142128501,135104000,7005000,18
2.60,2.09,0.00,0.04,0.00,122449277,3062000,5914000,18
4.93,3.86,0.00,0.08,0.00,233045614,224021000,8960000,18
5.05,3.96,0.00,0.08,0.00,236492250,229366000,6980000,18
2.64,2.13,0.00,0.04,0.00,123168797,3623000,5435000,18
8.60,6.92,0.00,0.14,0.00,414679811,410557000,4005000,18
6.74,5.39,0.00,0.11,0.00,309416723,160179000,149167000,18
4.37,3.38,0.00,0.07,0.00,206252316,199201000,7007000,18
5.23,4.08,0.00,0.08,0.00,247532023,243454000,4007000,18
2.29,1.83,0.00,0.04,0.00,112360555,108332000,4012000,18
2.57,2.06,0.00,0.04,0.00,124543991,2030000,7088000,18
4.75,3.71,0.00,0.08,0.00,222290529,215250000,7008000,18
8.77,7.01,0.00,0.14,0.00,410994474,274953000,135977000,18
17.20,13.78,0.00,0.27,0.00,795532322,643603000,151906000,18
12.31,9.93,0.00,0.19,0.00,555504012,547476000,7992000,18
5.02,3.91,0.00,0.08,0.00,237715437,232524000,5011000,18
4.96,3.88,0.00,0.08,0.00,233754319,228640000,4992000,18
4.69,3.64,0.00,0.08,0.00,222132590,217048000,4978000,18
4.60,3.58,0.00,0.07,0.00,216194924,209050000,7001000,18
10.31,8.20,0.00,0.16,0.00,468269786,324435000,143749000,18
2.61,2.11,0.00,0.04,0.00,122461712,2048000,7168000,18
13.02,10.50,0.00,0.20,0.00,600869313,467621000,133176000,18
5.19,4.07,0.00,0.08,0.00,240047785,234023000,6000000,18
4.68,3.66,0.00,0.07,0.00,218994937,213009000,5972000,18
14.39,11.25,0.00,0.22,0.00,644006790,634906000,8998000,18
10.94,8.73,0.00,0.17,0.00,495747751,353759000,141903000,18
9.07,7.22,0.00,0.14,0.00,420496016,413317000,6988000,18
3.76,3.00,0.00,0.06,0.00,184767213,181764000,3012000,18
10.80,8.61,0.00,0.17,0.00,506059320,501078000,5000000,18
23.12,18.60,0.00,0.38,0.00,1118431739,1116263000,2000000,18
5.31,4.16,0.00,0.08,0.00,249614613,246414000,3005000,18
4.74,3.72,0.00,0.07,0.00,219044684,215025000,4019000,18
4.78,3.74,0.00,0.08,0.00,223163327,218940000,3998000,18
3.73,2.99,0.00,0.06,0.00,182613113,178075000,4001000,18
4.80,3.77,0.00,0.07,0.00,220194337,215154000,5003000,18
2.64,2.14,0.00,0.04,0.00,123110724,962000,7472000,18
4.69,3.66,0.00,0.07,0.00,219163388,214106000,5002000,18
3.00,2.42,0.00,0.05,0.00,144209101,143117000,1000000,18
4.54,3.66,0.00,0.07,0.00,215681767,214564000,1002000,18
3.72,2.98,0.00,0.06,0.00,181024033,175993000,4999000,18
4.66,3.63,0.00,0.07,0.00,221004889,216000000,5000000,18
2.74,2.21,0.00,0.05,0.00,132879434,129864000,2996000,18
4.69,3.68,0.00,0.07,0.00,215551625,208527000,6984000,18
4.16,3.32,0.00,0.07,0.00,208781283,206766000,1997000,18
4.45,3.49,0.00,0.07,0.00,204804914,198764000,5992000,18
14.42,11.60,0.00,0.22,0.00,645644095,508496000,137134000,18
3.32,2.63,0.00,0.06,0.00,168169649,165110000,3002000,18
4.99,3.90,0.00,0.08,0.00,235613689,228548000,7016000,18
2.57,2.04,0.00,0.04,0.00,123085948,121017000,2000000,18
10.53,8.43,0.00,0.16,0.00,468565694,327665000,140856000,18
4.65,3.61,0.00,0.08,0.00,220901938,215740000,4993000,18
14.70,11.78,0.00,0.23,0.00,666749794,523777000,142939000,18
4.72,3.70,0.00,0.07,0.00,218429283,212464000,5984000,18
4.45,3.48,0.00,0.07,0.00,207404366,196362000,11020000,18
4.65,3.62,0.00,0.07,0.00,220281157,215292000,4983000,18
4.38,3.41,0.00,0.07,0.00,207054409,198030000,9001000,18
4.42,3.46,0.00,0.07,0.00,202597405,197568000,4989000,18
4.81,3.79,0.00,0.07,0.00,218328187,212294000,6008000,18
4.70,3.68,0.00,0.07,0.00,217093732,212051000,5001000,18
4.76,3.73,0.00,0.07,0.00,218620214,213630000,4991000,18
10.39,8.28,0.00,0.16,0.00,468542888,324633000,143837000,18
10.09,8.05,0.00,0.15,0.00,452751470,307762000,144888000,18
4.78,3.75,0.00,0.07,0.00,218798684,214771000,3995000,18
9.02,7.40,0.00,0.14,0.00,400598511,364168000,34015000,19
2.91,2.37,0.00,0.04,0.00,132199367,72568000,59645000,19
3.05,2.43,0.00,0.05,0.00,149881091,1055000,6331000,19
2.54,2.03,0.00,0.04,0.00,123554029,3026000,5829000,19
2.63,2.09,0.00,0.04,0.00,128509353,95255000,33088000,19
3.80,3.01,0.00,0.06,0.00,185333575,122228000,63118000,19
2.42,1.90,0.00,0.04,0.00,123717082,82489000,41244000,19
2.54,2.03,0.00,0.04,0.00,124850304,1919000,7519000,19
2.71,2.19,0.00,0.04,0.00,126212766,911000,8119000,19
2.58,2.07,0.00,0.04,0.00,122036955,1951000,5691000,19
2.57,2.07,0.00,0.04,0.00,122232201,3168000,6336000,19
11.46,9.35,0.00,0.18,0.00,519669086,437703000,81944000,19
2.60,2.10,0.00,0.04,0.00,120963365,992000,6779000,19
12.79,10.50,0.00,0.19,0.00,562885047,523823000,39061000,19
10.94,8.91,0.00,0.17,0.00,498734805,455743000,42975000,19
2.64,2.14,0.00,0.04,0.00,123436743,91317000,32111000,19
9.96,8.10,0.00,0.15,0.00,450879260,379833000,70968000,19
9.90,8.11,0.00,0.15,0.00,439627089,395529000,43947000,19
2.55,2.03,0.00,0.04,0.00,125332151,3218000,6436000,19
2.88,2.31,0.00,0.05,0.00,135636231,102516000,33167000,19
2.39,1.89,0.00,0.04,0.00,120027886,84023000,36010000,19
9.98,8.13,0.00,0.15,0.00,447365337,374220000,73043000,19
2.56,2.05,0.00,0.04,0.00,124224266,1029000,8035000,19
2.59,2.08,0.00,0.04,0.00,122474192,7831000,0,19
2.06,1.63,0.00,0.03,0.00,100520281,58752000,41824000,19
8.12,6.63,0.00,0.12,0.00,358382982,294209000,64045000,19
2.67,2.10,0.00,0.05,0.00,132753312,93849000,38937000,19
2.47,1.96,0.00,0.04,0.00,121486753,89343000,32123000,19
2.25,1.80,0.00,0.04,0.00,105879836,72901000,32955000,19
1.99,1.60,0.00,0.03,0.00,96632949,95487000,994000,19
2.54,2.02,0.00,0.04,0.00,124630186,83747000,40876000,19
2.15,1.72,0.00,0.04,0.00,105262868,67503000,37722000,19
2.86,2.28,0.00,0.05,0.00,140134011,108083000,32024000,19
2.31,1.85,0.00,0.04,0.00,106380499,74211000,32091000,19
3.94,3.18,0.00,0.06,0.00,175211481,113120000,62066000,19
2.48,1.96,0.00,0.04,0.00,121458959,84295000,37130000,19
2.59,2.07,0.00,0.04,0.00,122966966,90963000,31987000,19
2.58,2.07,0.00,0.04,0.00,123822710,4064000,4933000,19
3.54,2.85,0.00,0.06,0.00,165207561,105105000,60060000,19
3.53,2.83,0.00,0.06,0.00,164077264,101438000,62653000,19
3.27,2.61,0.00,0.05,0.00,152059159,72999000,78999000,19
2.58,2.07,0.00,0.04,0.00,123876275,3001000,5900000,19
8.66,7.07,0.00,0.13,0.00,386043284,343954000,41994000,19
3.39,2.70,0.00,0.05,0.00,158385231,93190000,65132000,19
3.81,3.04,0.00,0.06,0.00,177401715,108230000,69147000,19
3.13,2.51,0.00,0.05,0.00,142829497,74890000,67901000,19
2.62,2.11,0.00,0.04,0.00,122229663,1131000,7921000,19
2.85,2.30,0.00,0.04,0.00,129216856,95062000,34022000,19
13.88,11.47,0.00,0.20,0.00,591833777,551783000,39984000,19
12.81,10.36,0.00,0.20,0.00,590791567,529942000,60878000,19
2.60,2.09,0.00,0.04,0.00,123701244,1028000,8079000,19
2.86,2.31,0.00,0.04,0.00,131068221,97036000,34012000,19
2.54,2.02,0.00,0.04,0.00,121889345,89892000,31961000,19
2.82,2.27,0.00,0.04,0.00,131432835,101559000,29870000,19
6.60,5.49,0.00,0.09,0.00,269567775,231590000,37932000,19
3.20,2.54,0.00,0.05,0.00,151104208,86487000,64617000,19
2.54,2.01,0.00,0.04,0.00,124994889,90692000,34261000,19
2.52,2.01,0.00,0.04,0.00,118788476,78849000,39923000,19
13.92,11.38,0.00,0.21,0.00,623124781,586136000,36945000,19
2.65,2.13,0.00,0.04,0.00,125248003,2728000,6327000,19
2.46,1.96,0.00,0.04,0.00,119419795,81202000,38094000,19
3.50,2.78,0.00,0.06,0.00,165933686,98549000,67375000,19
2.39,1.91,0.00,0.04,0.00,116044714,84005000,32001000,19
10.31,8.40,0.00,0.16,0.00,460064075,383991000,75998000,19
3.46,2.80,0.00,0.06,0.00,162230716,103132000,59075000,19
14.85,12.12,0.00,0.22,0.00,658533948,587444000,71053000,19
5.95,4.94,0.00,0.08,0.00,245372358,206290000,39054000,19
2.57,2.05,0.00,0.04,0.00,120849343,89868000,30954000,19
1.56,1.24,0.00,0.03,0.00,79216577,78194000,1002000,19
2.88,2.33,0.00,0.04,0.00,131179705,103034000,28009000,19
12.21,9.97,0.00,0.18,0.00,543671770,469550000,74086000,19
2.82,2.26,0.00,0.05,0.00,134558056,102636000,31886000,19
2.62,2.08,0.00,0.04,0.00,127766602,96736000,30915000,19
2.66,2.16,0.00,0.04,0.00,123037621,94001000,29000000,19
2.67,2.16,0.00,0.04,0.00,122402643,9183000,0,19
10.47,8.56,0.00,0.16,0.00,464589565,427508000,37044000,19
3.49,2.78,0.00,0.06,0.00,163443687,99261000,64169000,19
14.15,11.67,0.00,0.20,0.00,600902953,531869000,68983000,19
2.61,2.09,0.00,0.04,0.00,124575178,1980000,6930000,19
2.59,2.05,0.00,0.04,0.00,128274148,978000,8661000,19
0.33,0.25,0.00,0.01,0.00,21337015,20130000,958000,20
0.04,0.03,0.00,0.00,0.00,2131792,1074000,1074000,20
0.03,0.03,0.00,0.00,0.00,2183343,1107000,1107000,20
0.03,0.02,0.00,0.00,0.00,2165737,2153000,0,20
0.87,0.69,0.00,0.01,0.00,41961213,39916000,2047000,20
0.33,0.26,0.00,0.01,0.00,17025744,14030000,3006000,20
0.83,0.65,0.00,0.01,0.00,42840077,41839000,1020000,20
0.72,0.57,0.00,0.01,0.00,38756751,36739000,2041000,20
1.31,1.02,0.00,0.02,0.00,70232221,67209000,3009000,20
0.40,0.30,0.00,0.01,0.00,23924876,19948000,3989000,20
0.27,0.20,0.00,0.01,0.00,18269571,15382000,2884000,20
0.04,0.03,0.00,0.00,0.00,2347388,2379000,0,20
0.33,0.25,0.00,0.01,0.00,20411545,19373000,1019000,20
0.84,0.66,0.00,0.02,0.00,45254958,40332000,4918000,20
0.79,0.63,0.00,0.01,0.00,40451192,38327000,2017000,20
0.36,0.27,0.00,0.01,0.00,21144394,20139000,1006000,20
0.32,0.24,0.00,0.01,0.00,19445381,16263000,3049000,20
0.04,0.03,0.00,0.00,0.00,2118907,1057000,1057000,20
0.68,0.51,0.00,0.01,0.00,41622837,40505000,1012000,20
0.77,0.60,0.00,0.01,0.00,41715948,41739000,0,20
0.37,0.29,0.00,0.01,0.00,20855412,18843000,1983000,20
0.41,0.30,0.00,0.01,0.00,25465480,22528000,2938000,20
0.84,0.69,0.00,0.01,0.00,36770889,36697000,0,20
0.65,0.52,0.00,0.01,0.00,32529384,30550000,1970000,20
0.40,0.30,0.00,0.01,0.00,25167983,22042000,3005000,20
0.46,0.34,0.00,0.01,0.00,27763396,24777000,2973000,20
0.28,0.21,0.00,0.01,0.00,17353820,13513000,3861000,20
0.39,0.29,0.00,0.01,0.00,22973504,20953000,1995000,20
0.03,0.02,0.00,0.00,0.00,2408927,826000,1652000,20
0.45,0.34,0.00,0.01,0.00,26629163,19492000,7181000,20
0.04,0.03,0.00,0.00,0.00,2193316,1121000,1121000,20
0.36,0.28,0.00,0.01,0.00,20514783,19546000,1028000,20
0.72,0.57,0.00,0.01,0.00,34863702,33789000,1023000,20
0.75,0.58,0.00,0.01,0.00,41807822,39816000,1990000,20
0.49,0.37,0.00,0.01,0.00,27468656,25291000,2023000,20
0.63,0.49,0.00,0.01,0.00,35144782,32256000,2932000,20
0.26,0.20,0.00,0.01,0.00,15817112,14833000,988000,20
0.25,0.19,0.00,0.01,0.00,15327559,14452000,963000,20
0.39,0.30,0.00,0.01,0.00,23319819,20274000,3041000,20
0.64,0.48,0.00,0.01,0.00,37642724,36491000,986000,20
0.43,0.32,0.00,0.01,0.00,26402416,22340000,4061000,20
0.03,0.02,0.00,0.00,0.00,2206664,1132000,1132000,20
0.26,0.19,0.00,0.01,0.00,15616314,14707000,980000,20
0.33,0.25,0.00,0.01,0.00,19640008,19622000,0,20
0.83,0.65,0.00,0.02,0.00,44477470,42513000,2024000,20
0.87,0.68,0.00,0.02,0.00,45796713,42933000,2927000,20
0.61,0.47,0.00,0.01,0.00,35632129,33670000,1980000,20
0.03,0.02,0.00,0.00,0.00,2215025,1106000,1106000,20
0.41,0.33,0.00,0.01,0.00,21561647,17578000,3906000,20
0.46,0.34,0.00,0.01,0.00,28517160,23557000,4907000,20
0.81,0.63,0.00,0.02,0.00,43568321,38660000,4956000,20
0.71,0.55,0.00,0.01,0.00,39376213,31316000,8081000,20
0.81,0.63,0.00,0.01,0.00,43091248,42093000,1002000,20
0.78,0.60,0.00,0.01,0.00,42124820,41138000,1003000,20
0.31,0.22,0.00,0.01,0.00,20085410,19051000,1002000,20
0.77,0.58,0.00,0.02,0.00,45981665,41954000,3995000,20
0.77,0.60,0.00,0.01,0.00,41933488,40932000,998000,20
0.43,0.33,0.00,0.01,0.00,23158718,21078000,2007000,20
0.72,0.56,0.00,0.01,0.00,38582120,32653000,5936000,20
0.34,0.27,0.00,0.01,0.00,17376838,13250000,4077000,20
0.78,0.61,0.00,0.01,0.00,39615123,36660000,2972000,20
0.48,0.37,0.00,0.01,0.00,26746150,23663000,3086000,20
0.49,0.37,0.00,0.01,0.00,30234822,25196000,5039000,20
0.85,0.70,0.00,0.01,0.00,36066446,33910000,1994000,20
0.64,0.50,0.00,0.01,0.00,35364276,34415000,1012000,20
0.28,0.22,0.00,0.01,0.00,15721548,13725000,1960000,20
0.50,0.39,0.00,0.01,0.00,27786604,21689000,5915000,20
0.34,0.26,0.00,0.01,0.00,20454290,16373000,4093000,20
0.82,0.64,0.00,0.01,0.00,41942707,38947000,2995000,20
0.03,0.03,0.00,0.00,0.00,2178284,730000,1461000,20
0.74,0.57,0.00,0.01,0.00,40931989,39942000,998000,20
0.89,0.70,0.00,0.02,0.00,47230781,44207000,3014000,20
0.29,0.22,0.00,0.01,0.00,16663915,14694000,1959000,20
0.78,0.61,0.00,0.01,0.00,41043488,36080000,5011000,20
1.48,1.19,0.00,0.02,0.00,71612751,25187000,46345000,20
0.40,0.30,0.00,0.01,0.00,24944438,21738000,2964000,20
0.43,0.32,0.00,0.01,0.00,24476117,22455000,2041000,20
0.03,0.03,0.00,0.00,0.00,2193362,1101000,1101000,20
0.78,0.61,0.00,0.01,0.00,40620324,39574000,989000,20
0.81,0.63,0.00,0.01,0.00,43194066,42239000,1005000,20
0.09,0.06,0.00,0.00,0.00,5668355,4519000,903000,21
2.89,2.23,0.00,0.06,0.00,164944912,2825000,6373000,21
0.22,0.17,0.00,0.00,0.00,14385471,5758000,8637000,21
0.48,0.36,0.00,0.01,0.00,27217022,21015000,6004000,21
6.11,4.88,0.00,0.10,0.00,307677906,304628000,2996000,21
0.08,0.06,0.00,0.00,0.00,5147406,4161000,1040000,21
5.73,4.55,0.00,0.10,0.00,293021602,284024000,9000000,21
0.91,0.70,0.00,0.02,0.00,49144649,40240000,8833000,21
0.31,0.24,0.00,0.01,0.00,16286497,11137000,5062000,21
0.39,0.29,0.00,0.01,0.00,22957036,14362000,8617000,21
7.41,5.89,0.00,0.13,0.00,374106634,359076000,15003000,21
5.10,4.12,0.00,0.08,0.00,242787142,241696000,1002000,21
0.03,0.02,0.00,0.00,0.00,2279631,1174000,1174000,21
0.12,0.10,0.00,0.00,0.00,6973059,6987000,0,21
4.24,3.39,0.00,0.07,0.00,210276797,208220000,2002000,21
4.28,3.43,0.00,0.07,0.00,212287475,211268000,1001000,21
0.54,0.41,0.00,0.01,0.00,31312887,22203000,9083000,21
4.15,3.30,0.00,0.07,0.00,211536952,210541000,997000,21
0.68,0.52,0.00,0.01,0.00,38098684,16062000,22085000,21
0.08,0.06,0.00,0.00,0.00,4335660,2173000,2173000,21
4.09,3.29,0.00,0.07,0.00,198955151,197906000,999000,21
4.96,4.02,0.00,0.08,0.00,233914312,233807000,0,21
0.83,0.64,0.00,0.01,0.00,41811059,30832000,10940000,21
0.13,0.11,0.00,0.00,0.00,6519157,5517000,919000,21
0.11,0.09,0.00,0.00,0.00,5872462,3349000,2511000,21
0.08,0.06,0.00,0.00,0.00,4335344,3405000,851000,21
0.95,0.74,0.00,0.02,0.00,50446537,41344000,9075000,21
0.36,0.27,0.00,0.01,0.00,22376684,19515000,2927000,21
0.13,0.09,0.00,0.00,0.00,8081380,7131000,1018000,21
0.89,0.68,0.00,0.02,0.00,51341651,44153000,7024000,21
5.21,4.13,0.00,0.09,0.00,266628247,244662000,21969000,21
14.34,11.50,0.00,0.24,0.00,698631878,697640000,999000,21
0.53,0.40,0.00,0.01,0.00,30131694,19076000,11044000,21
0.08,0.06,0.00,0.00,0.00,5622791,4699000,939000,21
0.21,0.16,0.00,0.00,0.00,12756263,8522000,4261000,21
4.84,3.90,0.00,0.08,0.00,234652109,233547000,998000,21
0.38,0.30,0.00,0.01,0.00,17324612,7087000,10125000,21
0.12,0.09,0.00,0.00,0.00,6742088,5642000,1128000,21
4.21,3.36,0.00,0.07,0.00,209304382,208256000,1001000,21
0.11,0.08,0.00,0.00,0.00,7107880,5090000,2036000,21
3.88,3.11,0.00,0.06,0.00,190876597,189897000,999000,21
3.89,3.11,0.00,0.07,0.00,193324995,192341000,1001000,21
0.30,0.23,0.00,0.01,0.00,18537449,8785000,9762000,21
0.16,0.13,0.00,0.00,0.00,8727276,6768000,1933000,21
0.29,0.22,0.00,0.01,0.00,16356656,13503000,2893000,21
0.57,0.43,0.00,0.01,0.00,35823326,32933000,2905000,21
3.23,2.59,0.00,0.05,0.00,158131137,158045000,0,21
3.18,2.54,0.00,0.05,0.00,158978077,156867000,1998000,21
0.07,0.06,0.00,0.00,0.00,4343500,2598000,1732000,21
0.38,0.29,0.00,0.01,0.00,22652107,19540000,3085000,21
4.65,3.77,0.00,0.07,0.00,216883756,215832000,999000,21
0.07,0.05,0.00,0.00,0.00,4423587,4439000,0,21
5.42,4.33,0.00,0.09,0.00,269702027,268570000,998000,21
0.10,0.08,0.00,0.00,0.00,4538136,3432000,1144000,21
0.12,0.09,0.00,0.00,0.00,6518864,6494000,0,21
0.04,0.03,0.00,0.00,0.00,2557855,862000,1725000,21
0.12,0.09,0.00,0.00,0.00,7194153,5410000,1803000,21
0.45,0.34,0.00,0.01,0.00,26487393,17339000,9179000,21
4.81,3.91,0.00,0.08,0.00,221755211,220815000,1003000,21
0.47,0.36,0.00,0.01,0.00,26657992,19736000,6907000,21
0.26,0.20,0.00,0.01,0.00,15853187,14867000,991000,21
0.09,0.07,0.00,0.00,0.00,6306071,3194000,3194000,21
4.25,3.39,0.00,0.07,0.00,212413183,211431000,1002000,21
4.65,3.72,0.00,0.08,0.00,231500336,230334000,1001000,21
0.47,0.36,0.00,0.01,0.00,26281110,21260000,5062000,21
3.94,3.16,0.00,0.07,0.00,194509652,193357000,1001000,21
0.37,0.28,0.00,0.01,0.00,20822132,6934000,13869000,21
0.33,0.25,0.00,0.01,0.00,17737154,15645000,2086000,21
2.67,2.15,0.00,0.04,0.00,123772735,2146000,6438000,21
2.16,1.71,0.00,0.03,0.00,99461771,82558000,16909000,21
0.71,0.55,0.00,0.01,0.00,36254725,21066000,15047000,21
0.07,0.05,0.00,0.00,0.00,4888030,4864000,0,21
0.09,0.06,0.00,0.00,0.00,5502430,3710000,1855000,21
4.29,3.43,0.00,0.07,0.00,213339715,210403000,2991000,21
0.08,0.06,0.00,0.00,0.00,5127403,4098000,1024000,21
3.27,2.61,0.00,0.06,0.00,162539172,160561000,1994000,21
3.23,2.59,0.00,0.05,0.00,158469213,157480000,996000,21
3.19,2.56,0.00,0.05,0.00,156732204,155743000,998000,21
0.36,0.28,0.00,0.01,0.00,19946911,8961000,10953000,21
0.08,0.06,0.00,0.00,0.00,4954503,3973000,993000,21
0.25,0.19,0.00,0.01,0.00,15923186,12755000,2943000,22
0.32,0.26,0.00,0.01,0.00,17801335,15810000,1976000,22
0.69,0.55,0.00,0.01,0.00,36348728,36374000,0,22
0.69,0.56,0.00,0.01,0.00,33266146,32257000,1008000,22
0.64,0.48,0.00,0.01,0.00,37808026,36851000,1023000,22
0.29,0.22,0.00,0.01,0.00,16271867,13438000,2879000,22
0.36,0.27,0.00,0.01,0.00,21350098,19318000,2033000,22
0.25,0.19,0.00,0.01,0.00,15518465,12611000,2910000,22
0.26,0.20,0.00,0.01,0.00,15518566,11668000,3889000,22
0.28,0.21,0.00,0.01,0.00,17149787,13110000,4033000,22
0.29,0.22,0.00,0.01,0.00,17555657,16592000,1037000,22
0.29,0.22,0.00,0.01,0.00,18113215,14007000,4002000,22
0.69,0.54,0.00,0.01,0.00,37376539,37407000,0,22
0.71,0.54,0.00,0.01,0.00,39385670,32486000,6891000,22
0.68,0.53,0.00,0.01,0.00,36750165,35764000,993000,22
0.28,0.21,0.00,0.01,0.00,16621570,13727000,2941000,22
0.29,0.21,0.00,0.01,0.00,17305973,13457000,3845000,22
0.25,0.19,0.00,0.01,0.00,15479354,14487000,1034000,22
0.27,0.20,0.00,0.01,0.00,16150547,15213000,1014000,22
0.25,0.19,0.00,0.01,0.00,16134467,14250000,1900000,22
0.23,0.17,0.00,0.01,0.00,15255076,13291000,1898000,22
0.63,0.48,0.00,0.01,0.00,36373123,31449000,4914000,22
0.27,0.19,0.00,0.01,0.00,16390913,16360000,0,22
0.63,0.48,0.00,0.01,0.00,37477956,36485000,1013000,22
0.57,0.44,0.00,0.01,0.00,30384591,23248000,7075000,22
0.65,0.50,0.00,0.01,0.00,36780163,34813000,1989000,22
0.66,0.52,0.00,0.01,0.00,34958967,33964000,998000,22
0.67,0.52,0.00,0.01,0.00,34738886,33629000,1019000,22
0.26,0.21,0.00,0.00,0.00,13237730,12252000,1021000,22
2.23,1.79,0.00,0.04,0.00,105841055,47917000,57900000,22
0.26,0.19,0.00,0.01,0.00,17111128,13096000,4029000,22
0.64,0.49,0.00,0.01,0.00,36298711,35303000,1008000,22
0.66,0.51,0.00,0.01,0.00,36731250,33769000,2979000,22
0.27,0.21,0.00,0.00,0.00,13778055,11658000,2119000,22
0.29,0.22,0.00,0.01,0.00,16833110,14850000,1980000,22
0.24,0.18,0.00,0.01,0.00,14826388,11148000,3716000,22
1.25,0.98,0.00,0.02,0.00,65381945,58405000,6929000,22
0.25,0.19,0.00,0.01,0.00,15310140,14315000,1022000,22
0.63,0.48,0.00,0.01,0.00,36446198,34397000,2023000,22
0.61,0.46,0.00,0.01,0.00,36880918,34860000,2050000,22
0.71,0.58,0.00,0.01,0.00,31678709,29719000,1981000,22
0.27,0.20,0.00,0.01,0.00,15879601,13951000,1993000,22
0.28,0.21,0.00,0.01,0.00,18542091,15421000,3084000,22
0.65,0.50,0.00,0.01,0.00,36194408,33279000,2936000,22
0.87,0.68,0.00,0.02,0.00,48247087,41216000,7036000,22
0.67,0.53,0.00,0.01,0.00,35166538,33244000,1955000,22
0.65,0.52,0.00,0.01,0.00,34217647,33217000,1006000,22
0.27,0.21,0.00,0.01,0.00,15872939,13892000,1984000,22
0.27,0.21,0.00,0.01,0.00,15979759,13000000,3000000,22
0.72,0.59,0.00,0.01,0.00,31085033,31095000,0,22
0.25,0.18,0.00,0.01,0.00,14844285,13944000,929000,22
0.27,0.21,0.00,0.01,0.00,15814438,13978000,1863000,22
0.28,0.22,0.00,0.01,0.00,15812581,13866000,1980000,22
0.29,0.22,0.00,0.01,0.00,17455049,13603000,3886000,22
0.27,0.21,0.00,0.01,0.00,14813158,12868000,1979000,22
0.27,0.20,0.00,0.01,0.00,16935704,13786000,3181000,22
0.66,0.51,0.00,0.01,0.00,37252976,34232000,2934000,22
0.41,0.32,0.00,0.01,0.00,23562320,17393000,6138000,22
0.26,0.20,0.00,0.00,0.00,13385900,12415000,955000,22
0.27,0.21,0.00,0.00,0.00,14223990,12301000,1892000,22
0.27,0.21,0.00,0.01,0.00,15967692,11274000,4697000,22
0.28,0.22,0.00,0.00,0.00,14214966,12085000,2014000,22
0.67,0.52,0.00,0.01,0.00,36112578,35119000,1003000,22
0.63,0.49,0.00,0.01,0.00,35254585,34326000,1009000,22
0.69,0.54,0.00,0.01,0.00,36510700,33342000,3031000,22
0.26,0.19,0.00,0.01,0.00,16148111,14171000,2024000,22
0.72,0.56,0.00,0.01,0.00,40006284,37134000,2931000,22
0.31,0.24,0.00,0.01,0.00,18123821,17221000,956000,22
0.64,0.50,0.00,0.01,0.00,35087553,33109000,2006000,22
0.28,0.21,0.00,0.01,0.00,15695760,12784000,2950000,22
0.39,0.29,0.00,0.01,0.00,24281045,22274000,2024000,22
0.29,0.23,0.00,0.00,0.00,14181840,12141000,2023000,22
0.66,0.51,0.00,0.01,0.00,36739681,32939000,3875000,22
0.28,0.21,0.00,0.01,0.00,17045496,15026000,2003000,22
0.65,0.50,0.00,0.01,0.00,36456092,33495000,2955000,22
0.25,0.18,0.00,0.01,0.00,16442216,15476000,967000,22
0.67,0.53,0.00,0.01,0.00,34682946,30858000,3857000,22
0.68,0.53,0.00,0.01,0.00,35781145,32956000,2907000,22
0.29,0.23,0.00,0.01,0.00,14892157,12838000,1975000,22
0.25,0.19,0.00,0.01,0.00,15556671,15630000,0,22
0.89,0.69,0.00,0.02,0.00,50817952,42604000,7926000,23
3.36,2.70,0.00,0.06,0.00,163436096,150485000,12955000,23
3.24,2.61,0.00,0.05,0.00,156497771,147571000,8973000,23
3.20,2.58,0.00,0.05,0.00,153050331,149027000,4000000,23
1.70,1.35,0.00,0.03,0.00,83540172,72455000,11069000,23
1.49,1.18,0.00,0.03,0.00,74130052,67059000,7006000,23
1.57,1.25,0.00,0.03,0.00,79338797,74294000,5019000,23
1.58,1.25,0.00,0.03,0.00,79786931,72633000,7061000,23
9.66,7.61,0.00,0.17,0.00,491788737,480737000,10993000,23
3.56,2.85,0.00,0.06,0.00,173744497,164602000,9033000,23
3.31,2.67,0.00,0.05,0.00,156120042,146089000,10006000,23
3.24,2.62,0.00,0.05,0.00,153077857,146733000,5989000,23
1.66,1.31,0.00,0.03,0.00,83884315,78804000,4987000,23
0.73,0.57,0.00,0.01,0.00,40148861,39175000,1004000,23
1.62,1.26,0.00,0.03,0.00,86628532,76492000,10064000,23
0.95,0.75,0.00,0.02,0.00,50540550,48582000,1982000,23
1.63,1.28,0.00,0.03,0.00,85053620,78029000,7002000,23
1.39,1.10,0.00,0.02,0.00,70434950,65355000,4951000,23
1.65,1.29,0.00,0.03,0.00,85378598,70315000,15067000,23
3.23,2.62,0.00,0.05,0.00,150709120,147553000,3011000,23
1.64,1.30,0.00,0.03,0.00,81965863,72059000,9871000,23
3.19,2.58,0.00,0.05,0.00,152789413,146805000,5992000,23
3.25,2.62,0.00,0.05,0.00,154571071,146517000,8028000,23
0.73,0.56,0.00,0.01,0.00,43242684,42287000,983000,23
1.44,1.12,0.00,0.03,0.00,77084882,69085000,8009000,23
1.53,1.20,0.00,0.03,0.00,78825862,67679000,11111000,23
1.96,1.56,0.00,0.03,0.00,98501027,91505000,6962000,23
1.64,1.30,0.00,0.03,0.00,83306291,78271000,5017000,23
1.67,1.33,0.00,0.03,0.00,82227368,75190000,7017000,23
1.56,1.23,0.00,0.03,0.00,80171184,71170000,9021000,23
1.70,1.34,0.00,0.03,0.00,85949724,78938000,6994000,23
1.53,1.21,0.00,0.03,0.00,79185495,69162000,10023000,23
3.44,2.79,0.00,0.05,0.00,160215974,155136000,5004000,23
1.48,1.17,0.00,0.03,0.00,75237570,67198000,8023000,23
3.25,2.63,0.00,0.05,0.00,151223179,144236000,6963000,23
1.45,1.14,0.00,0.02,0.00,72918467,67010000,5912000,23
1.47,1.16,0.00,0.03,0.00,74815756,71799000,3033000,23
1.74,1.40,0.00,0.03,0.00,83964217,76843000,7077000,23
2.55,2.06,0.00,0.04,0.00,122984160,120997000,1999000,23
3.82,3.05,0.00,0.06,0.00,185985846,179957000,5998000,23
1.55,1.22,0.00,0.03,0.00,79437352,72364000,7035000,23
3.17,2.54,0.00,0.05,0.00,154652504,149593000,5019000,23
3.28,2.62,0.00,0.05,0.00,158783165,153745000,5024000,23
3.36,2.74,0.00,0.05,0.00,151856612,146729000,4990000,23
3.31,2.63,0.00,0.06,0.00,165225750,155266000,9952000,23
3.32,2.68,0.00,0.05,0.00,155250825,143215000,12018000,23
1.49,1.18,0.00,0.03,0.00,74805169,69822000,4987000,23
3.59,2.89,0.00,0.06,0.00,170143872,157194000,12933000,23
3.29,2.67,0.00,0.05,0.00,151105191,146020000,5000000,23
3.28,2.66,0.00,0.05,0.00,151833023,147850000,4023000,23
1.75,1.39,0.00,0.03,0.00,84978717,77882000,7080000,23
3.51,2.84,0.00,0.06,0.00,163332187,156262000,7011000,23
1.70,1.35,0.00,0.03,0.00,83438346,73542000,9938000,23
1.46,1.16,0.00,0.02,0.00,73679995,63671000,9948000,23
1.35,1.06,0.00,0.02,0.00,72004362,69007000,3000000,23
1.50,1.19,0.00,0.03,0.00,74676709,63737000,10954000,23
3.56,2.89,0.00,0.06,0.00,163226638,151243000,11940000,23
1.50,1.20,0.00,0.02,0.00,72775843,65759000,6974000,23
1.50,1.20,0.00,0.02,0.00,72025718,67969000,3998000,23
1.48,1.17,0.00,0.03,0.00,75976713,70974000,4998000,23
1.70,1.34,0.00,0.03,0.00,86916964,76918000,9989000,23
1.45,1.15,0.00,0.03,0.00,74223880,68176000,6015000,23
3.47,2.80,0.00,0.06,0.00,162763266,149740000,13064000,23
1.46,1.17,0.00,0.02,0.00,71434670,66416000,4956000,23
3.39,2.75,0.00,0.05,0.00,156444173,146374000,10025000,23
1.64,1.30,0.00,0.03,0.00,81774296,74760000,6977000,23
1.41,1.13,0.00,0.02,0.00,67874019,64759000,2988000,23
3.26,2.62,0.00,0.05,0.00,155046566,151038000,4001000,23
1.52,1.21,0.00,0.03,0.00,74941810,66861000,7983000,23
1.50,1.20,0.00,0.02,0.00,73127711,67032000,6002000,23
1.46,1.15,0.00,0.03,0.00,74773839,65771000,8968000,23
1.42,1.11,0.00,0.03,0.00,73518219,68542000,4966000,23
1.49,1.16,0.00,0.03,0.00,77910352,72952000,4929000,23
1.60,1.27,0.00,0.03,0.00,81401346,71322000,10045000,23
2.69,2.17,0.00,0.04,0.00,128509026,125360000,2984000,23
3.19,2.58,0.00,0.05,0.00,151171820,144133000,7006000,23
3.34,2.69,0.00,0.05,0.00,156580395,147533000,9032000,23
3.21,2.60,0.00,0.05,0.00,148352349,143286000,4975000,23
1.73,1.37,0.00,0.03,0.00,86244688,72184000,14035000,23
0.92,0.72,0.00,0.02,0.00,46515195,45544000,1012000,23
4.13,3.37,0.00,0.06,0.00,189772288,171374000,17934000,24
3.47,2.79,0.00,0.06,0.00,167027669,160012000,7000000,24
1.36,1.08,0.00,0.02,0.00,68224107,65182000,3008000,24
1.32,1.05,0.00,0.02,0.00,67308921,64267000,3012000,24
1.40,1.14,0.00,0.02,0.00,62042986,58887000,3045000,24
3.04,2.45,0.00,0.05,0.00,144084978,136075000,8004000,24
3.31,2.67,0.00,0.05,0.00,156973627,150974000,5999000,24
3.03,2.44,0.00,0.05,0.00,144964787,141016000,4000000,24
3.06,2.46,0.00,0.05,0.00,146893948,138897000,7994000,24
1.32,1.05,0.00,0.02,0.00,66685520,62709000,3981000,24
1.47,1.16,0.00,0.03,0.00,75889460,70917000,4994000,24
3.27,2.63,0.00,0.05,0.00,155440659,150449000,4981000,24
3.05,2.46,0.00,0.05,0.00,145787416,139800000,5991000,24
1.98,1.57,0.00,0.03,0.00,98997283,80955000,17990000,24
1.73,1.39,0.00,0.03,0.00,82607500,73484000,8937000,24
3.13,2.54,0.00,0.05,0.00,145686728,137673000,7981000,24
1.40,1.10,0.00,0.02,0.00,73068195,67044000,6003000,24
1.70,1.34,0.00,0.03,0.00,86045796,69026000,17006000,24
1.50,1.17,0.00,0.03,0.00,79291400,74345000,4956000,24
1.32,1.04,0.00,0.02,0.00,69879746,65896000,3993000,24
1.37,1.09,0.00,0.02,0.00,69814174,61825000,7977000,24
3.15,2.54,0.00,0.05,0.00,148364923,141322000,7016000,24
1.31,1.03,0.00,0.02,0.00,67120942,61103000,6010000,24
3.04,2.45,0.00,0.05,0.00,144397621,139372000,5013000,24
1.60,1.26,0.00,0.03,0.00,80074973,73038000,7003000,24
1.35,1.07,0.00,0.02,0.00,68868895,62877000,5988000,24
1.40,1.11,0.00,0.02,0.00,71026236,65018000,6001000,24
4.07,3.22,0.00,0.07,0.00,203980906,195986000,7999000,24
4.19,3.34,0.00,0.07,0.00,192016196,103959000,87965000,24
3.40,2.76,0.00,0.05,0.00,157667233,148607000,9036000,24
1.53,1.20,0.00,0.03,0.00,81761934,75773000,5982000,24
1.35,1.09,0.00,0.02,0.00,69012686,63025000,6002000,24
3.14,2.53,0.00,0.05,0.00,148031412,144000000,4000000,24
1.31,1.02,0.00,0.02,0.00,69702971,64732000,4979000,24
2.19,1.74,0.00,0.04,0.00,106530567,101399000,5019000,24
1.56,1.24,0.00,0.03,0.00,76430112,69131000,7013000,24
1.29,1.00,0.00,0.02,0.00,69814811,61613000,8080000,24
6.02,4.82,0.00,0.10,0.00,285319558,269321000,15959000,24
3.40,2.76,0.00,0.05,0.00,157907182,151824000,6032000,24
1.45,1.13,0.00,0.03,0.00,78097946,71012000,7001000,24
1.62,1.29,0.00,0.03,0.00,81909789,75887000,6071000,24
1.36,1.07,0.00,0.02,0.00,70375961,62415000,7925000,24
1.44,1.12,0.00,0.03,0.00,76188189,72192000,4010000,24
3.13,2.54,0.00,0.05,0.00,144953788,137058000,7945000,24
3.44,2.78,0.00,0.05,0.00,160825340,152811000,7990000,24
1.35,1.06,0.00,0.02,0.00,71424129,64469000,6942000,24
3.34,2.72,0.00,0.05,0.00,152232168,146186000,6007000,24
1.30,1.03,0.00,0.02,0.00,66622824,57637000,8943000,24
3.27,2.64,0.00,0.05,0.00,153331178,146288000,7013000,24
1.38,1.08,0.00,0.02,0.00,71680624,64711000,6968000,24
1.28,0.99,0.00,0.02,0.00,69417890,62303000,7034000,24
1.35,1.06,0.00,0.02,0.00,71634783,66658000,4974000,24
2.05,1.63,0.00,0.03,0.00,101359623,94302000,7022000,24
1.63,1.30,0.00,0.03,0.00,78957050,71958000,6995000,24
1.55,1.23,0.00,0.03,0.00,77807981,67825000,9974000,24
1.33,1.05,0.00,0.02,0.00,67685775,62708000,4976000,24
1.35,1.07,0.00,0.02,0.00,66827814,62777000,3985000,24
3.02,2.43,0.00,0.05,0.00,146008830,143001000,3000000,24
1.30,1.02,0.00,0.02,0.00,69232976,60191000,9028000,24
1.41,1.12,0.00,0.02,0.00,70321082,63265000,7029000,24
1.41,1.12,0.00,0.02,0.00,71157285,66115000,5008000,24
1.24,0.97,0.00,0.02,0.00,66794099,61821000,4985000,24
1.33,1.05,0.00,0.02,0.00,67414954,60460000,6938000,24
1.34,1.06,0.00,0.02,0.00,66820825,61741000,5060000,24
1.62,1.28,0.00,0.03,0.00,79732537,63493000,16125000,24
1.38,1.09,0.00,0.02,0.00,69134201,64086000,5006000,24
1.53,1.21,0.00,0.03,0.00,77570878,70583000,6958000,24
3.33,2.70,0.00,0.05,0.00,155861265,147900000,7940000,24
1.49,1.18,0.00,0.03,0.00,75669029,69628000,6054000,24
3.17,2.56,0.00,0.05,0.00,147371636,142354000,5012000,24
1.62,1.29,0.00,0.03,0.00,79015141,74990000,3999000,24
1.60,1.27,0.00,0.03,0.00,80346585,73297000,7028000,24
3.23,2.62,0.00,0.05,0.00,148952592,140953000,7997000,24
3.53,2.85,0.00,0.06,0.00,165968668,155985000,9999000,24
1.84,1.45,0.00,0.03,0.00,91992015,85950000,5996000,24
3.18,2.57,0.00,0.05,0.00,147738067,141690000,6029000,24
3.07,2.48,0.00,0.05,0.00,144383715,142357000,2005000,24
6.18,4.90,0.00,0.10,0.00,303623294,285594000,18037000,24
1.85,1.45,0.00,0.03,0.00,93135802,83137000,10016000,24
1.38,1.09,0.00,0.02,0.00,69678382,60705000,8956000,24
1.93,1.52,0.00,0.03,0.00,100478895,88147000,12020000,25
1.66,1.30,0.00,0.03,0.00,88792223,82717000,6052000,25
1.69,1.39,0.00,0.03,0.00,75202770,69110000,6009000,25
1.56,1.23,0.00,0.03,0.00,78957971,72056000,6909000,25
1.55,1.23,0.00,0.03,0.00,77739977,71753000,5979000,25
1.67,1.33,0.00,0.03,0.00,81807521,74825000,6891000,25
1.59,1.25,0.00,0.03,0.00,83928926,81815000,1995000,25
1.64,1.30,0.00,0.03,0.00,83887383,80875000,3032000,25
1.72,1.36,0.00,0.03,0.00,85662681,80606000,4975000,25
10.10,8.03,0.00,0.17,0.00,500723792,490624000,9992000,25
1.53,1.20,0.00,0.03,0.00,81246537,76187000,5012000,25
3.39,2.73,0.00,0.05,0.00,161627881,151603000,10039000,25
5.09,4.04,0.00,0.09,0.00,252907630,239907000,12994000,25
1.63,1.28,0.00,0.03,0.00,83628254,76679000,6970000,25
1.67,1.32,0.00,0.03,0.00,84504427,75459000,9055000,25
1.73,1.37,0.00,0.03,0.00,87628162,83660000,3983000,25
3.70,2.98,0.00,0.06,0.00,175503477,162406000,13032000,25
1.61,1.26,0.00,0.03,0.00,84816366,79738000,5046000,25
1.62,1.28,0.00,0.03,0.00,84552572,78492000,6037000,25
1.60,1.26,0.00,0.03,0.00,81769288,72832000,8979000,25
1.73,1.37,0.00,0.03,0.00,86623902,78532000,8054000,25
1.78,1.39,0.00,0.03,0.00,92948683,80109000,12857000,25
3.40,2.78,0.00,0.05,0.00,150208628,144112000,6004000,25
3.27,2.64,0.00,0.05,0.00,154596642,146627000,7979000,25
1.82,1.43,0.00,0.03,0.00,94491954,84502000,9941000,25
1.78,1.42,0.00,0.03,0.00,88559665,82513000,6037000,25
1.63,1.28,0.00,0.03,0.00,86980934,78888000,7988000,25
3.47,2.79,0.00,0.06,0.00,164404523,157394000,7017000,25
3.56,2.86,0.00,0.06,0.00,169417500,163410000,6015000,25
1.54,1.22,0.00,0.03,0.00,78083159,68065000,10009000,25
1.60,1.27,0.00,0.03,0.00,80998164,72868000,8096000,25
3.31,2.68,0.00,0.05,0.00,153538548,148510000,4983000,25
1.67,1.34,0.00,0.03,0.00,81254719,77258000,4013000,25
1.55,1.23,0.00,0.03,0.00,78982472,72786000,6065000,25
3.47,2.82,0.00,0.06,0.00,164094462,156049000,8002000,25
3.49,2.82,0.00,0.06,0.00,162422498,155307000,7013000,25
1.48,1.17,0.00,0.03,0.00,75312533,68349000,6933000,25
3.40,2.75,0.00,0.05,0.00,160511294,155418000,4981000,25
3.38,2.73,0.00,0.05,0.00,160011995,154895000,4996000,25
1.59,1.26,0.00,0.03,0.00,79863956,73870000,5989000,25
1.64,1.31,0.00,0.03,0.00,81847386,72742000,8968000,25
1.91,1.52,0.00,0.03,0.00,92964261,88805000,4036000,25
3.43,2.77,0.00,0.05,0.00,160628241,154566000,6022000,25
1.64,1.29,0.00,0.03,0.00,84242898,75329000,8920000,25
1.58,1.25,0.00,0.03,0.00,80607933,72559000,8062000,25
1.69,1.34,0.00,0.03,0.00,84345111,78385000,5953000,25
1.67,1.31,0.00,0.03,0.00,85869083,77864000,7986000,25
1.52,1.21,0.00,0.03,0.00,76073428,70037000,6003000,25
1.92,1.54,0.00,0.03,0.00,91690764,79666000,11949000,25
3.39,2.74,0.00,0.05,0.00,158811611,153821000,4961000,25
3.68,2.98,0.00,0.06,0.00,170441094,160482000,9967000,25
4.95,3.98,0.00,0.08,0.00,234014487,224979000,8999000,25
1.66,1.33,0.00,0.03,0.00,81244826,73188000,8020000,25
3.42,2.77,0.00,0.05,0.00,159433674,153391000,6015000,25
1.73,1.38,0.00,0.03,0.00,84418326,74516000,9935000,25
1.87,1.49,0.00,0.03,0.00,91053073,84956000,6068000,25
1.60,1.28,0.00,0.03,0.00,79004851,68016000,11002000,25
3.57,2.90,0.00,0.06,0.00,163173528,156146000,7006000,25
1.72,1.38,0.00,0.03,0.00,82900790,75829000,6984000,25
1.66,1.32,0.00,0.03,0.00,82968563,80942000,2023000,25
3.80,3.09,0.00,0.06,0.00,174225776,166193000,8009000,25
1.63,1.29,0.00,0.03,0.00,81417899,74344000,7032000,25
3.43,2.77,0.00,0.06,0.00,162563844,155460000,7020000,25
1.60,1.26,0.00,0.03,0.00,82310472,78281000,4014000,25
3.50,2.84,0.00,0.05,0.00,159950592,156965000,2999000,25
4.03,3.25,0.00,0.06,0.00,187928151,161917000,25986000,25
3.28,2.65,0.00,0.05,0.00,154488068,147480000,7022000,25
1.58,1.25,0.00,0.03,0.00,79279100,70221000,9028000,25
3.68,2.97,0.00,0.06,0.00,170996292,162072000,8948000,25
1.66,1.31,0.00,0.03,0.00,85145025,80127000,5007000,25
4.98,3.94,0.00,0.08,0.00,248178442,240124000,8004000,25
1.99,1.56,0.00,0.03,0.00,101763288,86808000,14966000,25
3.42,2.77,0.00,0.05,0.00,160214767,152160000,8008000,25
1.90,1.51,0.00,0.03,0.00,92386995,81427000,10923000,25
1.72,1.37,0.00,0.03,0.00,85409330,76440000,8934000,25
4.28,3.45,0.00,0.07,0.00,199224793,192070000,7002000,25
1.51,1.20,0.00,0.03,0.00,75320019,66376000,8916000,25
2.00,1.59,0.00,0.03,0.00,98887019,88808000,10091000,25
1.90,1.50,0.00,0.03,0.00,95219960,90177000,5009000,25
5.45,4.35,0.00,0.09,0.00,266816921,253845000,12992000,25
2.95,2.36,0.00,0.05,0.00,144972431,140700000,3991000,26
2.93,2.36,0.00,0.05,0.00,139688589,135692000,3990000,26
3.00,2.42,0.00,0.05,0.00,142283266,136258000,6011000,26
2.98,2.41,0.00,0.05,0.00,141713581,134706000,6984000,26
1.23,0.97,0.00,0.02,0.00,62915367,57922000,4993000,26
1.41,1.12,0.00,0.02,0.00,69095382,63060000,6005000,26
1.26,1.00,0.00,0.02,0.00,62432223,59300000,3015000,26
2.92,2.34,0.00,0.05,0.00,144489243,141528000,3011000,26
3.14,2.53,0.00,0.05,0.00,149975908,141978000,7998000,26
1.34,1.04,0.00,0.02,0.00,71690778,64728000,6970000,26
3.29,2.65,0.00,0.05,0.00,157063313,146042000,11003000,26
1.39,1.10,0.00,0.02,0.00,69740877,63652000,6062000,26
1.23,0.97,0.00,0.02,0.00,62311597,59270000,3013000,26
3.00,2.43,0.00,0.05,0.00,141660411,137725000,3992000,26
1.31,1.01,0.00,0.02,0.00,72366551,66323000,5939000,26
2.94,2.36,0.00,0.05,0.00,143073003,136062000,7003000,26
3.17,2.58,0.00,0.05,0.00,146437566,135457000,10956000,26
3.09,2.50,0.00,0.05,0.00,145779890,139770000,5990000,26
1.23,0.96,0.00,0.02,0.00,65675233,64675000,1010000,26
1.55,1.25,0.00,0.03,0.00,78908523,70798000,8091000,26
1.41,1.12,0.00,0.02,0.00,70747434,64740000,5976000,26
1.19,0.94,0.00,0.02,0.00,60368429,55320000,5029000,26
1.37,1.08,0.00,0.02,0.00,70607599,61561000,8936000,26
1.42,1.12,0.00,0.02,0.00,70462973,64504000,5954000,26
2.19,1.74,0.00,0.04,0.00,108458420,99255000,8933000,26
1.57,1.25,0.00,0.03,0.00,77404462,71356000,6030000,26
1.41,1.12,0.00,0.02,0.00,70747404,68707000,2020000,26
1.33,1.05,0.00,0.02,0.00,69891290,61886000,7985000,26
1.23,0.97,0.00,0.02,0.00,63601069,60588000,3029000,26
1.24,0.98,0.00,0.02,0.00,63939476,58943000,4995000,26
2.98,2.40,0.00,0.05,0.00,142907913,139835000,2996000,26
3.03,2.47,0.00,0.05,0.00,139912807,134908000,4996000,26
1.30,1.03,0.00,0.02,0.00,65819294,58920000,6874000,26
2.97,2.40,0.00,0.05,0.00,140655028,130693000,9976000,26
0.67,0.51,0.00,0.01,0.00,38653577,35672000,2972000,26
1.25,0.99,0.00,0.02,0.00,63769760,60750000,2987000,26
1.26,1.01,0.00,0.02,0.00,61675298,57542000,4038000,26
3.88,3.13,0.00,0.06,0.00,183153589,175132000,8006000,26
0.18,0.14,0.00,0.00,0.00,10097309,7066000,3028000,26
1.33,1.03,0.00,0.02,0.00,71619447,65530000,6048000,26
1.27,1.01,0.00,0.02,0.00,62427604,58322000,4022000,26
1.36,1.06,0.00,0.02,0.00,72002482,63010000,9001000,26
1.27,1.00,0.00,0.02,0.00,63703387,57701000,5969000,26
1.71,1.35,0.00,0.03,0.00,84646561,78570000,6043000,26
3.27,2.66,0.00,0.05,0.00,149444047,145411000,4011000,26
1.76,1.38,0.00,0.03,0.00,91217453,81174000,10021000,26
3.53,2.86,0.00,0.06,0.00,164836521,156820000,7990000,26
1.22,0.96,0.00,0.02,0.00,62965143,59935000,2996000,26
3.50,2.83,0.00,0.06,0.00,164623961,158504000,5981000,26
1.28,1.02,0.00,0.02,0.00,61870213,54658000,7085000,26
1.41,1.11,0.00,0.02,0.00,71314057,65241000,6022000,26
3.93,3.17,0.00,0.06,0.00,181985828,169884000,11921000,26
3.16,2.53,0.00,0.05,0.00,152485070,145337000,7016000,26
3.08,2.50,0.00,0.05,0.00,142807794,139679000,2993000,26
1.23,0.95,0.00,0.02,0.00,66008922,56968000,8995000,26
1.39,1.11,0.00,0.02,0.00,68885388,63803000,4984000,26
2.99,2.40,0.00,0.05,0.00,144773242,139696000,4989000,26
1.66,1.31,0.00,0.03,0.00,82884507,76826000,5986000,26
1.21,0.94,0.00,0.02,0.00,64591904,58494000,6051000,26
1.46,1.16,0.00,0.02,0.00,72280268,65222000,7023000,26
1.39,1.10,0.00,0.02,0.00,71026822,59002000,12000000,26
3.17,2.56,0.00,0.05,0.00,149169899,145034000,4000000,26
1.32,1.05,0.00,0.02,0.00,66178212,57010000,9001000,26
1.39,1.10,0.00,0.02,0.00,69447515,61361000,8047000,26
1.40,1.10,0.00,0.02,0.00,71569109,66574000,4968000,26
3.21,2.60,0.00,0.05,0.00,147589220,144551000,3011000,26
6.82,5.46,0.00,0.11,0.00,324796163,301792000,22984000,26
1.25,0.98,0.00,0.02,0.00,63186936,57133000,6014000,26
0.50,0.38,0.00,0.01,0.00,29050100,22813000,6221000,26
1.91,1.50,0.00,0.03,0.00,96798544,88719000,8065000,26
1.63,1.30,0.00,0.03,0.00,80046026,73015000,7001000,26
3.11,2.55,0.00,0.05,0.00,135162438,132047000,3023000,26
3.06,2.48,0.00,0.05,0.00,140185914,136083000,4002000,26
1.42,1.12,0.00,0.02,0.00,72048942,68025000,4001000,26
3.89,3.16,0.00,0.06,0.00,181466879,172493000,8973000,26
1.41,1.11,0.00,0.02,0.00,72743905,66655000,6059000,26
3.15,2.54,0.00,0.05,0.00,148217125,140200000,8011000,26
2.94,2.37,0.00,0.05,0.00,138821541,132759000,6034000,26
1.41,1.11,0.00,0.02,0.00,71084420,65053000,6004000,26
1.77,1.40,0.00,0.03,0.00,89062132,73034000,16007000,26
2.12,1.72,0.00,0.03,0.00,98348699,94078000,4003000,27
4.82,3.90,0.00,0.08,0.00,228673843,223556000,5012000,27
1.93,1.54,0.00,0.03,0.00,95367254,90289000,4960000,27
2.09,1.66,0.00,0.04,0.00,102609524,95623000,6972000,27
1.03,0.80,0.00,0.02,0.00,56033193,47998000,7999000,27
1.94,1.56,0.00,0.03,0.00,92981676,89948000,2998000,27
1.88,1.48,0.00,0.03,0.00,97035146,86037000,11004000,27
1.91,1.52,0.00,0.03,0.00,96389356,90410000,5961000,27
1.94,1.53,0.00,0.03,0.00,98109732,92057000,6003000,27
1.76,1.39,0.00,0.03,0.00,89963386,82986000,6998000,27
5.09,4.11,0.00,0.08,0.00,238617000,234611000,3993000,27
6.91,5.57,0.00,0.11,0.00,325200330,310231000,15011000,27
1.92,1.53,0.00,0.03,0.00,96062504,94059000,2001000,27
5.02,4.07,0.00,0.08,0.00,235436975,227424000,8014000,27
1.97,1.57,0.00,0.03,0.00,96922584,84927000,11989000,27
2.05,1.62,0.00,0.04,0.00,102967233,94979000,7998000,27
1.92,1.52,0.00,0.03,0.00,99094767,91076000,8006000,27
2.00,1.61,0.00,0.03,0.00,96424100,91443000,4969000,27
2.10,1.68,0.00,0.04,0.00,103295296,97254000,6015000,27
1.88,1.48,0.00,0.03,0.00,97684671,90696000,6976000,27
1.92,1.53,0.00,0.03,0.00,94593723,87512000,7041000,27
5.31,4.30,0.00,0.08,0.00,246584811,237566000,9021000,27
1.91,1.52,0.00,0.03,0.00,95818975,90829000,5046000,27
6.30,5.10,0.00,0.10,0.00,293845917,285837000,7995000,27
1.98,1.59,0.00,0.03,0.00,95439066,88315000,7025000,27
5.05,4.09,0.00,0.08,0.00,234943439,225965000,8959000,27
3.01,2.40,0.00,0.05,0.00,149657744,139590000,10042000,27
2.80,2.23,0.00,0.05,0.00,135057808,94024000,41010000,27
1.96,1.56,0.00,0.03,0.00,96674913,89661000,6973000,27
1.96,1.57,0.00,0.03,0.00,95248552,90137000,5007000,27
1.98,1.57,0.00,0.03,0.00,98212311,89327000,8932000,27
3.12,2.49,0.00,0.05,0.00,151044841,141037000,10002000,27
1.97,1.57,0.00,0.03,0.00,97783679,85810000,11973000,27
1.80,1.44,0.00,0.03,0.00,89505855,85488000,4022000,27
1.94,1.55,0.00,0.03,0.00,95530002,87564000,7960000,27
5.08,4.12,0.00,0.08,0.00,236411806,229472000,6983000,27
1.97,1.57,0.00,0.03,0.00,98496811,92460000,6030000,27
1.97,1.58,0.00,0.03,0.00,95850491,88834000,6987000,27
5.08,4.13,0.00,0.08,0.00,233089439,225078000,8002000,27
2.07,1.69,0.00,0.03,0.00,92943830,89911000,2997000,27
5.16,4.19,0.00,0.08,0.00,238725460,232688000,5991000,27
1.86,1.48,0.00,0.03,0.00,92000105,86976000,4998000,27
2.03,1.62,0.00,0.03,0.00,99157863,95107000,4004000,27
1.90,1.51,0.00,0.03,0.00,94142417,90111000,4004000,27
2.01,1.60,0.00,0.03,0.00,99857335,91826000,7984000,27
1.81,1.45,0.00,0.03,0.00,88996357,82970000,5997000,27
5.11,4.15,0.00,0.08,0.00,235764901,225722000,9987000,27
5.24,4.27,0.00,0.08,0.00,240472788,235447000,4988000,27
1.95,1.56,0.00,0.03,0.00,96231723,88238000,8021000,27
5.18,4.21,0.00,0.08,0.00,239107739,233101000,6002000,27
1.99,1.59,0.00,0.03,0.00,97492133,92460000,5025000,27
5.08,4.12,0.00,0.08,0.00,233220811,227177000,6004000,27
2.05,1.63,0.00,0.03,0.00,102060197,96061000,6003000,27
5.08,4.14,0.00,0.08,0.00,232293752,224142000,8005000,27
2.12,1.70,0.00,0.04,0.00,102889255,95820000,6986000,27
1.83,1.46,0.00,0.03,0.00,89853022,83926000,5924000,27
6.69,5.40,0.00,0.11,0.00,311424760,301390000,10012000,27
1.99,1.60,0.00,0.03,0.00,93671091,86632000,6970000,27
5.15,4.17,0.00,0.08,0.00,238599481,229617000,8985000,27
1.76,1.39,0.00,0.03,0.00,90365388,84223000,6015000,27
5.08,4.12,0.00,0.08,0.00,234810603,224770000,10034000,27
1.80,1.44,0.00,0.03,0.00,89068317,84046000,5002000,27
4.88,3.97,0.00,0.08,0.00,225580291,218521000,7016000,27
5.16,4.19,0.00,0.08,0.00,237110410,230109000,7003000,27
5.09,4.13,0.00,0.08,0.00,235357492,231369000,4006000,27
5.15,4.17,0.00,0.08,0.00,238509820,235396000,2992000,27
5.20,4.22,0.00,0.08,0.00,239966541,228932000,10996000,27
2.00,1.60,0.00,0.03,0.00,98119896,95097000,3003000,27
2.23,1.79,0.00,0.04,0.00,105463476,97460000,7955000,27
1.81,1.44,0.00,0.03,0.00,90286841,84303000,6021000,27
1.85,1.48,0.00,0.03,0.00,89090949,84066000,5003000,27
1.94,1.55,0.00,0.03,0.00,93477612,87401000,6027000,27
4.98,4.04,0.00,0.08,0.00,228755875,223710000,4971000,27
1.96,1.56,0.00,0.03,0.00,96799849,89937000,6918000,27
1.96,1.56,0.00,0.03,0.00,96251015,89246000,7019000,27
1.95,1.56,0.00,0.03,0.00,95064627,87157000,7923000,27
1.96,1.56,0.00,0.03,0.00,97302951,90358000,6950000,27
2.11,1.70,0.00,0.03,0.00,99352285,96335000,3010000,27
1.99,1.59,0.00,0.03,0.00,97289674,90377000,6952000,27
5.09,4.13,0.00,0.08,0.00,233924143,227874000,5996000,27
3.47,2.80,0.00,0.06,0.00,168139900,143877000,23979000,28
3.47,2.84,0.00,0.05,0.00,158380845,155393000,2988000,28
3.88,3.22,0.00,0.06,0.00,161521831,159519000,1993000,28
6.25,5.09,0.00,0.10,0.00,287963994,246955000,40992000,28
3.55,2.91,0.00,0.05,0.00,159831297,156839000,2996000,28
5.22,4.27,0.00,0.08,0.00,237834716,210094000,27879000,28
3.41,2.80,0.00,0.05,0.00,152939529,147909000,4996000,28
4.69,3.82,0.00,0.07,0.00,215481849,214476000,997000,28
3.37,2.75,0.00,0.05,0.00,153187417,151150000,2001000,28
16.14,12.99,0.00,0.27,0.00,783800952,779766000,3998000,28
2.49,2.01,0.00,0.04,0.00,116977956,111907000,5040000,28
2.38,1.93,0.00,0.04,0.00,113450188,107505000,5972000,28
3.50,2.84,0.00,0.06,0.00,164602924,138429000,26080000,28
5.77,4.71,0.00,0.09,0.00,265275412,241238000,24023000,28
3.46,2.83,0.00,0.05,0.00,157973321,155010000,3000000,28
3.38,2.76,0.00,0.05,0.00,153273878,151279000,2003000,28
3.63,2.97,0.00,0.06,0.00,164410959,160382000,4009000,28
4.32,3.51,0.00,0.07,0.00,200972722,173024000,28004000,28
3.39,2.76,0.00,0.05,0.00,154982413,149928000,4997000,28
3.75,3.03,0.00,0.06,0.00,178504304,149432000,29084000,28
4.44,3.58,0.00,0.07,0.00,212234726,183304000,28890000,28
5.87,4.78,0.00,0.09,0.00,270168324,241130000,29015000,28
5.34,4.37,0.00,0.08,0.00,239426109,211390000,27919000,28
14.40,11.72,0.00,0.23,0.00,665777088,662667000,2993000,28
3.59,2.94,0.00,0.05,0.00,160074337,156974000,2999000,28
5.20,4.24,0.00,0.08,0.00,235743062,210695000,25082000,28
2.55,2.07,0.00,0.04,0.00,118916968,116960000,1999000,28
3.52,2.89,0.00,0.05,0.00,155980909,152911000,2978000,28
4.61,3.77,0.00,0.07,0.00,206556043,180607000,25943000,28
4.77,3.90,0.00,0.07,0.00,215297289,196312000,19030000,28
4.64,3.80,0.00,0.07,0.00,209114333,185189000,23895000,28
5.39,4.41,0.00,0.08,0.00,241374446,217342000,24037000,28
5.31,4.34,0.00,0.08,0.00,239520973,208580000,30937000,28
4.96,4.07,0.00,0.07,0.00,219361276,183477000,35897000,28
4.24,3.44,0.00,0.07,0.00,198610605,170702000,27951000,28
5.74,4.68,0.00,0.09,0.00,262204111,234151000,28018000,28
4.31,3.50,0.00,0.07,0.00,198656727,170703000,27951000,28
5.26,4.25,0.00,0.08,0.00,250190031,230191000,20016000,28
3.49,2.83,0.00,0.06,0.00,162703503,135538000,27107000,28
2.55,2.08,0.00,0.04,0.00,116387931,115305000,1002000,28
6.26,5.02,0.00,0.10,0.00,306164079,276148000,30016000,28
7.73,6.38,0.00,0.11,0.00,335029600,300029000,35003000,28
4.94,4.00,0.00,0.08,0.00,232331520,207279000,25033000,28
7.46,6.16,0.00,0.11,0.00,319692140,295683000,23974000,28
3.58,2.93,0.00,0.05,0.00,160369318,157248000,3004000,28
3.76,3.10,0.00,0.06,0.00,162676522,160545000,1994000,28
7.86,6.39,0.00,0.12,0.00,361598883,336432000,24957000,28
3.66,3.02,0.00,0.05,0.00,158799924,156794000,1997000,28
3.46,2.84,0.00,0.05,0.00,151802256,149663000,1995000,28
4.30,3.48,0.00,0.07,0.00,202733127,180579000,22070000,28
4.86,3.95,0.00,0.08,0.00,225055023,194878000,29981000,28
6.41,5.25,0.00,0.10,0.00,287013057,256878000,29985000,28
3.45,2.83,0.00,0.05,0.00,155032026,150895000,3997000,28
4.79,3.87,0.00,0.08,0.00,226149023,198023000,28003000,28
3.53,2.91,0.00,0.05,0.00,152281656,150278000,1990000,28
4.63,3.78,0.00,0.07,0.00,192871621,187852000,4996000,28
3.43,2.80,0.00,0.05,0.00,152806014,150837000,1997000,28
3.49,2.87,0.00,0.05,0.00,154941622,152935000,1999000,28
2.98,2.41,0.00,0.05,0.00,141936568,140990000,999000,28
4.81,3.95,0.00,0.07,0.00,213340238,188254000,25033000,28
5.32,4.35,0.00,0.08,0.00,237214810,204128000,33020000,28
3.46,2.79,0.00,0.06,0.00,163794631,134951000,28776000,28
3.62,2.98,0.00,0.05,0.00,158457600,155444000,3008000,28
3.72,3.07,0.00,0.05,0.00,161068875,159062000,2000000,28
5.62,4.55,0.00,0.09,0.00,264262899,241250000,23023000,28
3.09,2.49,0.00,0.05,0.00,148034165,118017000,30004000,28
4.77,3.87,0.00,0.08,0.00,223143005,196131000,27018000,28
3.05,2.43,0.00,0.05,0.00,151379204,149357000,2004000,28
3.70,3.04,0.00,0.05,0.00,160540905,154525000,6020000,28
4.64,3.80,0.00,0.07,0.00,207957385,175956000,31992000,28
2.97,2.38,0.00,0.05,0.00,144267759,143296000,1002000,28
4.36,3.56,0.00,0.07,0.00,198069455,175902000,21987000,28
4.51,3.69,0.00,0.07,0.00,202192538,176165000,26024000,28
2.97,2.39,0.00,0.05,0.00,144122170,141129000,3002000,28
10.84,8.97,0.00,0.16,0.00,461059742,433024000,28001000,28
13.53,10.93,0.00,0.22,0.00,637971946,633879000,4005000,28
3.48,2.87,0.00,0.05,0.00,151948978,148931000,2998000,28
2.79,2.27,0.00,0.04,0.00,126757490,123784000,3019000,28
5.40,4.44,0.00,0.08,0.00,238288616,211363000,26918000,28
3.48,2.87,0.00,0.05,0.00,150828837,148837000,2011000,28
0.61,0.46,0.00,0.01,0.00,37017730,29598000,7144000,29
0.61,0.47,0.00,0.01,0.00,33516749,25636000,7888000,29
1.83,1.53,0.00,0.02,0.00,71023194,63173000,7896000,29
1.13,0.90,0.00,0.02,0.00,57385496,50456000,6925000,29
1.15,0.90,0.00,0.02,0.00,60568034,53604000,6948000,29
1.43,1.14,0.00,0.02,0.00,68963519,60921000,7989000,29
0.61,0.47,0.00,0.01,0.00,34141007,29148000,5025000,29
0.63,0.48,0.00,0.01,0.00,34668516,24789000,9915000,29
0.65,0.51,0.00,0.01,0.00,34827768,26877000,7963000,29
1.60,1.28,0.00,0.03,0.00,76483017,56253000,20090000,29
1.12,0.89,0.00,0.02,0.00,56155178,52114000,3933000,29
0.94,0.74,0.00,0.02,0.00,48301214,41259000,7044000,29
1.09,0.86,0.00,0.02,0.00,55689514,51717000,3978000,29
0.62,0.47,0.00,0.01,0.00,34858045,28857000,5970000,29
0.85,0.66,0.00,0.02,0.00,45142842,36147000,9036000,29
0.56,0.42,0.00,0.01,0.00,35998311,31983000,3997000,29
1.12,0.89,0.00,0.02,0.00,56187087,52087000,4006000,29
0.90,0.70,0.00,0.02,0.00,46571318,40643000,5947000,29
0.60,0.46,0.00,0.01,0.00,33110181,28223000,4866000,29
0.86,0.66,0.00,0.02,0.00,49551927,41452000,8088000,29
1.15,0.91,0.00,0.02,0.00,58376989,52045000,6005000,29
0.65,0.51,0.00,0.01,0.00,35184278,31152000,4019000,29
1.07,0.85,0.00,0.02,0.00,54242584,44207000,10047000,29
0.60,0.46,0.00,0.01,0.00,34714214,29598000,5103000,29
0.56,0.43,0.00,0.01,0.00,33276266,31254000,2016000,29
0.46,0.36,0.00,0.01,0.00,22342991,16498000,5822000,29
1.06,0.84,0.00,0.02,0.00,52133218,47076000,5008000,29
0.75,0.59,0.00,0.01,0.00,39917528,37864000,2046000,29
0.78,0.61,0.00,0.01,0.00,41625153,37542000,4058000,29
0.92,0.72,0.00,0.02,0.00,47347246,40293000,7051000,29
0.95,0.75,0.00,0.02,0.00,49007970,39991000,8998000,29
0.59,0.45,0.00,0.01,0.00,34734968,29777000,4962000,29
0.85,0.66,0.00,0.02,0.00,44966203,36965000,7992000,29
1.70,1.35,0.00,0.03,0.00,82228202,68192000,14039000,29
1.06,0.84,0.00,0.02,0.00,54912886,50943000,3995000,29
1.13,0.88,0.00,0.02,0.00,61348825,56259000,5023000,29
0.62,0.49,0.00,0.01,0.00,32972135,27929000,4987000,29
0.92,0.72,0.00,0.02,0.00,48274446,34200000,14082000,29
1.43,1.15,0.00,0.02,0.00,68072445,62036000,6003000,29
0.87,0.66,0.00,0.02,0.00,49901715,38820000,10949000,29
1.45,1.15,0.00,0.02,0.00,72737997,63750000,8964000,29
0.64,0.49,0.00,0.01,0.00,37502774,31408000,6079000,29
1.10,0.86,0.00,0.02,0.00,58864759,51844000,6979000,29
1.12,0.89,0.00,0.02,0.00,56910563,53846000,3047000,29
0.62,0.46,0.00,0.01,0.00,34387467,25580000,8854000,29
1.10,0.86,0.00,0.02,0.00,58586455,52620000,5957000,29
1.46,1.16,0.00,0.02,0.00,72657640,62728000,9956000,29
2.72,2.17,0.00,0.04,0.00,131287912,114226000,17033000,29
0.58,0.45,0.00,0.01,0.00,33072137,26039000,7010000,29
1.06,0.83,0.00,0.02,0.00,52242171,40396000,11823000,29
0.62,0.48,0.00,0.01,0.00,34588994,26677000,7904000,29
1.09,0.86,0.00,0.02,0.00,56052790,52082000,4006000,29
0.91,0.71,0.00,0.02,0.00,46753189,38616000,8129000,29
2.01,1.59,0.00,0.04,0.00,103709845,96675000,7049000,29
1.10,0.87,0.00,0.02,0.00,56471188,49548000,6936000,29
0.59,0.46,0.00,0.01,0.00,32783225,29786000,2978000,29
0.92,0.71,0.00,0.02,0.00,48867112,38863000,9965000,29
0.93,0.74,0.00,0.02,0.00,45473309,38502000,6910000,29
0.69,0.55,0.00,0.01,0.00,35306640,30154000,5025000,29
0.60,0.47,0.00,0.01,0.00,33000161,28186000,4859000,29
1.11,0.87,0.00,0.02,0.00,57877303,50871000,6982000,29
1.15,0.93,0.00,0.02,0.00,54033197,49093000,4909000,29
0.67,0.53,0.00,0.01,0.00,33437666,26206000,7055000,29
0.68,0.52,0.00,0.01,0.00,36509852,27612000,8875000,29
0.93,0.73,0.00,0.02,0.00,46713998,30446000,16238000,29
0.65,0.51,0.00,0.01,0.00,34683490,29605000,5104000,29
1.11,0.87,0.00,0.02,0.00,59186280,55133000,4009000,29
0.62,0.47,0.00,0.01,0.00,33871634,28893000,4981000,29
1.16,0.92,0.00,0.02,0.00,58860609,53840000,4985000,29
1.19,0.98,0.00,0.02,0.00,51145442,46217000,4916000,29
0.63,0.49,0.00,0.01,0.00,34440962,26307000,8094000,29
1.06,0.82,0.00,0.02,0.00,58864795,52710000,6081000,29
1.04,0.80,0.00,0.02,0.00,58468299,54434000,3958000,29
1.44,1.15,0.00,0.02,0.00,69284606,63255000,6024000,29
0.62,0.48,0.00,0.01,0.00,34257453,27198000,7051000,29
0.85,0.65,0.00,0.02,0.00,47282629,35210000,12072000,29
0.93,0.73,0.00,0.02,0.00,49224880,35465000,13792000,29
0.63,0.49,0.00,0.01,0.00,32969327,25940000,6983000,29
0.60,0.46,0.00,0.01,0.00,32433196,28490000,3929000,29
0.88,0.69,0.00,0.02,0.00,45687067,35771000,9936000,29
3.85,3.07,0.00,0.06,0.00,187174762,167877000,18873000,30
12.28,10.02,0.00,0.19,0.00,560414820,527320000,33020000,30
4.11,3.31,0.00,0.07,0.00,193734175,179748000,13980000,30
9.51,7.75,0.00,0.15,0.00,433192571,418058000,15002000,30
10.19,8.33,0.00,0.16,0.00,457714384,427721000,29980000,30
10.45,8.50,0.00,0.16,0.00,477760058,435823000,41886000,30
4.46,3.62,0.00,0.07,0.00,204030493,193000000,11000000,30
3.20,2.60,0.00,0.05,0.00,147016288,134083000,12911000,30
3.19,2.57,0.00,0.05,0.00,152621154,144591000,8032000,30
8.04,6.53,0.00,0.13,0.00,372951245,346920000,25994000,30
4.06,3.29,0.00,0.06,0.00,188366130,177356000,10960000,30
3.94,3.18,0.00,0.06,0.00,182290101,171404000,10961000,30
3.05,2.47,0.00,0.05,0.00,142449953,137404000,5014000,30
2.52,2.03,0.00,0.04,0.00,119239417,113213000,6011000,30
3.69,3.01,0.00,0.06,0.00,167497811,162468000,5014000,30
6.00,4.82,0.00,0.10,0.00,279014123,263969000,14998000,30
3.14,2.55,0.00,0.05,0.00,145739050,136728000,8982000,30
3.05,2.47,0.00,0.05,0.00,143008544,137953000,5034000,30
6.47,5.24,0.00,0.10,0.00,296936680,286923000,9997000,30
4.02,3.26,0.00,0.06,0.00,186555051,177473000,9024000,30
4.88,3.98,0.00,0.07,0.00,220545098,209477000,11025000,30
10.97,8.90,0.00,0.17,0.00,498641903,446674000,51962000,30
5.68,4.61,0.00,0.09,0.00,261808197,257793000,3996000,30
4.34,3.52,0.00,0.07,0.00,201616608,197600000,3991000,30
2.92,2.35,0.00,0.05,0.00,140404769,132459000,7967000,30
2.93,2.37,0.00,0.05,0.00,137542466,129580000,7974000,30
4.79,3.88,0.00,0.08,0.00,220925369,169920000,50976000,30
5.37,4.34,0.00,0.08,0.00,249233261,237200000,12010000,30
9.27,7.58,0.00,0.14,0.00,413730029,371691000,41965000,30
4.12,3.35,0.00,0.06,0.00,189206432,180207000,8960000,30
10.27,8.43,0.00,0.15,0.00,454271089,422154000,32011000,30
4.66,3.65,0.00,0.08,0.00,245363237,85207000,7554000,30
5.75,4.67,0.00,0.09,0.00,264436316,236488000,27939000,30
5.89,4.78,0.00,0.09,0.00,264149353,253164000,10963000,30
5.76,4.69,0.00,0.09,0.00,261632823,231680000,29958000,30
2.44,1.94,0.00,0.04,0.00,121330706,114290000,6956000,30
3.31,2.67,0.00,0.05,0.00,158294452,151222000,7010000,30
7.35,5.99,0.00,0.11,0.00,336886863,308831000,28075000,30
4.48,3.64,0.00,0.07,0.00,206382385,174440000,31897000,30
3.06,2.47,0.00,0.05,0.00,144727491,137707000,6985000,30
3.43,2.78,0.00,0.05,0.00,158340762,152349000,6013000,30
2.95,2.40,0.00,0.05,0.00,136581272,125520000,11045000,30
3.02,2.45,0.00,0.05,0.00,140023306,134013000,6000000,30
6.62,5.30,0.00,0.10,0.00,304306086,292233000,12009000,30
4.04,3.29,0.00,0.06,0.00,183483231,174431000,9022000,30
3.29,2.66,0.00,0.05,0.00,152731184,142691000,9978000,30
4.42,3.58,0.00,0.07,0.00,203943088,193870000,10045000,30
6.60,5.39,0.00,0.10,0.00,296386069,265313000,31036000,30
8.19,6.68,0.00,0.13,0.00,367643690,350587000,17028000,30
2.91,2.36,0.00,0.05,0.00,135335703,128299000,7016000,30
4.46,3.63,0.00,0.07,0.00,204913807,168765000,35949000,30
3.97,3.23,0.00,0.06,0.00,181793546,174659000,6986000,30
3.12,2.53,0.00,0.05,0.00,144108958,137121000,7006000,30
5.54,4.51,0.00,0.08,0.00,249116539,239072000,10003000,30
2.86,2.29,0.00,0.05,0.00,138672763,129591000,8971000,30
8.36,6.81,0.00,0.13,0.00,382298454,348228000,34022000,30
3.58,2.89,0.00,0.06,0.00,170458658,132551000,37871000,30
3.37,2.73,0.00,0.05,0.00,153855610,145898000,7940000,30
10.31,8.45,0.00,0.15,0.00,456204508,436196000,19963000,30
8.45,6.90,0.00,0.13,0.00,378484520,357492000,21028000,30
10.34,8.48,0.00,0.15,0.00,456103255,423882000,31991000,30
4.95,4.01,0.00,0.08,0.00,227031296,216881000,9994000,30
5.50,4.46,0.00,0.09,0.00,250632645,240628000,9984000,30
3.18,2.57,0.00,0.05,0.00,147327896,143182000,4005000,30
5.34,4.35,0.00,0.08,0.00,240165732,231147000,9005000,30
8.34,6.80,0.00,0.13,0.00,375741026,350672000,24976000,30
1.14,0.89,0.00,0.02,0.00,58582752,53594000,4962000,30
9.97,8.11,0.00,0.15,0.00,450629209,400576000,50072000,30
8.63,7.05,0.00,0.13,0.00,384717912,346705000,37967000,30
3.80,3.06,0.00,0.06,0.00,178868656,151908000,26983000,30
3.55,2.87,0.00,0.06,0.00,163627912,148534000,15054000,30
3.49,2.80,0.00,0.06,0.00,166533196,159416000,6974000,30
3.52,2.84,0.00,0.06,0.00,163080122,142038000,21005000,30
3.98,3.20,0.00,0.06,0.00,187025129,183987000,2999000,30
8.42,6.89,0.00,0.13,0.00,375826156,335742000,40088000,30
4.11,3.31,0.00,0.06,0.00,189392047,175389000,14031000,30
3.90,3.16,0.00,0.06,0.00,178089755,167043000,11002000,30
4.76,3.82,0.00,0.08,0.00,221828135,201811000,19981000,30
8.86,7.23,0.00,0.14,0.00,398169963,362185000,35919000,30
4.41,3.56,0.00,0.07,0.00,204627692,168504000,36108000,30
3.23,2.60,0.00,0.05,0.00,158228670,156012000,2000000,31
3.48,2.81,0.00,0.06,0.00,169051249,168114000,1000000,31
4.33,3.61,0.00,0.06,0.00,179552225,177522000,2005000,31
4.39,3.57,0.00,0.07,0.00,203789801,201775000,1997000,31
3.39,2.75,0.00,0.05,0.00,159002629,159023000,0,31
2.39,1.95,0.00,0.04,0.00,109559996,103527000,5972000,31
1.56,1.24,0.00,0.03,0.00,80055022,79043000,988000,31
7.08,5.70,0.00,0.11,0.00,326181695,272153000,54030000,31
3.38,2.74,0.00,0.05,0.00,159901253,158773000,998000,31
3.42,2.74,0.00,0.06,0.00,169332183,167334000,1992000,31
3.41,2.74,0.00,0.06,0.00,166526205,164517000,1994000,31
3.53,2.87,0.00,0.06,0.00,162839813,161840000,999000,31
1.80,1.45,0.00,0.03,0.00,86404849,77233000,9027000,31
4.19,3.42,0.00,0.07,0.00,193454452,191263000,2002000,31
3.43,2.80,0.00,0.05,0.00,156680408,154705000,1996000,31
3.35,2.68,0.00,0.06,0.00,166666771,165638000,997000,31
0.52,0.41,0.00,0.01,0.00,27315361,26324000,1012000,31
3.27,2.63,0.00,0.05,0.00,157779732,155784000,2010000,31
2.87,2.27,0.00,0.05,0.00,148793820,146747000,2010000,31
10.79,8.73,0.00,0.17,0.00,491901212,423785000,67965000,31
10.25,8.26,0.00,0.16,0.00,476497600,412376000,64058000,31
3.30,2.68,0.00,0.05,0.00,153712098,153733000,0,31
3.00,2.39,0.00,0.05,0.00,151111909,150130000,1000000,31
3.49,2.85,0.00,0.05,0.00,159333727,159218000,0,31
3.44,2.77,0.00,0.06,0.00,164124636,161183000,2984000,31
2.54,2.05,0.00,0.04,0.00,120968519,118981000,1999000,31
3.39,2.74,0.00,0.05,0.00,160212385,159222000,1001000,31
5.84,4.76,0.00,0.09,0.00,268306101,266317000,2002000,31
3.37,2.73,0.00,0.05,0.00,158548040,156541000,1994000,31
1.55,1.22,0.00,0.03,0.00,81648360,80639000,1007000,31
3.33,2.69,0.00,0.05,0.00,160352198,157352000,2987000,31
1.80,1.42,0.00,0.03,0.00,94422942,94478000,0,31
0.39,0.29,0.00,0.01,0.00,24357038,23228000,1009000,31
0.38,0.29,0.00,0.01,0.00,21316179,20306000,1015000,31
3.53,2.85,0.00,0.06,0.00,169621112,168635000,997000,31
3.31,2.69,0.00,0.05,0.00,152502701,151540000,996000,31
1.89,1.49,0.00,0.03,0.00,99260065,94210000,5011000,31
3.76,3.05,0.00,0.06,0.00,175232546,172156000,2985000,31
3.35,2.73,0.00,0.05,0.00,155811071,154813000,998000,31
3.52,2.83,0.00,0.06,0.00,171769369,170808000,1004000,31
3.43,2.77,0.00,0.06,0.00,161814536,160826000,998000,31
3.51,2.85,0.00,0.06,0.00,162713297,162751000,0,31
3.70,3.02,0.00,0.06,0.00,167384881,165378000,1992000,31
3.30,2.67,0.00,0.05,0.00,155560817,154613000,997000,31
7.41,5.95,0.00,0.12,0.00,360642790,358655000,1998000,31
6.86,5.60,0.00,0.11,0.00,310893500,308889000,1992000,31
3.73,3.03,0.00,0.06,0.00,171749186,169769000,1997000,31
3.49,2.84,0.00,0.05,0.00,159990468,158993000,999000,31
3.38,2.72,0.00,0.06,0.00,165295850,164319000,1001000,31
3.69,2.97,0.00,0.06,0.00,178795031,176796000,1997000,31
3.66,2.95,0.00,0.06,0.00,174759433,172676000,1996000,31
3.40,2.75,0.00,0.05,0.00,160566065,159429000,996000,31
3.38,2.71,0.00,0.06,0.00,163653677,162721000,1004000,31
3.47,2.81,0.00,0.06,0.00,162851633,159869000,2997000,31
2.01,1.60,0.00,0.03,0.00,99848409,98906000,999000,31
3.57,2.89,0.00,0.06,0.00,168617683,167624000,997000,31
1.91,1.50,0.00,0.03,0.00,101862286,99874000,2017000,31
12.01,9.70,0.00,0.19,0.00,572882425,571895000,1001000,31
1.46,1.15,0.00,0.03,0.00,76452913,74484000,1986000,31
3.44,2.78,0.00,0.06,0.00,163119959,162008000,1000000,31
3.72,3.03,0.00,0.06,0.00,169079149,168087000,1000000,31
3.30,2.68,0.00,0.05,0.00,150922373,149825000,998000,31
0.75,0.59,0.00,0.01,0.00,39732066,38722000,1019000,31
7.95,6.46,0.00,0.13,0.00,370475092,368485000,2002000,31
3.44,2.79,0.00,0.05,0.00,158966088,157005000,1987000,31
3.19,2.57,0.00,0.05,0.00,154267095,152245000,2003000,31
3.69,2.98,0.00,0.06,0.00,174090102,171109000,3001000,31
3.57,2.94,0.00,0.05,0.00,155259226,154070000,1000000,31
3.23,2.60,0.00,0.05,0.00,154044701,151793000,1997000,31
3.77,3.07,0.00,0.06,0.00,174059878,173910000,0,31
3.56,2.91,0.00,0.05,0.00,158859199,158886000,0,31
3.48,2.83,0.00,0.05,0.00,161079371,160017000,1000000,31
3.51,2.83,0.00,0.06,0.00,169018995,167979000,999000,31
0.69,0.53,0.00,0.01,0.00,37826956,26862000,10943000,31
0.35,0.27,0.00,0.01,0.00,17454518,17440000,0,31
3.74,3.05,0.00,0.06,0.00,170388596,168403000,1992000,31
3.65,2.97,0.00,0.06,0.00,168763892,167618000,997000,31
3.55,2.85,0.00,0.06,0.00,171369833,170394000,1002000,31
3.68,2.98,0.00,0.06,0.00,172434623,170450000,2005000,31
0.34,0.26,0.00,0.01,0.00,19988598,19008000,1000000,31
