@relation problema
@attribute 'pkg' real
@attribute 'cores' real
@attribute 'ram' real
@attribute 'gpu' real
@attribute 'psys' real
@attribute 'duration_time' real
@attribute 'user_time' real
@attribute 'system_time' real
@attribute 'class' {0,1,2,3,4,5,6,7,8,9,10,11,12,13,14,15,16,17,18,19,20,21,22,23,24,25,26,27,28,29,30,31}
@data
3.00,2.42,0.00,0.05,0.00,149118212,123922000,24984000,0
2.91,2.34,0.00,0.05,0.00,144249523,125199000,19030000,0
3.04,2.45,0.00,0.05,0.00,148104777,129100000,19014000,0
3.05,2.46,0.00,0.05,0.00,147734401,113787000,33936000,0
3.12,2.53,0.00,0.05,0.00,146002894,136004000,10000000,0
3.09,2.49,0.00,0.05,0.00,151534742,120630000,30905000,0
0.61,0.47,0.00,0.01,0.00,35516104,33465000,2028000,0
1.68,1.34,0.00,0.03,0.00,84059444,59778000,24316000,0
3.11,2.50,0.00,0.05,0.00,151250736,128217000,23039000,0
0.59,0.45,0.00,0.01,0.00,33852359,31844000,1990000,0
0.61,0.46,0.00,0.01,0.00,37359589,36375000,1010000,0
0.67,0.54,0.00,0.01,0.00,30555056,29467000,1016000,0
0.61,0.47,0.00,0.01,0.00,35884738,31792000,4102000,0
3.10,2.50,0.00,0.05,0.00,149655320,114747000,34923000,0
0.70,0.55,0.00,0.01,0.00,39217039,37178000,2009000,0
3.15,2.54,0.00,0.05,0.00,152640651,121730000,30931000,0
3.07,2.47,0.00,0.05,0.00,150391903,125367000,25073000,0
3.04,2.44,0.00,0.05,0.00,148615214,121675000,26928000,0
3.29,2.69,0.00,0.05,0.00,147755896,121587000,26126000,0
3.11,2.51,0.00,0.05,0.00,148257977,128073000,20011000,0
3.16,2.56,0.00,0.05,0.00,149951304,117943000,31984000,0
3.17,2.55,0.00,0.05,0.00,152739226,123593000,29139000,0
3.14,2.54,0.00,0.05,0.00,150832441,126694000,23942000,0
1.89,1.52,0.00,0.03,0.00,94072121,64035000,30016000,0
3.11,2.50,0.00,0.05,0.00,151185187,121164000,30040000,0
3.09,2.51,0.00,0.05,0.00,147194977,123131000,24025000,0
1.84,1.47,0.00,0.03,0.00,92200800,67440000,24794000,0
3.10,2.50,0.00,0.05,0.00,150231070,124209000,26043000,0
3.09,2.49,0.00,0.05,0.00,151243354,129221000,22037000,0
3.13,2.52,0.00,0.05,0.00,151079384,120078000,31020000,0
3.01,2.43,0.00,0.05,0.00,147012024,119021000,28004000,0
0.64,0.48,0.00,0.01,0.00,38368957,35455000,2954000,0
3.19,2.58,0.00,0.05,0.00,149970844,118984000,30995000,0
0.62,0.48,0.00,0.01,0.00,35667445,33700000,1982000,0
3.19,2.57,0.00,0.05,0.00,153329215,128388000,24881000,0
3.09,2.49,0.00,0.05,0.00,149855857,120686000,29165000,0
0.67,0.52,0.00,0.01,0.00,35654745,35687000,0,0
3.19,2.59,0.00,0.05,0.00,148347875,124266000,24051000,0
3.15,2.54,0.00,0.05,0.00,151921982,119172000,32772000,0
0.63,0.49,0.00,0.01,0.00,35566481,33547000,2033000,0
3.16,2.55,0.00,0.05,0.00,151709777,124684000,26931000,0
3.11,2.51,0.00,0.05,0.00,150454894,133419000,17053000,0
0.64,0.49,0.00,0.01,0.00,35507544,33551000,1973000,0
0.67,0.53,0.00,0.01,0.00,33664452,32662000,989000,0
3.08,2.48,0.00,0.05,0.00,149711012,119665000,29916000,0
3.04,2.43,0.00,0.05,0.00,150522899,114614000,35879000,0
3.11,2.51,0.00,0.05,0.00,148553140,120372000,28086000,0
3.11,2.51,0.00,0.05,0.00,148479229,111364000,37121000,0
3.13,2.52,0.00,0.05,0.00,151349511,120285000,31073000,0
3.07,2.48,0.00,0.05,0.00,145655207,111683000,33903000,0
0.64,0.50,0.00,0.01,0.00,34639526,32660000,1979000,0
3.13,2.53,0.00,0.05,0.00,149529672,127618000,21934000,0
0.65,0.51,0.00,0.01,0.00,35566964,32637000,2967000,0
1.94,1.55,0.00,0.03,0.00,98315075,96314000,2006000,0
3.05,2.44,0.00,0.05,0.00,153200935,128187000,25036000,0
3.14,2.54,0.00,0.05,0.00,150478458,119603000,30897000,0
1.94,1.54,0.00,0.03,0.00,99557065,97540000,1990000,0
0.63,0.49,0.00,0.01,0.00,34260550,32294000,1957000,0
0.64,0.49,0.00,0.01,0.00,37563741,35537000,2030000,0
3.10,2.50,0.00,0.05,0.00,148199968,117162000,31043000,0
3.17,2.56,0.00,0.05,0.00,152031332,115899000,35968000,0
3.07,2.47,0.00,0.05,0.00,148386841,129348000,19051000,0
0.73,0.56,0.00,0.01,0.00,42451696,41370000,985000,0
0.63,0.48,0.00,0.01,0.00,36092184,34135000,2007000,0
3.07,2.47,0.00,0.05,0.00,149325279,120308000,29074000,0
1.74,1.39,0.00,0.03,0.00,88701950,53821000,34884000,0
3.29,2.70,0.00,0.05,0.00,146419559,122435000,23889000,0
3.24,2.63,0.00,0.05,0.00,152958665,123722000,29170000,0
3.28,2.67,0.00,0.05,0.00,152093204,125956000,25991000,0
3.12,2.49,0.00,0.05,0.00,154396156,127478000,26890000,0
3.15,2.53,0.00,0.05,0.00,151341089,120520000,30877000,0
1.76,1.39,0.00,0.03,0.00,93451178,60290000,33159000,0
3.12,2.51,0.00,0.05,0.00,152821015,131718000,21115000,0
3.12,2.50,0.00,0.05,0.00,152750377,126785000,25956000,0
0.66,0.51,0.00,0.01,0.00,35896706,33895000,2054000,0
3.22,2.61,0.00,0.05,0.00,149795709,121614000,27911000,0
3.18,2.60,0.00,0.05,0.00,143691327,120466000,23089000,0
0.62,0.48,0.00,0.01,0.00,35528411,33584000,1975000,0
3.18,2.57,0.00,0.05,0.00,151384582,128249000,23044000,0
3.21,2.59,0.00,0.05,0.00,154317065,132327000,21888000,0
6.59,5.36,0.00,0.11,0.00,309227427,306977000,1999000,1
1.27,1.03,0.00,0.02,0.00,60169911,58041000,1967000,1
1.00,0.79,0.00,0.02,0.00,53242040,51315000,1973000,1
0.64,0.49,0.00,0.01,0.00,42001628,39901000,1995000,1
2.34,1.97,0.00,0.03,0.00,92092043,89158000,3005000,1
3.65,2.96,0.00,0.06,0.00,173839901,172650000,997000,1
3.42,2.70,0.00,0.06,0.00,181788984,178738000,2978000,1
0.87,0.67,0.00,0.02,0.00,49301799,47344000,1971000,1
10.20,8.19,0.00,0.17,0.00,499091835,498068000,1000000,1
3.55,2.89,0.00,0.06,0.00,163525935,160525000,2991000,1
1.28,1.00,0.00,0.02,0.00,70453102,69398000,1005000,1
3.38,2.67,0.00,0.06,0.00,179253149,178261000,1001000,1
9.94,7.93,0.00,0.17,0.00,503468233,501502000,1998000,1
0.84,0.66,0.00,0.02,0.00,45888513,44908000,997000,1
0.75,0.58,0.00,0.01,0.00,41139263,40165000,1004000,1
0.53,0.40,0.00,0.01,0.00,31636409,29680000,1978000,1
3.01,2.45,0.00,0.05,0.00,139645907,138148000,1001000,1
8.10,6.50,0.00,0.14,0.00,400111703,398942000,999000,1
0.83,0.63,0.00,0.02,0.00,48491031,47470000,988000,1
9.82,7.82,0.00,0.17,0.00,499256154,497872000,999000,1
0.43,0.33,0.00,0.01,0.00,24464206,23365000,1015000,1
1.28,1.00,0.00,0.02,0.00,68086258,67112000,1001000,1
2.81,2.27,0.00,0.05,0.00,133614417,133603000,0,1
9.80,7.78,0.00,0.17,0.00,503092753,502058000,1000000,1
0.77,0.58,0.00,0.02,0.00,46269508,45171000,1003000,1
0.52,0.38,0.00,0.01,0.00,33493682,31524000,1970000,1
1.28,1.04,0.00,0.02,0.00,57675925,56573000,1010000,1
5.25,4.15,0.00,0.09,0.00,276101342,276087000,0,1
1.66,1.34,0.00,0.03,0.00,80569005,79584000,994000,1
1.28,1.04,0.00,0.02,0.00,59200977,58144000,1002000,1
8.27,6.76,0.00,0.13,0.00,376618249,373624000,2996000,1
10.86,8.60,0.00,0.19,0.00,561325912,560257000,1000000,1
1.26,1.00,0.00,0.02,0.00,64109603,62078000,1970000,1
1.25,0.98,0.00,0.02,0.00,66874633,65901000,1013000,1
1.41,1.14,0.00,0.02,0.00,65466703,65424000,0,1
5.76,4.56,0.00,0.10,0.00,296267933,293327000,2993000,1
0.81,0.60,0.00,0.02,0.00,51146102,50115000,1002000,1
0.48,0.36,0.00,0.01,0.00,29076719,29093000,0,1
1.60,1.29,0.00,0.03,0.00,78777274,77786000,997000,1
0.83,0.63,0.00,0.02,0.00,49023041,48015000,1000000,1
7.52,6.00,0.00,0.13,0.00,377115148,375974000,999000,1
0.79,0.61,0.00,0.01,0.00,43742522,42766000,994000,1
5.88,4.66,0.00,0.10,0.00,304053095,303066000,1000000,1
0.70,0.56,0.00,0.01,0.00,34959633,33968000,999000,1
0.40,0.30,0.00,0.01,0.00,25410184,23482000,1956000,1
0.56,0.43,0.00,0.01,0.00,32914511,31962000,998000,1
2.59,2.08,0.00,0.04,0.00,126727464,124757000,1996000,1
7.58,6.03,0.00,0.13,0.00,383186534,382134000,1000000,1
0.49,0.38,0.00,0.01,0.00,29548525,28551000,1019000,1
1.25,0.99,0.00,0.02,0.00,63402500,63421000,0,1
0.44,0.34,0.00,0.01,0.00,25201741,23314000,1942000,1
0.41,0.30,0.00,0.01,0.00,25104114,24114000,1004000,1
0.74,0.58,0.00,0.01,0.00,40572402,39601000,990000,1
0.77,0.61,0.00,0.01,0.00,40855398,39764000,994000,1
1.57,1.26,0.00,0.03,0.00,76664100,75656000,1008000,1
0.70,0.54,0.00,0.01,0.00,38234571,36355000,1965000,1
1.37,1.09,0.00,0.02,0.00,70122126,69146000,1002000,1
0.61,0.46,0.00,0.01,0.00,38676371,37699000,1018000,1
1.32,1.03,0.00,0.02,0.00,70222263,69231000,1003000,1
4.57,3.72,0.00,0.07,0.00,208315537,201198000,7006000,1
0.43,0.34,0.00,0.01,0.00,22112648,22001000,0,1
1.40,1.13,0.00,0.02,0.00,68368793,66255000,2007000,1
2.51,1.97,0.00,0.05,0.00,133995390,132027000,2000000,1
6.60,5.26,0.00,0.11,0.00,331168235,330170000,1000000,1
1.34,1.06,0.00,0.02,0.00,68737114,66623000,1988000,1
2.54,2.03,0.00,0.04,0.00,123552941,122563000,1004000,1
0.69,0.53,0.00,0.01,0.00,39154444,38156000,1004000,1
10.03,7.99,0.00,0.17,0.00,504855150,502827000,1999000,1
1.23,0.98,0.00,0.02,0.00,62451052,60536000,1984000,1
2.82,2.28,0.00,0.05,0.00,134709273,133717000,997000,1
1.84,1.49,0.00,0.03,0.00,86143440,84103000,1978000,1
10.23,8.23,0.00,0.17,0.00,495915142,494939000,999000,1
1.25,0.98,0.00,0.02,0.00,66759386,65783000,996000,1
0.48,0.36,0.00,0.01,0.00,29187820,28249000,1008000,1
1.27,1.02,0.00,0.02,0.00,62421079,61421000,1006000,1
1.18,0.93,0.00,0.02,0.00,61746879,60764000,996000,1
0.79,0.62,0.00,0.01,0.00,42203886,35327000,6869000,1
4.68,3.81,0.00,0.07,0.00,215497772,214505000,997000,1
1.24,0.99,0.00,0.02,0.00,63121539,62194000,1003000,1
0.60,0.46,0.00,0.01,0.00,36524888,35569000,988000,1
1.75,1.39,0.00,0.03,0.00,91467027,86207000,5012000,2
1.80,1.44,0.00,0.03,0.00,90178530,87144000,3004000,2
2.18,1.73,0.00,0.04,0.00,112456023,106405000,6022000,2
0.76,0.60,0.00,0.01,0.00,39898645,37813000,1990000,2
0.99,0.79,0.00,0.02,0.00,51143642,50149000,1002000,2
1.78,1.43,0.00,0.03,0.00,88559279,86555000,2012000,2
1.88,1.53,0.00,0.03,0.00,86003175,81056000,4942000,2
1.81,1.46,0.00,0.03,0.00,88708160,81743000,6978000,2
0.78,0.61,0.00,0.01,0.00,43076045,39081000,4008000,2
0.80,0.63,0.00,0.01,0.00,42193725,38144000,4015000,2
1.64,1.32,0.00,0.03,0.00,81349064,78294000,2973000,2
1.80,1.45,0.00,0.03,0.00,86398037,84393000,2009000,2
1.82,1.46,0.00,0.03,0.00,87863744,84706000,3025000,2
1.74,1.39,0.00,0.03,0.00,87205973,85213000,2005000,2
0.81,0.64,0.00,0.01,0.00,42717740,40702000,2035000,2
0.81,0.64,0.00,0.01,0.00,43123556,39178000,3917000,2
0.79,0.63,0.00,0.01,0.00,40824097,38737000,2038000,2
0.72,0.54,0.00,0.01,0.00,43425599,41475000,1975000,2
0.81,0.64,0.00,0.01,0.00,41394285,38259000,3020000,2
1.92,1.56,0.00,0.03,0.00,90225849,88131000,2002000,2
1.78,1.42,0.00,0.03,0.00,88503742,87482000,1005000,2
1.72,1.39,0.00,0.03,0.00,86932226,85898000,1010000,2
0.84,0.65,0.00,0.02,0.00,46094810,42225000,3927000,2
1.79,1.43,0.00,0.03,0.00,91253037,89305000,1984000,2
1.76,1.41,0.00,0.03,0.00,86727193,84391000,2009000,2
1.85,1.48,0.00,0.03,0.00,92275458,90292000,1984000,2
1.71,1.35,0.00,0.03,0.00,88901024,85978000,2964000,2
0.74,0.55,0.00,0.01,0.00,43268144,42282000,1006000,2
3.70,2.99,0.00,0.06,0.00,177127849,173127000,4002000,2
1.84,1.48,0.00,0.03,0.00,87871146,84832000,2959000,2
2.14,1.69,0.00,0.04,0.00,108934315,99082000,9908000,2
1.77,1.41,0.00,0.03,0.00,89089740,88096000,1001000,2
0.80,0.62,0.00,0.02,0.00,44375377,41338000,3024000,2
1.73,1.37,0.00,0.03,0.00,90989534,88959000,1999000,2
1.93,1.55,0.00,0.03,0.00,94926461,90929000,3996000,2
1.82,1.45,0.00,0.03,0.00,91021508,88055000,2968000,2
0.89,0.70,0.00,0.02,0.00,48258433,46268000,2011000,2
0.80,0.62,0.00,0.01,0.00,42467186,41482000,987000,2
0.76,0.58,0.00,0.01,0.00,42926094,37914000,4988000,2
1.79,1.44,0.00,0.03,0.00,87275584,82255000,5015000,2
1.90,1.52,0.00,0.03,0.00,92711344,91697000,1007000,2
0.77,0.62,0.00,0.01,0.00,41323772,39274000,1963000,2
0.76,0.59,0.00,0.01,0.00,41642545,39661000,1983000,2
0.88,0.69,0.00,0.02,0.00,45688863,43703000,1986000,2
3.50,2.81,0.00,0.06,0.00,169980899,159962000,9997000,2
1.79,1.44,0.00,0.03,0.00,86314159,84306000,2007000,2
0.76,0.58,0.00,0.02,0.00,44048130,41063000,3004000,2
0.75,0.58,0.00,0.01,0.00,42518644,40551000,1978000,2
0.90,0.71,0.00,0.02,0.00,46625173,43567000,2970000,2
1.75,1.39,0.00,0.03,0.00,88043915,85059000,3002000,2
1.79,1.43,0.00,0.03,0.00,88691564,86660000,2015000,2
1.83,1.47,0.00,0.03,0.00,88706934,86576000,1990000,2
0.76,0.59,0.00,0.01,0.00,41642257,39670000,1983000,2
0.72,0.54,0.00,0.01,0.00,44455384,40428000,3944000,2
3.41,2.73,0.00,0.06,0.00,165116093,161100000,4002000,2
1.82,1.48,0.00,0.03,0.00,85185748,82068000,3002000,2
1.82,1.45,0.00,0.03,0.00,90770955,86781000,3989000,2
1.79,1.43,0.00,0.03,0.00,88424125,86423000,2009000,2
0.99,0.79,0.00,0.02,0.00,50061190,48011000,2000000,2
0.72,0.54,0.00,0.01,0.00,44361505,42305000,2014000,2
1.81,1.45,0.00,0.03,0.00,88607570,86555000,2012000,2
1.01,0.79,0.00,0.02,0.00,52791148,50804000,1992000,2
1.81,1.44,0.00,0.03,0.00,89424508,85461000,3974000,2
0.77,0.59,0.00,0.01,0.00,42615878,38678000,3966000,2
0.78,0.61,0.00,0.01,0.00,42479088,39394000,3030000,2
1.87,1.50,0.00,0.03,0.00,90800502,85842000,4990000,2
0.87,0.68,0.00,0.02,0.00,47314738,45336000,1971000,2
1.76,1.39,0.00,0.03,0.00,90165639,87110000,3003000,2
1.74,1.38,0.00,0.03,0.00,88874113,85886000,3031000,2
2.12,1.67,0.00,0.04,0.00,109121337,101079000,8006000,2
0.89,0.70,0.00,0.02,0.00,47636827,42535000,5063000,2
2.24,1.78,0.00,0.04,0.00,113381715,108351000,4970000,2
1.78,1.42,0.00,0.03,0.00,87940911,83902000,3995000,2
1.82,1.46,0.00,0.03,0.00,89488593,85516000,3977000,2
2.08,1.65,0.00,0.04,0.00,104649023,97562000,7040000,2
1.76,1.39,0.00,0.03,0.00,89543187,84519000,5030000,2
1.83,1.46,0.00,0.03,0.00,90795813,88762000,1994000,2
0.75,0.58,0.00,0.01,0.00,42858213,40905000,1995000,2
1.26,0.99,0.00,0.02,0.00,65410052,62429000,2972000,2
1.02,0.80,0.00,0.02,0.00,56615279,55635000,993000,2
2.48,1.97,0.00,0.04,0.00,126283581,117983000,7998000,3
2.59,2.06,0.00,0.04,0.00,131125591,125150000,6007000,3
2.18,1.72,0.00,0.04,0.00,113086060,110077000,3002000,3
5.07,4.07,0.00,0.08,0.00,246730402,195772000,50940000,3
4.25,3.42,0.00,0.07,0.00,202832387,195799000,6992000,3
6.66,5.39,0.00,0.11,0.00,315638435,267465000,48083000,3
5.47,4.40,0.00,0.09,0.00,264473604,211290000,53073000,3
6.83,5.53,0.00,0.11,0.00,321786629,269555000,52107000,3
6.52,5.26,0.00,0.11,0.00,313974721,258065000,55797000,3
2.46,1.96,0.00,0.04,0.00,122864459,112845000,9986000,3
2.40,1.91,0.00,0.04,0.00,120604446,116636000,3987000,3
6.74,5.42,0.00,0.11,0.00,325876846,269086000,56807000,3
2.83,2.25,0.00,0.05,0.00,141369998,133319000,8019000,3
4.82,3.88,0.00,0.08,0.00,232346594,163177000,69075000,3
6.52,5.26,0.00,0.11,0.00,309861045,254896000,54977000,3
4.87,3.92,0.00,0.08,0.00,234002006,179139000,54737000,3
4.71,3.78,0.00,0.08,0.00,228922559,176921000,51977000,3
2.80,2.23,0.00,0.05,0.00,138872385,128853000,9988000,3
2.27,1.80,0.00,0.04,0.00,114414970,106476000,7960000,3
2.49,1.98,0.00,0.04,0.00,121992824,115966000,5998000,3
2.42,1.93,0.00,0.04,0.00,120808083,112683000,7977000,3
4.58,3.65,0.00,0.08,0.00,228608346,171703000,56901000,3
6.77,5.46,0.00,0.11,0.00,321535629,266484000,54893000,3
6.69,5.38,0.00,0.11,0.00,321883015,255924000,65980000,3
6.60,5.31,0.00,0.11,0.00,315309261,256249000,59057000,3
7.96,6.41,0.00,0.13,0.00,378478462,313560000,64909000,3
2.32,1.84,0.00,0.04,0.00,117402540,112389000,5017000,3
4.13,3.33,0.00,0.07,0.00,196434158,187360000,9017000,3
6.78,5.51,0.00,0.11,0.00,312374528,265324000,47057000,3
4.03,3.25,0.00,0.07,0.00,191732777,181636000,9980000,3
2.44,1.95,0.00,0.04,0.00,120932580,118805000,1996000,3
2.54,2.02,0.00,0.04,0.00,126348770,111421000,14922000,3
4.37,3.51,0.00,0.07,0.00,209741405,203726000,5991000,3
2.42,1.91,0.00,0.04,0.00,124358870,113335000,11032000,3
6.66,5.37,0.00,0.11,0.00,317045798,274017000,43002000,3
2.41,1.90,0.00,0.04,0.00,123957535,117963000,5998000,3
2.91,2.31,0.00,0.05,0.00,146196526,137218000,9014000,3
2.51,2.00,0.00,0.04,0.00,122881369,116858000,5992000,3
7.15,5.78,0.00,0.12,0.00,338921033,280909000,57981000,3
7.09,5.70,0.00,0.12,0.00,341579202,288647000,52935000,3
2.66,2.12,0.00,0.05,0.00,133623984,122582000,11052000,3
6.42,5.18,0.00,0.10,0.00,305102240,258083000,47015000,3
2.41,1.89,0.00,0.04,0.00,125026851,117972000,6998000,3
2.49,1.99,0.00,0.04,0.00,122741276,114773000,7984000,3
6.63,5.33,0.00,0.11,0.00,319352142,276408000,42908000,3
6.81,5.52,0.00,0.11,0.00,317294739,257241000,60056000,3
2.22,1.76,0.00,0.04,0.00,112386532,110372000,2006000,3
2.47,1.97,0.00,0.04,0.00,121531095,111490000,9954000,3
8.85,7.13,0.00,0.14,0.00,419729102,348674000,70933000,3
2.18,1.70,0.00,0.04,0.00,115587069,111421000,4015000,3
4.76,3.81,0.00,0.08,0.00,233431304,174329000,59111000,3
2.51,2.01,0.00,0.04,0.00,123290375,117300000,5964000,3
4.79,3.85,0.00,0.08,0.00,228696797,215574000,12914000,3
2.65,2.09,0.00,0.05,0.00,135530500,123366000,12035000,3
2.51,2.00,0.00,0.04,0.00,122491327,119446000,3011000,3
2.43,1.92,0.00,0.04,0.00,125444666,117102000,8007000,3
6.60,5.35,0.00,0.10,0.00,307338598,263169000,44028000,3
5.03,4.05,0.00,0.08,0.00,241182007,171116000,70047000,3
6.84,5.53,0.00,0.11,0.00,321706046,268696000,52940000,3
4.88,3.89,0.00,0.08,0.00,241333626,185178000,56054000,3
2.45,1.94,0.00,0.04,0.00,122187223,111216000,10923000,3
2.25,1.78,0.00,0.04,0.00,113243233,106277000,6952000,3
2.42,1.93,0.00,0.04,0.00,119190975,110146000,9012000,3
4.77,3.84,0.00,0.08,0.00,228897900,176687000,52203000,3
2.49,1.99,0.00,0.04,0.00,122686391,117189000,5008000,3
3.23,2.59,0.00,0.05,0.00,156478754,146476000,9964000,3
4.96,4.00,0.00,0.08,0.00,234944421,178805000,55939000,3
6.68,5.40,0.00,0.11,0.00,316469806,246561000,69875000,3
2.49,1.99,0.00,0.04,0.00,120914047,109999000,10900000,3
6.84,5.56,0.00,0.11,0.00,316591626,260528000,55898000,3
2.48,1.97,0.00,0.04,0.00,125016941,116986000,7999000,3
4.72,3.80,0.00,0.08,0.00,223917357,170890000,52965000,3
4.29,3.46,0.00,0.07,0.00,204289491,200243000,4004000,3
6.80,5.50,0.00,0.11,0.00,314731313,255574000,59132000,3
2.45,1.94,0.00,0.04,0.00,124370530,113319000,11031000,3
4.88,3.93,0.00,0.08,0.00,232244659,190181000,42040000,3
2.22,1.75,0.00,0.04,0.00,113862755,106801000,7052000,3
7.02,5.70,0.00,0.11,0.00,324825852,263855000,60966000,3
2.42,1.93,0.00,0.04,0.00,121635074,113567000,8040000,3
4.80,3.87,0.00,0.08,0.00,226204431,161358000,64742000,3
4.72,3.65,0.00,0.09,0.00,262451184,90432000,14067000,4
2.76,2.16,0.00,0.05,0.00,143547371,133573000,9968000,4
6.22,4.97,0.00,0.10,0.00,306384635,175243000,13202000,4
4.86,3.89,0.00,0.08,0.00,232734979,98392000,16403000,4
6.25,5.00,0.00,0.10,0.00,304389949,174835000,9990000,4
2.55,2.01,0.00,0.04,0.00,130863491,125835000,4993000,4
4.83,3.89,0.00,0.08,0.00,221849221,91490000,10939000,4
6.91,5.52,0.00,0.11,0.00,337850539,207876000,11046000,4
2.79,2.19,0.00,0.05,0.00,143715752,136723000,7037000,4
6.84,5.45,0.00,0.11,0.00,335962074,213372000,3988000,4
6.37,5.10,0.00,0.11,0.00,309377982,180829000,9990000,4
4.49,3.60,0.00,0.07,0.00,215765618,87938000,8993000,4
2.72,2.13,0.00,0.05,0.00,141355835,130394000,10949000,4
6.45,5.17,0.00,0.11,0.00,311176542,178476000,14037000,4
2.64,2.11,0.00,0.04,0.00,126887579,117693000,9053000,4
4.60,3.63,0.00,0.08,0.00,232171512,99947000,12993000,4
4.45,3.52,0.00,0.08,0.00,224516145,89663000,15154000,4
4.41,3.50,0.00,0.08,0.00,220041273,88792000,12164000,4
4.49,3.56,0.00,0.08,0.00,222383946,90454000,13916000,4
6.32,5.05,0.00,0.10,0.00,307799824,175594000,12040000,4
5.09,4.03,0.00,0.09,0.00,254953241,120764000,15095000,4
7.65,6.11,0.00,0.13,0.00,372598488,235684000,17757000,4
4.48,3.56,0.00,0.08,0.00,222860313,94657000,10069000,4
6.61,5.31,0.00,0.11,0.00,318275651,185467000,13959000,4
4.55,3.63,0.00,0.08,0.00,223499897,87813000,15966000,4
5.13,4.06,0.00,0.09,0.00,255971979,119167000,17023000,4
2.55,1.98,0.00,0.05,0.00,135674417,127619000,8039000,4
4.99,3.99,0.00,0.08,0.00,240403025,222372000,18030000,4
4.36,3.47,0.00,0.07,0.00,216913467,82959000,16187000,4
4.96,3.92,0.00,0.09,0.00,250582410,119249000,12025000,4
4.41,3.50,0.00,0.07,0.00,217511022,88474000,11495000,4
4.69,3.75,0.00,0.08,0.00,226300308,221281000,5006000,4
8.46,6.72,0.00,0.14,0.00,417901487,285287000,13681000,4
4.34,3.45,0.00,0.07,0.00,215835416,86802000,10974000,4
4.39,3.50,0.00,0.07,0.00,215199278,89139000,8234000,4
6.45,5.18,0.00,0.11,0.00,308544751,179953000,9694000,4
4.71,3.74,0.00,0.08,0.00,233815156,99695000,15105000,4
4.46,3.57,0.00,0.07,0.00,215395605,208366000,7012000,4
4.40,3.51,0.00,0.07,0.00,214863728,83992000,12998000,4
2.47,1.95,0.00,0.04,0.00,123783304,116773000,6986000,4
6.32,5.07,0.00,0.10,0.00,302903581,173494000,10086000,4
6.83,5.40,0.00,0.12,0.00,340168741,201187000,20018000,4
4.63,3.69,0.00,0.08,0.00,227250107,88263000,19602000,4
4.56,3.61,0.00,0.08,0.00,228485270,93570000,16098000,4
6.23,4.98,0.00,0.10,0.00,301369874,169552000,13042000,4
4.41,3.53,0.00,0.07,0.00,212068270,203957000,7998000,4
3.17,2.49,0.00,0.05,0.00,160493386,150561000,9970000,4
4.53,3.58,0.00,0.08,0.00,226408230,94589000,14087000,4
4.43,3.50,0.00,0.08,0.00,221744623,94511000,9048000,4
4.49,3.59,0.00,0.07,0.00,216706520,206629000,9982000,4
5.20,4.10,0.00,0.09,0.00,261848233,126639000,16332000,4
4.24,3.36,0.00,0.07,0.00,211057295,81432000,11284000,4
5.12,4.06,0.00,0.09,0.00,253490356,121273000,14031000,4
6.17,4.96,0.00,0.10,0.00,292624786,162945000,11064000,4
6.46,5.20,0.00,0.10,0.00,304638845,171771000,13981000,4
2.82,2.22,0.00,0.05,0.00,141703585,131639000,10048000,4
4.73,3.82,0.00,0.07,0.00,218152632,96546000,9835000,4
5.42,4.29,0.00,0.09,0.00,268645936,142005000,7789000,4
5.42,4.29,0.00,0.09,0.00,268551629,140501000,9032000,4
6.32,5.05,0.00,0.11,0.00,308565071,177556000,12037000,4
4.46,3.52,0.00,0.08,0.00,224872816,89908000,15983000,4
4.10,3.27,0.00,0.07,0.00,199946842,71436000,10913000,4
7.71,6.18,0.00,0.13,0.00,369777858,232917000,19075000,4
2.85,2.24,0.00,0.05,0.00,144556472,131563000,12957000,4
4.46,3.54,0.00,0.08,0.00,221251626,89073000,13010000,4
6.29,5.03,0.00,0.10,0.00,303281193,178586000,6019000,4
5.23,4.14,0.00,0.09,0.00,258245471,127136000,12321000,4
3.11,2.44,0.00,0.05,0.00,158409922,146388000,12031000,4
4.53,3.60,0.00,0.08,0.00,222147030,93520000,9290000,4
4.48,3.56,0.00,0.07,0.00,218952491,80024000,20259000,4
6.33,5.07,0.00,0.10,0.00,303916058,172906000,11616000,4
4.52,3.61,0.00,0.07,0.00,218985376,89495000,10055000,4
5.70,4.51,0.00,0.10,0.00,283604704,144619000,20085000,4
2.61,2.05,0.00,0.04,0.00,132256864,124189000,8012000,4
6.43,5.16,0.00,0.10,0.00,308226443,176837000,12282000,4
3.09,2.43,0.00,0.05,0.00,153672021,142631000,10971000,4
4.61,3.67,0.00,0.08,0.00,224009121,87895000,17624000,4
2.77,2.19,0.00,0.05,0.00,135211356,128225000,7012000,4
6.45,5.20,0.00,0.10,0.00,302280122,171488000,11528000,4
4.56,3.63,0.00,0.08,0.00,224980260,95245000,11145000,4
4.78,3.76,0.00,0.08,0.00,248733803,82795000,13925000,5
4.59,3.63,0.00,0.08,0.00,232903349,94674000,20990000,5
6.15,4.92,0.00,0.10,0.00,299241196,172215000,9011000,5
4.52,3.58,0.00,0.08,0.00,227437410,96202000,12025000,5
4.43,3.53,0.00,0.07,0.00,218579931,90086000,10889000,5
6.26,5.00,0.00,0.10,0.00,307752211,175416000,13030000,5
4.49,3.55,0.00,0.08,0.00,226720063,89760000,18380000,5
4.45,3.56,0.00,0.07,0.00,216240248,89295000,8929000,5
3.78,2.99,0.00,0.06,0.00,188520998,180501000,7977000,5
4.61,3.70,0.00,0.07,0.00,217855094,84004000,23278000,5
5.16,4.11,0.00,0.09,0.00,253240170,121065000,15008000,5
4.42,3.50,0.00,0.08,0.00,221801326,87570000,16104000,5
3.40,2.66,0.00,0.06,0.00,176555355,168543000,8025000,5
4.71,3.74,0.00,0.08,0.00,232773235,103396000,12924000,5
4.35,3.44,0.00,0.07,0.00,219628026,90464000,10935000,5
6.03,4.83,0.00,0.10,0.00,289916475,281872000,7996000,5
5.40,4.32,0.00,0.09,0.00,262207276,254170000,8005000,5
4.29,3.24,0.00,0.09,0.00,252854951,98298000,7549000,5
5.38,4.30,0.00,0.09,0.00,262557961,256522000,6012000,5
4.35,3.44,0.00,0.07,0.00,218675345,92674000,8058000,5
3.45,2.72,0.00,0.06,0.00,176249102,168230000,8010000,5
4.37,3.46,0.00,0.08,0.00,221636675,95875000,6990000,5
6.46,5.18,0.00,0.11,0.00,309500922,174380000,15912000,5
5.02,3.97,0.00,0.09,0.00,253583846,122654000,12064000,5
5.80,4.58,0.00,0.10,0.00,288967099,165344000,5502000,5
4.45,3.52,0.00,0.08,0.00,223418234,93534000,11235000,5
5.28,4.21,0.00,0.09,0.00,256860145,251886000,5017000,5
5.69,4.54,0.00,0.09,0.00,277102557,268009000,9000000,5
6.50,5.23,0.00,0.10,0.00,307332928,178551000,9974000,5
5.22,4.15,0.00,0.09,0.00,258829033,132038000,7002000,5
4.71,3.72,0.00,0.08,0.00,236535982,98956000,19671000,5
4.35,3.42,0.00,0.08,0.00,221984403,91676000,12185000,5
4.41,3.50,0.00,0.07,0.00,218740016,90029000,10115000,5
3.37,2.65,0.00,0.06,0.00,171971245,163948000,7997000,5
6.31,5.07,0.00,0.10,0.00,300726023,174167000,8007000,5
4.59,3.64,0.00,0.08,0.00,227736330,93921000,14891000,5
6.89,5.50,0.00,0.11,0.00,335408616,204728000,11925000,5
4.55,3.61,0.00,0.08,0.00,224965675,92797000,13112000,5
4.54,3.61,0.00,0.08,0.00,224629838,95453000,10937000,5
4.42,3.50,0.00,0.07,0.00,219486843,85529000,15719000,5
4.56,3.62,0.00,0.08,0.00,227362461,95192000,14028000,5
4.33,3.42,0.00,0.08,0.00,221286832,86507000,16590000,5
3.83,3.03,0.00,0.06,0.00,190857473,181866000,8993000,5
5.56,4.47,0.00,0.09,0.00,264587354,256544000,8017000,5
3.95,3.14,0.00,0.07,0.00,191550585,182498000,8975000,5
3.49,2.76,0.00,0.06,0.00,174184050,163085000,11005000,5
4.62,3.66,0.00,0.08,0.00,231310411,96567000,16180000,5
7.10,5.65,0.00,0.12,0.00,344473527,328371000,16018000,5
5.16,4.09,0.00,0.09,0.00,256556656,128928000,9065000,5
8.79,7.05,0.00,0.14,0.00,417847605,294145000,12046000,5
3.95,3.14,0.00,0.07,0.00,196199059,184159000,12010000,5
6.14,4.94,0.00,0.10,0.00,292152688,163538000,10033000,5
4.37,3.46,0.00,0.07,0.00,217925074,87646000,11951000,5
5.61,4.47,0.00,0.09,0.00,273690982,263671000,10025000,5
5.23,4.14,0.00,0.09,0.00,259877393,129036000,11003000,5
4.55,3.61,0.00,0.08,0.00,225004379,92411000,14062000,5
4.71,3.75,0.00,0.08,0.00,229724030,90951000,21455000,5
7.10,5.73,0.00,0.11,0.00,327149849,182569000,25648000,5
6.44,5.18,0.00,0.10,0.00,305430546,178008000,10000000,5
8.92,7.12,0.00,0.15,0.00,428692775,402633000,26041000,5
6.35,5.09,0.00,0.10,0.00,304009053,174524000,10636000,5
5.10,4.05,0.00,0.09,0.00,252662489,128731000,5028000,5
6.18,4.93,0.00,0.10,0.00,297745711,285771000,11990000,5
4.00,3.15,0.00,0.07,0.00,201158119,188133000,13009000,5
6.47,5.19,0.00,0.11,0.00,308711987,178647000,10700000,5
6.56,5.28,0.00,0.11,0.00,310622413,179041000,12797000,5
4.16,3.32,0.00,0.07,0.00,203169316,74171000,11025000,5
6.36,5.09,0.00,0.10,0.00,307078284,175978000,11998000,5
4.47,3.55,0.00,0.08,0.00,220745186,88802000,13248000,5
4.19,3.33,0.00,0.07,0.00,205567956,74636000,12766000,5
4.68,3.77,0.00,0.07,0.00,217712829,93817000,12828000,5
4.62,3.67,0.00,0.08,0.00,227709886,96649000,12619000,5
4.57,3.65,0.00,0.08,0.00,222423722,92293000,11594000,5
6.27,5.04,0.00,0.10,0.00,299110115,166907000,12992000,5
4.87,3.88,0.00,0.08,0.00,236938524,104129000,16281000,5
6.35,5.10,0.00,0.10,0.00,301133375,168130000,14010000,5
4.27,3.40,0.00,0.07,0.00,209147741,80274000,10584000,5
4.43,3.52,0.00,0.07,0.00,219799227,85878000,16165000,5
4.37,3.47,0.00,0.07,0.00,215225811,80060000,16012000,5
4.73,3.77,0.00,0.08,0.00,229216573,99497000,11938000,5
7.27,5.93,0.00,0.11,0.00,333540993,324119000,9003000,6
5.52,4.46,0.00,0.09,0.00,263720408,259710000,4010000,6
2.02,1.63,0.00,0.03,0.00,96787904,93738000,3023000,6
7.67,6.06,0.00,0.13,0.00,386604912,367599000,18979000,6
7.96,6.32,0.00,0.13,0.00,392902464,373880000,18993000,6
7.43,6.03,0.00,0.12,0.00,346675505,338659000,7991000,6
6.43,5.20,0.00,0.10,0.00,304344335,297333000,7007000,6
5.92,4.67,0.00,0.10,0.00,302033211,128278000,19041000,6
3.22,2.57,0.00,0.05,0.00,161074780,156082000,5002000,6
7.05,5.71,0.00,0.11,0.00,333203878,319227000,13966000,6
3.87,3.08,0.00,0.06,0.00,190368654,177304000,13022000,6
3.35,2.66,0.00,0.06,0.00,168779327,158766000,9985000,6
2.07,1.66,0.00,0.03,0.00,101517059,98376000,3011000,6
4.68,3.75,0.00,0.08,0.00,226197745,94983000,11827000,6
5.51,4.48,0.00,0.09,0.00,257741877,252749000,4995000,6
8.22,6.68,0.00,0.13,0.00,382059177,371051000,11001000,6
2.00,1.60,0.00,0.03,0.00,98058026,90017000,8001000,6
7.52,6.10,0.00,0.12,0.00,349254636,336223000,12970000,6
1.61,1.26,0.00,0.03,0.00,85834052,81785000,3989000,6
7.81,6.18,0.00,0.13,0.00,388430469,372412000,16017000,6
2.74,2.18,0.00,0.05,0.00,132892818,123845000,8988000,6
11.74,9.38,0.00,0.19,0.00,569101293,555018000,14000000,6
3.67,2.94,0.00,0.06,0.00,177407251,164355000,13028000,6
7.15,5.78,0.00,0.11,0.00,337453848,331457000,5990000,6
11.76,9.42,0.00,0.19,0.00,563106330,544103000,19003000,6
11.74,9.39,0.00,0.19,0.00,564582599,544489000,20018000,6
11.72,9.37,0.00,0.19,0.00,565174876,548167000,17005000,6
1.66,1.30,0.00,0.03,0.00,88770778,83731000,4983000,6
8.27,6.54,0.00,0.14,0.00,411113244,390998000,19999000,6
7.08,5.64,0.00,0.12,0.00,346712570,207446000,20568000,6
11.01,8.96,0.00,0.17,0.00,500893309,490916000,9977000,6
1.58,1.25,0.00,0.03,0.00,81402693,74235000,7022000,6
4.51,3.59,0.00,0.08,0.00,226265459,210327000,15948000,6
11.37,9.13,0.00,0.18,0.00,544537109,527507000,17016000,6
8.81,6.99,0.00,0.15,0.00,427582359,399503000,28035000,6
1.79,1.43,0.00,0.03,0.00,88574294,84560000,3979000,6
1.73,1.39,0.00,0.03,0.00,84189807,81149000,3005000,6
8.58,6.78,0.00,0.15,0.00,426545428,404572000,21976000,6
9.19,7.29,0.00,0.15,0.00,452714267,428721000,23984000,6
11.88,9.52,0.00,0.19,0.00,569038626,543983000,25045000,6
1.61,1.29,0.00,0.03,0.00,77886635,72856000,4990000,6
12.06,9.71,0.00,0.19,0.00,566220502,540165000,26007000,6
8.84,7.02,0.00,0.15,0.00,431362487,405280000,26017000,6
5.73,4.68,0.00,0.09,0.00,258843322,253826000,4996000,6
2.00,1.60,0.00,0.03,0.00,95674804,92657000,2988000,6
6.93,5.60,0.00,0.11,0.00,322809210,308808000,13991000,6
6.82,5.52,0.00,0.11,0.00,313454066,308331000,4989000,6
9.40,7.58,0.00,0.15,0.00,440700806,299902000,24072000,6
9.86,7.92,0.00,0.16,0.00,468522414,449465000,18977000,6
8.33,6.60,0.00,0.14,0.00,412557235,380513000,32043000,6
2.06,1.66,0.00,0.03,0.00,97472753,87452000,9937000,6
5.98,4.85,0.00,0.09,0.00,278458425,272449000,5987000,6
3.19,2.56,0.00,0.05,0.00,151904308,143869000,7992000,6
5.78,4.71,0.00,0.09,0.00,263750988,261581000,2004000,6
7.01,5.69,0.00,0.11,0.00,320495745,314456000,5989000,6
2.29,1.85,0.00,0.04,0.00,108927451,100862000,7989000,6
5.78,4.69,0.00,0.09,0.00,268325500,256324000,11968000,6
8.41,6.83,0.00,0.13,0.00,387767202,264037000,5837000,6
3.45,2.76,0.00,0.06,0.00,165245322,154210000,11015000,6
11.93,9.58,0.00,0.19,0.00,565341193,543210000,21968000,6
7.83,6.20,0.00,0.13,0.00,386734188,361723000,24980000,6
3.98,3.20,0.00,0.06,0.00,186285649,163239000,23033000,6
2.57,2.04,0.00,0.04,0.00,124946922,116790000,8054000,6
7.18,5.83,0.00,0.11,0.00,333603666,325093000,7977000,6
7.17,5.83,0.00,0.11,0.00,323315429,312270000,11009000,6
6.00,4.88,0.00,0.09,0.00,275734181,265669000,10025000,6
9.51,7.58,0.00,0.16,0.00,462549401,318636000,24893000,6
2.68,2.14,0.00,0.04,0.00,127703492,118685000,8976000,6
1.72,1.38,0.00,0.03,0.00,85170887,83184000,2004000,6
8.68,6.92,0.00,0.14,0.00,414369512,394290000,19964000,6
1.84,1.45,0.00,0.03,0.00,93751118,88684000,4982000,6
3.61,2.90,0.00,0.06,0.00,174274179,164249000,10015000,6
1.84,1.48,0.00,0.03,0.00,87016991,81995000,4999000,6
9.24,7.32,0.00,0.15,0.00,448958678,425883000,22993000,6
1.84,1.50,0.00,0.03,0.00,83553373,77586000,5968000,6
7.23,5.86,0.00,0.11,0.00,336580091,327571000,8988000,6
6.20,4.96,0.00,0.10,0.00,303643465,290628000,12983000,6
1.74,1.37,0.00,0.03,0.00,89006661,82071000,6921000,6
1.88,1.51,0.00,0.03,0.00,90946605,80934000,9991000,6
3.43,2.76,0.00,0.06,0.00,164786285,155776000,8987000,6
3.02,2.43,0.00,0.05,0.00,148742373,145478000,2989000,7
8.20,6.63,0.00,0.12,0.00,362603078,227616000,134773000,7
7.86,6.35,0.00,0.12,0.00,346814525,186781000,159812000,7
3.20,2.63,0.00,0.05,0.00,146867511,144885000,1998000,7
6.33,5.13,0.00,0.10,0.00,293764600,159397000,134334000,7
8.18,6.62,0.00,0.12,0.00,362107725,209548000,152399000,7
2.87,2.20,0.00,0.06,0.00,164494296,2319000,6535000,7
1.96,1.57,0.00,0.03,0.00,97528978,95572000,1991000,7
2.60,2.09,0.00,0.04,0.00,125759760,3324000,4432000,7
2.62,2.10,0.00,0.04,0.00,126093994,2162000,7230000,7
2.59,2.08,0.00,0.04,0.00,122109066,3086000,5923000,7
4.06,3.34,0.00,0.06,0.00,178966173,176963000,1999000,7
3.73,3.05,0.00,0.06,0.00,167470537,165556000,1994000,7
8.08,6.51,0.00,0.12,0.00,360859181,217426000,143281000,7
1.98,1.59,0.00,0.03,0.00,96897762,95958000,999000,7
8.02,6.46,0.00,0.12,0.00,359394747,212127000,147088000,7
2.58,2.07,0.00,0.04,0.00,121376689,3030000,5819000,7
7.76,6.28,0.00,0.12,0.00,364084779,222031000,142020000,7
2.44,1.97,0.00,0.04,0.00,117495193,116492000,1004000,7
8.03,6.50,0.00,0.12,0.00,351459080,207189000,144132000,7
2.55,2.03,0.00,0.04,0.00,126870755,3432000,5721000,7
4.04,3.26,0.00,0.07,0.00,192978665,190908000,1988000,7
8.94,7.22,0.00,0.14,0.00,397231692,250944000,145967000,7
10.47,8.50,0.00,0.16,0.00,483542749,281617000,201726000,7
2.56,2.05,0.00,0.04,0.00,125638697,1937000,7591000,7
2.57,2.04,0.00,0.04,0.00,130957008,128978000,1999000,7
8.14,6.56,0.00,0.12,0.00,362886575,217158000,145436000,7
3.39,2.76,0.00,0.05,0.00,156619315,154623000,1995000,7
2.57,2.08,0.00,0.04,0.00,121476201,121487000,0,7
6.89,5.54,0.00,0.10,0.00,309160607,163000000,146000000,7
2.59,2.07,0.00,0.04,0.00,124851725,4531000,4531000,7
8.61,6.95,0.00,0.13,0.00,382025151,238837000,142902000,7
2.69,2.18,0.00,0.04,0.00,127377081,126279000,1002000,7
8.56,6.88,0.00,0.13,0.00,388570779,226555000,161682000,7
9.09,7.33,0.00,0.14,0.00,406248338,251956000,153973000,7
2.58,2.07,0.00,0.04,0.00,124414047,2050000,7968000,7
2.69,2.18,0.00,0.04,0.00,122619384,2018000,6056000,7
7.96,6.40,0.00,0.12,0.00,357068397,206867000,149904000,7
8.35,6.74,0.00,0.13,0.00,372579744,235704000,136828000,7
7.91,6.35,0.00,0.12,0.00,356274100,206918000,148941000,7
1.98,1.57,0.00,0.03,0.00,99753082,98766000,997000,7
8.25,6.68,0.00,0.12,0.00,360640812,227599000,132766000,7
8.34,6.76,0.00,0.12,0.00,364622765,219637000,144761000,7
5.42,4.45,0.00,0.08,0.00,239550672,237433000,1995000,7
2.59,2.08,0.00,0.04,0.00,122753697,885000,7000000,7
7.21,5.87,0.00,0.11,0.00,326067994,197029000,129019000,7
3.96,3.22,0.00,0.06,0.00,183597070,182608000,1003000,7
2.58,2.06,0.00,0.04,0.00,125742491,987000,7899000,7
3.45,2.81,0.00,0.05,0.00,158423602,155428000,3008000,7
4.63,3.77,0.00,0.07,0.00,205435341,62081000,143188000,7
8.36,6.77,0.00,0.12,0.00,365271422,219055000,146036000,7
2.62,2.10,0.00,0.04,0.00,124635891,2165000,7279000,7
8.84,7.09,0.00,0.13,0.00,381652167,235636000,145775000,7
8.36,6.79,0.00,0.12,0.00,361362009,215056000,146038000,7
7.81,6.28,0.00,0.12,0.00,351935427,213189000,138473000,7
1.96,1.55,0.00,0.03,0.00,99722057,96753000,2961000,7
2.25,1.84,0.00,0.03,0.00,98912702,94759000,4032000,7
2.71,2.17,0.00,0.04,0.00,131669058,131676000,0,7
8.25,6.65,0.00,0.12,0.00,364192779,209372000,154536000,7
8.87,7.17,0.00,0.13,0.00,391666125,238258000,153165000,7
2.60,2.08,0.00,0.04,0.00,125419321,2011000,6978000,7
2.53,2.06,0.00,0.04,0.00,117146472,116192000,1001000,7
8.11,6.56,0.00,0.12,0.00,355462814,194147000,161122000,7
9.46,7.65,0.00,0.14,0.00,418536642,258185000,160114000,7
8.29,6.70,0.00,0.12,0.00,364879311,207762000,156820000,7
2.92,2.39,0.00,0.04,0.00,131356665,129269000,2004000,7
2.03,1.65,0.00,0.03,0.00,94768585,91817000,2994000,7
3.54,2.86,0.00,0.06,0.00,168067262,165857000,1998000,7
7.10,5.74,0.00,0.11,0.00,327492890,179270000,148223000,7
3.46,2.81,0.00,0.05,0.00,160166846,160178000,0,7
4.02,3.31,0.00,0.06,0.00,175982572,173987000,1999000,7
6.63,5.37,0.00,0.10,0.00,305445789,178227000,127162000,7
2.62,2.09,0.00,0.04,0.00,127643535,957000,8615000,7
3.09,2.53,0.00,0.05,0.00,137754507,136662000,997000,7
4.13,3.41,0.00,0.06,0.00,176605129,175600000,1003000,7
8.10,6.60,0.00,0.12,0.00,365226944,227504000,137700000,7
6.55,5.32,0.00,0.10,0.00,298601902,160290000,138250000,7
7.19,5.85,0.00,0.11,0.00,325522935,181714000,143774000,7
8.08,6.50,0.00,0.12,0.00,361168350,211942000,148959000,7
8.10,6.55,0.00,0.12,0.00,355052092,218830000,135894000,7
4.33,3.51,0.00,0.07,0.00,200300905,189993000,9947000,8
6.01,4.85,0.00,0.10,0.00,284208144,236359000,47870000,8
3.24,2.60,0.00,0.05,0.00,155943565,143945000,11995000,8
4.67,3.69,0.00,0.08,0.00,228380296,214306000,14020000,8
3.67,2.95,0.00,0.06,0.00,174467764,164508000,9970000,8
10.39,8.43,0.00,0.16,0.00,478655009,416549000,62081000,8
3.93,3.17,0.00,0.06,0.00,180126688,172037000,8001000,8
13.47,10.93,0.00,0.21,0.00,620667339,487744000,132930000,8
3.33,2.68,0.00,0.05,0.00,157166021,145135000,12011000,8
4.12,3.32,0.00,0.07,0.00,194510406,180528000,13963000,8
3.24,2.61,0.00,0.05,0.00,151416684,141425000,10030000,8
3.47,2.82,0.00,0.05,0.00,161279508,155238000,6009000,8
3.94,3.18,0.00,0.06,0.00,184772896,170860000,13907000,8
3.40,2.76,0.00,0.05,0.00,156515323,146562000,9970000,8
3.87,3.10,0.00,0.06,0.00,184546357,172465000,12032000,8
11.12,9.07,0.00,0.17,0.00,498736421,446700000,51965000,8
2.78,2.23,0.00,0.04,0.00,131509301,121463000,10038000,8
9.33,7.62,0.00,0.14,0.00,422487498,379521000,42945000,8
6.30,5.08,0.00,0.10,0.00,293733076,220782000,72928000,8
3.88,3.12,0.00,0.06,0.00,183679718,160704000,22957000,8
3.37,2.71,0.00,0.05,0.00,157237898,143185000,14018000,8
4.16,3.38,0.00,0.06,0.00,187994982,178973000,8998000,8
6.39,5.17,0.00,0.10,0.00,297945963,228980000,68994000,8
2.93,2.35,0.00,0.05,0.00,138309547,125238000,13024000,8
4.77,3.86,0.00,0.07,0.00,218284051,202332000,15947000,8
9.70,7.90,0.00,0.15,0.00,438730562,378619000,60098000,8
9.17,7.46,0.00,0.14,0.00,422844128,359684000,63120000,8
10.25,8.33,0.00,0.16,0.00,469986730,402975000,66995000,8
4.19,3.37,0.00,0.07,0.00,195819721,182772000,12983000,8
9.62,7.80,0.00,0.15,0.00,445069156,390036000,55005000,8
3.43,2.76,0.00,0.05,0.00,159743419,141743000,17967000,8
3.62,2.92,0.00,0.06,0.00,168039740,158029000,10001000,8
4.56,3.68,0.00,0.07,0.00,212210144,195160000,17013000,8
7.09,5.61,0.00,0.12,0.00,340770465,329733000,10991000,8
3.34,2.69,0.00,0.05,0.00,155648055,139661000,15961000,8
4.54,3.66,0.00,0.07,0.00,207224426,195197000,12012000,8
4.85,3.91,0.00,0.08,0.00,224105620,212116000,12006000,8
3.40,2.73,0.00,0.05,0.00,160041168,150998000,8999000,8
5.80,4.69,0.00,0.09,0.00,266115576,170399000,95662000,8
11.72,9.48,0.00,0.18,0.00,540264180,466069000,74011000,8
4.14,3.34,0.00,0.07,0.00,193364864,180313000,13022000,8
5.29,4.32,0.00,0.08,0.00,233615925,222568000,11028000,8
3.77,3.05,0.00,0.06,0.00,175693416,164684000,10978000,8
11.66,9.45,0.00,0.18,0.00,529930806,466857000,62980000,8
3.26,2.66,0.00,0.05,0.00,142905484,132851000,9988000,8
3.78,3.06,0.00,0.06,0.00,172629361,162620000,9976000,8
3.55,2.85,0.00,0.06,0.00,164984080,156937000,8048000,8
3.64,2.95,0.00,0.06,0.00,163814138,150791000,12896000,8
5.65,4.59,0.00,0.09,0.00,256904658,247874000,8995000,8
4.48,3.62,0.00,0.07,0.00,204397726,187290000,17026000,8
3.53,2.84,0.00,0.06,0.00,165595051,154596000,10971000,8
3.25,2.62,0.00,0.05,0.00,150952951,140931000,9995000,8
3.38,2.73,0.00,0.05,0.00,157749735,151767000,5990000,8
4.52,3.67,0.00,0.07,0.00,202232217,192186000,10009000,8
12.84,10.45,0.00,0.20,0.00,584360341,516394000,67920000,8
3.92,3.19,0.00,0.06,0.00,176920139,164828000,12060000,8
6.04,4.89,0.00,0.09,0.00,273566721,216627000,56902000,8
3.51,2.81,0.00,0.06,0.00,165679386,155625000,10040000,8
9.63,7.83,0.00,0.15,0.00,435211923,374209000,61034000,8
3.44,2.77,0.00,0.05,0.00,156109047,147068000,9004000,8
9.25,7.52,0.00,0.14,0.00,422565327,368518000,53929000,8
10.78,8.75,0.00,0.17,0.00,494643004,440635000,53955000,8
2.84,2.27,0.00,0.05,0.00,135982745,125906000,10072000,8
6.87,5.52,0.00,0.11,0.00,313862222,298864000,14993000,8
7.54,6.03,0.00,0.12,0.00,357810706,290651000,67150000,8
4.38,3.58,0.00,0.07,0.00,191109630,177108000,14008000,8
3.43,2.77,0.00,0.05,0.00,158847393,144831000,13983000,8
5.10,4.16,0.00,0.08,0.00,228289390,221236000,7007000,8
5.92,4.80,0.00,0.09,0.00,266491660,244463000,22041000,8
9.58,7.77,0.00,0.15,0.00,439089576,394073000,45008000,8
9.77,7.95,0.00,0.15,0.00,443716333,380757000,62959000,8
7.94,6.41,0.00,0.12,0.00,363165102,354109000,9002000,8
10.89,8.86,0.00,0.17,0.00,496575168,452502000,44048000,8
11.13,9.05,0.00,0.17,0.00,501686306,450716000,50967000,8
9.72,7.93,0.00,0.15,0.00,436288882,365219000,71042000,8
11.78,9.52,0.00,0.18,0.00,542311297,492249000,50025000,8
5.04,4.09,0.00,0.08,0.00,228039192,220016000,8000000,8
9.37,7.64,0.00,0.14,0.00,422455747,370486000,51928000,8
3.23,2.61,0.00,0.05,0.00,149338797,140345000,8958000,8
3.37,2.73,0.00,0.05,0.00,152815771,142770000,9983000,8
1.16,0.96,0.00,0.02,0.00,51561878,49304000,1972000,9
1.05,0.83,0.00,0.02,0.00,56412330,55411000,1007000,9
0.43,0.33,0.00,0.01,0.00,26522751,23567000,2945000,9
1.08,0.85,0.00,0.02,0.00,56072821,55083000,1001000,9
1.10,0.87,0.00,0.02,0.00,56186747,54194000,2007000,9
1.09,0.86,0.00,0.02,0.00,56730259,50810000,5977000,9
0.41,0.31,0.00,0.01,0.00,24365498,19295000,5077000,9
1.10,0.88,0.00,0.02,0.00,53907549,51766000,1991000,9
0.28,0.20,0.00,0.01,0.00,19699329,18731000,985000,9
1.09,0.85,0.00,0.02,0.00,59181266,57195000,2006000,9
0.32,0.24,0.00,0.01,0.00,19270046,18258000,1014000,9
0.75,0.57,0.00,0.02,0.00,43712179,34529000,9140000,9
0.47,0.35,0.00,0.01,0.00,28168304,27219000,972000,9
1.05,0.83,0.00,0.02,0.00,53628125,51627000,1985000,9
0.08,0.06,0.00,0.00,0.00,4833089,1908000,2863000,9
1.09,0.89,0.00,0.02,0.00,50551024,48484000,2020000,9
1.11,0.87,0.00,0.02,0.00,58152340,56145000,2005000,9
0.33,0.25,0.00,0.01,0.00,19842604,17874000,1986000,9
0.42,0.32,0.00,0.01,0.00,23451635,14224000,9144000,9
0.09,0.07,0.00,0.00,0.00,4458925,2697000,1798000,9
1.06,0.83,0.00,0.02,0.00,58283608,53271000,5025000,9
0.12,0.09,0.00,0.00,0.00,6258409,4187000,2093000,9
0.31,0.24,0.00,0.01,0.00,19175128,17200000,2023000,9
0.10,0.08,0.00,0.00,0.00,5276564,2658000,2658000,9
1.12,0.87,0.00,0.02,0.00,60726843,56700000,4050000,9
1.08,0.85,0.00,0.02,0.00,56421449,55443000,990000,9
1.12,0.88,0.00,0.02,0.00,59983929,57964000,1998000,9
0.09,0.07,0.00,0.00,0.00,5063627,3052000,2034000,9
1.09,0.85,0.00,0.02,0.00,60326239,57374000,2967000,9
1.04,0.80,0.00,0.02,0.00,59607973,57482000,2016000,9
0.51,0.39,0.00,0.01,0.00,29316898,25285000,4045000,9
1.09,0.86,0.00,0.02,0.00,56563217,54544000,2020000,9
3.25,2.57,0.00,0.06,0.00,167164941,14819000,7846000,9
0.51,0.40,0.00,0.01,0.00,27341936,23442000,3907000,9
0.49,0.38,0.00,0.01,0.00,28140989,27183000,1006000,9
0.08,0.06,0.00,0.00,0.00,5381334,4290000,1072000,9
0.39,0.30,0.00,0.01,0.00,20623146,15483000,5161000,9
1.12,0.88,0.00,0.02,0.00,56743040,54760000,1991000,9
0.37,0.27,0.00,0.01,0.00,24090063,19082000,5021000,9
0.48,0.36,0.00,0.01,0.00,30111638,18060000,12040000,9
0.34,0.27,0.00,0.01,0.00,17051026,15015000,2002000,9
0.32,0.24,0.00,0.01,0.00,18962884,16827000,2103000,9
0.31,0.24,0.00,0.01,0.00,18243821,15369000,2881000,9
0.56,0.43,0.00,0.01,0.00,32271588,25253000,7070000,9
0.11,0.08,0.00,0.00,0.00,6847697,2932000,3909000,9
0.15,0.11,0.00,0.00,0.00,9687286,4849000,4849000,9
1.08,0.86,0.00,0.02,0.00,56204019,51274000,4930000,9
1.09,0.86,0.00,0.02,0.00,56938004,54918000,1997000,9
0.10,0.07,0.00,0.00,0.00,5638885,4705000,941000,9
0.08,0.06,0.00,0.00,0.00,5364570,3580000,1790000,9
0.47,0.37,0.00,0.01,0.00,24681947,21594000,3084000,9
0.48,0.37,0.00,0.01,0.00,26795660,24731000,2060000,9
0.30,0.22,0.00,0.01,0.00,18189477,17299000,961000,9
0.40,0.30,0.00,0.01,0.00,25384861,20305000,5076000,9
0.33,0.24,0.00,0.01,0.00,20619337,9833000,10817000,9
0.47,0.36,0.00,0.01,0.00,28092521,21346000,6792000,9
0.08,0.06,0.00,0.00,0.00,5359946,2709000,2709000,9
1.20,0.96,0.00,0.02,0.00,60639537,55585000,5053000,9
0.47,0.37,0.00,0.01,0.00,25966757,23116000,2889000,9
1.07,0.84,0.00,0.02,0.00,58410940,57416000,1007000,9
0.09,0.06,0.00,0.00,0.00,5629543,2837000,2837000,9
0.10,0.08,0.00,0.00,0.00,5406020,1808000,3617000,9
0.33,0.25,0.00,0.01,0.00,19442544,16535000,2918000,9
0.36,0.28,0.00,0.01,0.00,18996454,15197000,3799000,9
0.33,0.25,0.00,0.01,0.00,18506218,17354000,1020000,9
1.04,0.81,0.00,0.02,0.00,58890097,57842000,997000,9
1.13,0.90,0.00,0.02,0.00,57936797,54919000,3029000,9
0.36,0.28,0.00,0.01,0.00,20915533,19857000,1045000,9
1.12,0.89,0.00,0.02,0.00,58607082,55674000,2982000,9
1.15,0.92,0.00,0.02,0.00,57916919,55835000,2030000,9
1.45,1.16,0.00,0.02,0.00,70090669,60052000,10008000,9
0.10,0.08,0.00,0.00,0.00,4811049,2417000,2417000,9
1.15,0.91,0.00,0.02,0.00,58646022,57651000,993000,9
0.32,0.23,0.00,0.01,0.00,20948564,17821000,3144000,9
0.32,0.24,0.00,0.01,0.00,21459262,16568000,4873000,9
0.25,0.20,0.00,0.00,0.00,10154260,3045000,7105000,9
0.10,0.07,0.00,0.00,0.00,5817432,2881000,2881000,9
0.32,0.24,0.00,0.01,0.00,19200351,18181000,1010000,9
1.14,0.91,0.00,0.02,0.00,55703559,53604000,1985000,9
0.09,0.07,0.00,0.00,0.00,5453360,4323000,1080000,9
1.16,0.91,0.00,0.02,0.00,58393000,53745000,3981000,10
1.78,1.41,0.00,0.03,0.00,86281273,80239000,6017000,10
1.94,1.52,0.00,0.03,0.00,99031602,89874000,9088000,10
1.45,1.15,0.00,0.02,0.00,72445793,62382000,9902000,10
1.86,1.46,0.00,0.03,0.00,92527182,82340000,10041000,10
1.68,1.30,0.00,0.03,0.00,89039126,81923000,7079000,10
2.20,1.74,0.00,0.04,0.00,107935126,98914000,8992000,10
1.92,1.52,0.00,0.03,0.00,94518425,83406000,11053000,10
1.88,1.46,0.00,0.03,0.00,98108971,91079000,7006000,10
3.58,2.87,0.00,0.06,0.00,169438815,155482000,13953000,10
2.67,2.16,0.00,0.04,0.00,123682965,118573000,4982000,10
1.31,1.04,0.00,0.02,0.00,65265437,57202000,8028000,10
4.14,3.29,0.00,0.07,0.00,199163013,187111000,12007000,10
1.07,0.83,0.00,0.02,0.00,56221193,49214000,7030000,10
1.31,1.06,0.00,0.02,0.00,58298847,54182000,3940000,10
3.48,2.81,0.00,0.05,0.00,159513924,145509000,13952000,10
3.17,2.56,0.00,0.05,0.00,145242347,134092000,11007000,10
3.19,2.53,0.00,0.05,0.00,155829086,148833000,6992000,10
1.97,1.60,0.00,0.03,0.00,93131855,84126000,9013000,10
1.88,1.47,0.00,0.03,0.00,93497950,83492000,9939000,10
1.30,1.03,0.00,0.02,0.00,66153156,62176000,4011000,10
1.22,0.97,0.00,0.02,0.00,61334476,53269000,8040000,10
1.14,0.91,0.00,0.02,0.00,56475171,51403000,4942000,10
1.75,1.38,0.00,0.03,0.00,86738839,77734000,8969000,10
1.64,1.29,0.00,0.03,0.00,81922547,75984000,5920000,10
1.74,1.37,0.00,0.03,0.00,86535375,76557000,9942000,10
1.16,0.91,0.00,0.02,0.00,59302826,55273000,4019000,10
1.71,1.34,0.00,0.03,0.00,85967084,80941000,4996000,10
3.38,2.72,0.00,0.05,0.00,156319090,149328000,7015000,10
3.19,2.57,0.00,0.05,0.00,149196823,140167000,9010000,10
1.88,1.48,0.00,0.03,0.00,93978378,86991000,6999000,10
1.68,1.32,0.00,0.03,0.00,83398601,75321000,8034000,10
3.26,2.63,0.00,0.05,0.00,149890151,143849000,6035000,10
2.78,2.20,0.00,0.05,0.00,135161995,127135000,8008000,10
4.71,4.03,0.00,0.05,0.00,146610640,136614000,9971000,10
5.15,4.47,0.00,0.05,0.00,150092432,143027000,7001000,10
2.22,1.75,0.00,0.04,0.00,109812136,99738000,10074000,10
1.79,1.40,0.00,0.03,0.00,89968420,81888000,8087000,10
3.31,2.65,0.00,0.05,0.00,155365216,145376000,10025000,10
1.26,0.99,0.00,0.02,0.00,64284073,55378000,8900000,10
1.90,1.49,0.00,0.03,0.00,94506017,81394000,13063000,10
2.88,2.32,0.00,0.05,0.00,133897158,128862000,4994000,10
2.69,2.17,0.00,0.04,0.00,124991548,118965000,5998000,10
1.19,0.93,0.00,0.02,0.00,64200683,57190000,7023000,10
2.41,1.91,0.00,0.04,0.00,114892230,79256000,35665000,10
2.01,1.61,0.00,0.03,0.00,90936667,82823000,8080000,10
1.23,0.96,0.00,0.02,0.00,61817167,51992000,9809000,10
1.20,0.95,0.00,0.02,0.00,59951842,52967000,6995000,10
1.35,1.06,0.00,0.02,0.00,68520369,60590000,7946000,10
3.22,2.58,0.00,0.05,0.00,152157595,141119000,11009000,10
3.19,2.55,0.00,0.05,0.00,151837217,144793000,7038000,10
2.80,2.25,0.00,0.04,0.00,131366354,127363000,3980000,10
2.70,2.17,0.00,0.04,0.00,126057962,122103000,4003000,10
2.90,2.33,0.00,0.05,0.00,135067581,124040000,11003000,10
1.93,1.52,0.00,0.03,0.00,95103281,89073000,6004000,10
2.11,1.67,0.00,0.04,0.00,102817104,90810000,11974000,10
2.43,1.91,0.00,0.04,0.00,118700212,107696000,10969000,10
1.92,1.51,0.00,0.03,0.00,95265273,85193000,10022000,10
3.39,2.72,0.00,0.05,0.00,159192419,151176000,8009000,10
1.90,1.50,0.00,0.03,0.00,92897609,79887000,12981000,10
1.82,1.44,0.00,0.03,0.00,88659119,81561000,7048000,10
1.93,1.52,0.00,0.03,0.00,94797617,81724000,13116000,10
3.32,2.66,0.00,0.05,0.00,155152806,145117000,10008000,10
3.44,2.76,0.00,0.05,0.00,159543912,147563000,11964000,10
1.75,1.38,0.00,0.03,0.00,86884787,77827000,8980000,10
1.91,1.50,0.00,0.03,0.00,95682349,83746000,11963000,10
1.20,0.94,0.00,0.02,0.00,61744654,56749000,4977000,10
1.85,1.46,0.00,0.03,0.00,90573626,80500000,10062000,10
1.72,1.35,0.00,0.03,0.00,86140408,79131000,7011000,10
3.69,2.89,0.00,0.06,0.00,185922053,173766000,12053000,10
3.95,3.16,0.00,0.06,0.00,185596313,173544000,12037000,10
1.19,0.94,0.00,0.02,0.00,59817627,53837000,5981000,10
2.08,1.63,0.00,0.04,0.00,104929653,84932000,19984000,10
1.99,1.57,0.00,0.03,0.00,98356283,91277000,7021000,10
2.83,2.27,0.00,0.04,0.00,132112570,124142000,8009000,10
5.12,4.12,0.00,0.08,0.00,239913745,226004000,13938000,10
1.39,1.10,0.00,0.02,0.00,70284725,65236000,5018000,10
2.76,2.24,0.00,0.04,0.00,125459085,120381000,5015000,10
1.43,1.13,0.00,0.02,0.00,71785828,52817000,18934000,10
3.36,2.70,0.00,0.05,0.00,159050308,152014000,7000000,10
1.20,0.93,0.00,0.02,0.00,65999159,62747000,2987000,11
1.92,1.57,0.00,0.03,0.00,87035960,85029000,2000000,11
1.33,1.06,0.00,0.02,0.00,65741493,64753000,996000,11
8.29,6.77,0.00,0.13,0.00,375303716,374349000,1000000,11
2.18,1.76,0.00,0.04,0.00,103651463,102656000,1006000,11
7.99,6.53,0.00,0.12,0.00,361252064,359221000,2001000,11
1.25,1.00,0.00,0.02,0.00,63064511,60057000,3002000,11
2.09,1.68,0.00,0.03,0.00,101430899,100443000,1004000,11
1.41,1.13,0.00,0.02,0.00,69585898,69588000,0,11
1.22,0.98,0.00,0.02,0.00,60239110,59254000,1004000,11
1.32,1.05,0.00,0.02,0.00,68493687,64579000,3974000,11
1.49,1.19,0.00,0.02,0.00,72107910,70167000,2004000,11
1.24,0.96,0.00,0.02,0.00,65829220,64858000,997000,11
11.06,8.88,0.00,0.18,0.00,536327691,535329000,1000000,11
1.27,1.02,0.00,0.02,0.00,60935565,59942000,999000,11
1.63,1.32,0.00,0.03,0.00,77044736,77109000,0,11
1.19,0.93,0.00,0.02,0.00,62315140,60360000,1979000,11
2.28,1.84,0.00,0.04,0.00,106324393,102346000,4013000,11
1.24,0.97,0.00,0.02,0.00,65483922,63408000,1981000,11
1.95,1.57,0.00,0.03,0.00,95961563,94863000,998000,11
8.29,6.80,0.00,0.12,0.00,365720231,364654000,999000,11
1.17,0.90,0.00,0.02,0.00,65032829,63887000,998000,11
1.27,1.00,0.00,0.02,0.00,65575054,64606000,993000,11
1.44,1.15,0.00,0.02,0.00,69914785,66783000,2990000,11
0.08,0.06,0.00,0.00,0.00,5101359,3450000,1725000,11
8.54,6.89,0.00,0.14,0.00,405098063,404005000,1000000,11
1.19,0.93,0.00,0.02,0.00,63604843,62634000,1010000,11
1.22,0.97,0.00,0.02,0.00,60827161,59832000,997000,11
1.20,0.95,0.00,0.02,0.00,62975554,62976000,0,11
1.17,0.92,0.00,0.02,0.00,62399208,61464000,991000,11
1.50,1.19,0.00,0.03,0.00,75858969,74882000,1011000,11
2.23,1.78,0.00,0.04,0.00,108875497,107896000,1008000,11
1.97,1.58,0.00,0.03,0.00,96300154,95311000,1003000,11
1.20,0.94,0.00,0.02,0.00,64747431,62771000,1992000,11
1.24,0.97,0.00,0.02,0.00,66249228,63170000,2961000,11
1.25,0.98,0.00,0.02,0.00,65068494,61971000,2998000,11
1.85,1.49,0.00,0.03,0.00,89121524,88038000,1000000,11
1.42,1.13,0.00,0.02,0.00,69227728,68234000,1003000,11
1.95,1.57,0.00,0.03,0.00,95212713,94205000,1002000,11
1.99,1.60,0.00,0.03,0.00,95458829,94473000,994000,11
9.02,7.40,0.00,0.14,0.00,397172527,395191000,1995000,11
1.85,1.48,0.00,0.03,0.00,91125718,88145000,3004000,11
1.23,0.97,0.00,0.02,0.00,62350249,62341000,0,11
7.81,6.25,0.00,0.12,0.00,352017337,202971000,148979000,11
1.25,1.01,0.00,0.02,0.00,59705371,57716000,1990000,11
1.29,1.01,0.00,0.02,0.00,69473458,67507000,1985000,11
1.57,1.26,0.00,0.03,0.00,75533631,74523000,1007000,11
8.39,6.85,0.00,0.13,0.00,378159304,377183000,1000000,11
1.34,1.07,0.00,0.02,0.00,64995746,63978000,1015000,11
0.85,0.68,0.00,0.01,0.00,42478766,41467000,1011000,11
3.44,2.77,0.00,0.06,0.00,164535142,159569000,4986000,11
1.23,0.97,0.00,0.02,0.00,62695496,61698000,995000,11
1.22,0.98,0.00,0.02,0.00,60793310,57856000,2941000,11
8.35,6.84,0.00,0.13,0.00,369238821,368244000,1000000,11
1.98,1.59,0.00,0.03,0.00,92835091,91855000,1009000,11
2.11,1.71,0.00,0.03,0.00,99351679,97332000,2006000,11
1.48,1.18,0.00,0.03,0.00,73719851,70704000,2946000,11
1.47,1.17,0.00,0.03,0.00,73487876,70434000,3018000,11
8.37,6.87,0.00,0.12,0.00,367990534,364988000,2999000,11
1.65,1.34,0.00,0.03,0.00,77936022,76930000,999000,11
1.27,1.01,0.00,0.02,0.00,62625181,61644000,994000,11
8.61,7.05,0.00,0.13,0.00,380175069,378080000,2000000,11
1.73,1.39,0.00,0.03,0.00,83040206,80094000,3003000,11
1.28,1.01,0.00,0.02,0.00,65179351,64183000,1002000,11
8.29,6.78,0.00,0.12,0.00,368455630,365469000,3003000,11
1.60,1.29,0.00,0.03,0.00,76120673,75049000,1000000,11
1.30,1.03,0.00,0.02,0.00,64026063,62030000,2000000,11
1.62,1.34,0.00,0.02,0.00,68448860,66389000,2011000,11
1.40,1.15,0.00,0.02,0.00,59663323,58613000,1010000,11
2.03,1.62,0.00,0.03,0.00,101849322,99829000,2016000,11
1.54,1.24,0.00,0.03,0.00,73073070,71956000,999000,11
8.25,6.76,0.00,0.12,0.00,364648559,362649000,1998000,11
1.67,1.34,0.00,0.03,0.00,79688650,78683000,995000,11
1.64,1.31,0.00,0.03,0.00,79437553,77532000,1988000,11
3.09,2.49,0.00,0.05,0.00,146260384,145301000,1002000,11
1.31,1.05,0.00,0.02,0.00,65842742,63851000,1995000,11
8.54,7.00,0.00,0.13,0.00,376347846,374380000,1996000,11
1.39,1.11,0.00,0.02,0.00,66196127,63115000,3005000,11
1.33,1.06,0.00,0.02,0.00,65614187,63630000,1988000,11
10.96,8.89,0.00,0.17,0.00,505897363,502818000,2992000,11
2.77,2.22,0.00,0.05,0.00,136530549,133329000,3007000,12
3.42,2.70,0.00,0.06,0.00,176482960,166458000,9967000,12
2.79,2.26,0.00,0.04,0.00,131555268,127576000,3986000,12
0.85,0.67,0.00,0.02,0.00,44501001,40537000,3954000,12
0.80,0.62,0.00,0.01,0.00,42904574,40912000,1995000,12
0.99,0.77,0.00,0.02,0.00,52871649,47938000,4993000,12
5.66,4.48,0.00,0.10,0.00,280495727,257571000,22961000,12
2.64,2.13,0.00,0.04,0.00,128545036,124587000,3986000,12
0.94,0.74,0.00,0.02,0.00,48695544,43719000,4968000,12
1.28,1.01,0.00,0.02,0.00,66447388,63426000,3020000,12
2.80,2.26,0.00,0.05,0.00,133335139,128292000,5011000,12
1.02,0.80,0.00,0.02,0.00,54059805,51017000,3061000,12
2.90,2.35,0.00,0.05,0.00,135586687,131617000,3988000,12
1.05,0.83,0.00,0.02,0.00,52820948,44824000,7968000,12
2.74,2.20,0.00,0.05,0.00,133563452,129527000,3985000,12
2.71,2.17,0.00,0.04,0.00,128966788,125971000,2999000,12
1.02,0.80,0.00,0.02,0.00,52856766,46768000,6100000,12
2.92,2.33,0.00,0.05,0.00,144081054,133057000,11004000,12
4.40,3.52,0.00,0.07,0.00,214929418,205912000,8996000,12
4.95,4.01,0.00,0.08,0.00,230052227,223020000,7000000,12
2.18,1.73,0.00,0.04,0.00,109329084,103283000,6016000,12
2.92,2.32,0.00,0.05,0.00,145981180,136953000,8996000,12
0.91,0.71,0.00,0.02,0.00,48251027,44272000,4024000,12
2.68,2.16,0.00,0.04,0.00,127199901,126188000,1001000,12
2.66,2.14,0.00,0.04,0.00,128078929,126069000,2001000,12
2.62,2.11,0.00,0.04,0.00,125804110,122785000,2994000,12
0.82,0.65,0.00,0.01,0.00,43556746,39605000,3960000,12
1.73,1.36,0.00,0.03,0.00,90002264,84907000,4994000,12
1.32,1.04,0.00,0.02,0.00,67740915,61677000,6066000,12
2.74,2.24,0.00,0.04,0.00,122594847,118586000,3986000,12
2.71,2.20,0.00,0.04,0.00,126786933,122757000,4024000,12
0.80,0.63,0.00,0.01,0.00,42850449,39886000,2991000,12
2.82,2.28,0.00,0.05,0.00,133067202,129037000,4001000,12
2.78,2.24,0.00,0.04,0.00,133074994,127056000,6002000,12
0.76,0.59,0.00,0.01,0.00,40268748,36385000,3933000,12
0.83,0.66,0.00,0.01,0.00,40163055,37174000,3014000,12
0.93,0.73,0.00,0.02,0.00,48655435,43676000,4963000,12
2.79,2.25,0.00,0.05,0.00,133143517,130084000,3001000,12
0.95,0.76,0.00,0.02,0.00,48052828,42939000,4992000,12
3.18,2.56,0.00,0.05,0.00,152969406,147910000,4996000,12
2.86,2.29,0.00,0.05,0.00,138744179,128676000,10052000,12
5.33,4.29,0.00,0.09,0.00,252459541,243481000,9017000,12
2.84,2.29,0.00,0.05,0.00,135294894,127261000,8016000,12
2.30,1.82,0.00,0.04,0.00,113927742,94744000,19150000,12
0.90,0.70,0.00,0.02,0.00,48597424,43608000,4955000,12
1.05,0.82,0.00,0.02,0.00,54443480,50291000,4023000,12
2.67,2.14,0.00,0.04,0.00,130577265,130491000,0,12
5.57,4.44,0.00,0.08,0.00,248081753,230068000,18005000,12
6.35,5.06,0.00,0.10,0.00,309165715,279103000,30011000,12
2.81,2.27,0.00,0.04,0.00,132458037,124480000,7966000,12
2.81,2.27,0.00,0.04,0.00,132134504,126088000,6004000,12
0.76,0.58,0.00,0.02,0.00,44422505,42479000,1975000,12
2.57,2.04,0.00,0.04,0.00,129414353,123284000,5965000,12
2.77,2.27,0.00,0.04,0.00,121915793,120809000,998000,12
1.17,0.93,0.00,0.02,0.00,58173475,52011000,6001000,12
3.19,2.54,0.00,0.05,0.00,156604533,143604000,12964000,12
3.00,2.42,0.00,0.05,0.00,136036634,122006000,14000000,12
1.21,0.95,0.00,0.02,0.00,62679838,55671000,6958000,12
2.16,1.71,0.00,0.04,0.00,109260223,104289000,4966000,12
1.38,1.11,0.00,0.02,0.00,67790193,62766000,4981000,12
2.88,2.35,0.00,0.04,0.00,129170332,124022000,4960000,12
3.05,2.48,0.00,0.05,0.00,138500400,128513000,9962000,12
0.94,0.74,0.00,0.02,0.00,48026007,44958000,3065000,12
3.13,2.52,0.00,0.05,0.00,148001770,138033000,10002000,12
1.14,0.90,0.00,0.02,0.00,57080068,53960000,2997000,12
0.81,0.63,0.00,0.01,0.00,42517574,38453000,4047000,12
4.80,3.87,0.00,0.08,0.00,226096685,213041000,13063000,12
4.78,3.85,0.00,0.08,0.00,224534622,217493000,7015000,12
2.86,2.30,0.00,0.05,0.00,135145829,131111000,4003000,12
1.04,0.82,0.00,0.02,0.00,53513249,49476000,4038000,12
1.04,0.82,0.00,0.02,0.00,52828920,44022000,8804000,12
4.74,3.85,0.00,0.07,0.00,209047329,188008000,21000000,12
1.03,0.79,0.00,0.02,0.00,55349119,48271000,7039000,12
1.05,0.82,0.00,0.02,0.00,54086932,45058000,9011000,12
1.05,0.83,0.00,0.02,0.00,52120809,44986000,6997000,12
2.87,2.33,0.00,0.05,0.00,132719444,126674000,5984000,12
0.92,0.73,0.00,0.02,0.00,48665076,43666000,4962000,12
0.74,0.56,0.00,0.02,0.00,44995293,39094000,5864000,12
0.97,0.77,0.00,0.02,0.00,48565219,43605000,4955000,12
2.79,2.24,0.00,0.05,0.00,135812513,129814000,5945000,12
0.26,0.19,0.00,0.01,0.00,17071600,11839000,4933000,13
0.66,0.51,0.00,0.01,0.00,35347776,35356000,0,13
0.70,0.55,0.00,0.01,0.00,36740852,31928000,4837000,13
0.33,0.25,0.00,0.01,0.00,19831153,17906000,1989000,13
0.62,0.48,0.00,0.01,0.00,36191818,35103000,1002000,13
0.63,0.48,0.00,0.01,0.00,36064110,34073000,2004000,13
0.33,0.25,0.00,0.01,0.00,19200713,18192000,1010000,13
0.66,0.51,0.00,0.01,0.00,37152713,36166000,1004000,13
0.30,0.23,0.00,0.01,0.00,17942815,15989000,1998000,13
0.64,0.50,0.00,0.01,0.00,36091786,35143000,1004000,13
0.25,0.19,0.00,0.01,0.00,15774085,13849000,1978000,13
0.63,0.50,0.00,0.01,0.00,34224904,33169000,1005000,13
0.68,0.52,0.00,0.01,0.00,39850801,37874000,1993000,13
0.61,0.46,0.00,0.01,0.00,36731153,35748000,993000,13
0.23,0.17,0.00,0.01,0.00,15046651,13091000,2014000,13
0.62,0.48,0.00,0.01,0.00,36125819,34257000,1957000,13
0.69,0.54,0.00,0.01,0.00,37856094,36907000,997000,13
0.25,0.19,0.00,0.01,0.00,15712060,14739000,982000,13
0.26,0.20,0.00,0.01,0.00,14819701,11141000,3713000,13
0.61,0.47,0.00,0.01,0.00,34878366,32846000,1990000,13
0.69,0.54,0.00,0.01,0.00,38327508,38233000,0,13
0.66,0.51,0.00,0.01,0.00,38918545,37845000,1022000,13
0.25,0.19,0.00,0.01,0.00,14820439,14847000,0,13
0.27,0.21,0.00,0.00,0.00,14074903,11982000,1997000,13
0.70,0.55,0.00,0.01,0.00,36473072,35457000,1013000,13
0.26,0.19,0.00,0.01,0.00,15868408,14910000,994000,13
0.65,0.49,0.00,0.01,0.00,39705116,37642000,2034000,13
0.71,0.56,0.00,0.01,0.00,37179286,35168000,1953000,13
0.69,0.54,0.00,0.01,0.00,37907960,35997000,1945000,13
0.64,0.49,0.00,0.01,0.00,37715720,35537000,1920000,13
0.23,0.17,0.00,0.01,0.00,15444096,13359000,2055000,13
0.05,0.04,0.00,0.00,0.00,3460258,1738000,1738000,13
0.72,0.56,0.00,0.01,0.00,38527662,36527000,2029000,13
0.67,0.53,0.00,0.01,0.00,36268777,36292000,0,13
0.37,0.28,0.00,0.01,0.00,21803253,20815000,991000,13
0.32,0.24,0.00,0.01,0.00,17922617,15978000,1997000,13
0.26,0.20,0.00,0.01,0.00,14771419,14850000,0,13
0.30,0.23,0.00,0.01,0.00,18424711,15524000,2910000,13
0.60,0.47,0.00,0.01,0.00,35019305,31081000,4010000,13
0.68,0.54,0.00,0.01,0.00,36137915,34303000,2017000,13
0.23,0.17,0.00,0.01,0.00,15265548,12404000,2862000,13
0.63,0.48,0.00,0.01,0.00,34831961,30991000,3873000,13
0.25,0.18,0.00,0.01,0.00,15788603,14739000,1052000,13
0.25,0.19,0.00,0.00,0.00,13825751,12755000,981000,13
0.67,0.52,0.00,0.01,0.00,37245263,35244000,2013000,13
0.61,0.47,0.00,0.01,0.00,35353473,34454000,984000,13
0.65,0.50,0.00,0.01,0.00,35762913,34791000,994000,13
0.62,0.48,0.00,0.01,0.00,35944864,34015000,2000000,13
0.64,0.49,0.00,0.01,0.00,35939786,33078000,2918000,13
0.27,0.20,0.00,0.01,0.00,15979861,13979000,1997000,13
0.31,0.23,0.00,0.01,0.00,19814239,18829000,991000,13
0.74,0.58,0.00,0.01,0.00,38653191,36624000,2034000,13
0.67,0.51,0.00,0.01,0.00,38053393,35114000,3009000,13
0.35,0.26,0.00,0.01,0.00,20630929,19615000,1032000,13
0.67,0.52,0.00,0.01,0.00,35501849,34506000,1014000,13
0.72,0.56,0.00,0.01,0.00,34812002,33718000,1021000,13
0.66,0.52,0.00,0.01,0.00,34592124,33520000,985000,13
0.66,0.52,0.00,0.01,0.00,35252580,33352000,1961000,13
0.62,0.48,0.00,0.01,0.00,35617030,34655000,990000,13
0.64,0.50,0.00,0.01,0.00,35474472,34528000,1015000,13
0.69,0.54,0.00,0.01,0.00,36427544,35424000,1012000,13
0.65,0.50,0.00,0.01,0.00,37537960,33627000,3956000,13
0.62,0.48,0.00,0.01,0.00,35306827,33359000,2021000,13
0.66,0.51,0.00,0.01,0.00,35882285,34901000,997000,13
0.64,0.49,0.00,0.01,0.00,36088100,35094000,1002000,13
0.41,0.32,0.00,0.01,0.00,22783894,21796000,1037000,13
0.24,0.18,0.00,0.00,0.00,14718506,14750000,0,13
0.66,0.52,0.00,0.01,0.00,33932859,32949000,998000,13
0.24,0.18,0.00,0.01,0.00,15321842,13468000,1924000,13
0.65,0.50,0.00,0.01,0.00,35228471,35250000,0,13
0.69,0.54,0.00,0.01,0.00,37927522,33946000,3993000,13
0.25,0.19,0.00,0.01,0.00,15074295,13079000,2012000,13
0.61,0.46,0.00,0.01,0.00,37384016,35451000,1969000,13
0.73,0.57,0.00,0.01,0.00,37527417,36508000,1014000,13
0.24,0.18,0.00,0.01,0.00,15043209,13205000,1886000,13
0.25,0.19,0.00,0.01,0.00,15371490,13494000,1927000,13
0.72,0.56,0.00,0.01,0.00,38061502,36070000,2003000,13
0.62,0.47,0.00,0.01,0.00,37014127,36023000,1000000,13
0.65,0.49,0.00,0.01,0.00,38282702,35261000,3022000,13
0.67,0.52,0.00,0.01,0.00,37566123,36598000,989000,13
3.73,2.97,0.00,0.06,0.00,187639531,182411000,5011000,14
4.38,3.49,0.00,0.07,0.00,215361161,202333000,13021000,14
3.68,2.93,0.00,0.06,0.00,185654619,184672000,1003000,14
0.39,0.29,0.00,0.01,0.00,24206027,23201000,1008000,14
3.86,3.07,0.00,0.07,0.00,197225452,195260000,1992000,14
4.23,3.39,0.00,0.07,0.00,205205643,197197000,8008000,14
3.61,2.86,0.00,0.06,0.00,187107692,185135000,2001000,14
4.92,3.91,0.00,0.08,0.00,245706623,235704000,9987000,14
4.11,3.28,0.00,0.07,0.00,204202974,190184000,14013000,14
3.74,2.98,0.00,0.06,0.00,189156598,188154000,1000000,14
2.10,1.65,0.00,0.04,0.00,108907404,101925000,6994000,14
2.03,1.60,0.00,0.04,0.00,104234670,97242000,7017000,14
4.60,3.68,0.00,0.08,0.00,223137874,209148000,14009000,14
4.57,3.65,0.00,0.08,0.00,223434805,207385000,16029000,14
1.16,0.90,0.00,0.02,0.00,60018828,42010000,18004000,14
1.65,1.30,0.00,0.03,0.00,84910876,73780000,11117000,14
4.47,3.58,0.00,0.07,0.00,212300949,190393000,21930000,14
3.93,3.12,0.00,0.07,0.00,197149806,190120000,7004000,14
2.87,2.26,0.00,0.05,0.00,149682857,146701000,2993000,14
4.29,3.41,0.00,0.07,0.00,214440593,201462000,12965000,14
4.48,3.59,0.00,0.07,0.00,213286847,196241000,17020000,14
4.21,3.35,0.00,0.07,0.00,209951244,202923000,6997000,14
0.26,0.19,0.00,0.01,0.00,16177502,9508000,6656000,14
0.76,0.58,0.00,0.01,0.00,43319578,39342000,4035000,14
4.03,3.21,0.00,0.07,0.00,200012645,194049000,6001000,14
3.85,3.07,0.00,0.07,0.00,192050187,186075000,6002000,14
1.55,1.21,0.00,0.03,0.00,81096834,73093000,8010000,14
1.17,0.93,0.00,0.02,0.00,57760790,46588000,11140000,14
2.76,2.20,0.00,0.05,0.00,134620445,119668000,14958000,14
2.28,1.81,0.00,0.04,0.00,112858190,101975000,10890000,14
5.56,4.44,0.00,0.09,0.00,270290355,255277000,15016000,14
8.05,6.51,0.00,0.13,0.00,375317731,368305000,7005000,14
3.59,2.87,0.00,0.06,0.00,179764391,179779000,0,14
3.04,2.43,0.00,0.05,0.00,146051634,131065000,15007000,14
1.45,1.14,0.00,0.03,0.00,74836902,63893000,10981000,14
3.06,2.48,0.00,0.05,0.00,142236946,137164000,5006000,14
4.14,3.28,0.00,0.07,0.00,204042253,156031000,48009000,14
3.80,3.02,0.00,0.07,0.00,192450677,191508000,1002000,14
5.21,4.17,0.00,0.09,0.00,250849029,235839000,14989000,14
5.01,4.01,0.00,0.08,0.00,239801679,224852000,14990000,14
2.64,2.07,0.00,0.05,0.00,141157640,139103000,2001000,14
5.08,4.05,0.00,0.08,0.00,247344615,235317000,12016000,14
4.75,3.79,0.00,0.08,0.00,232222115,224126000,8004000,14
4.75,3.81,0.00,0.08,0.00,228431271,214481000,13966000,14
5.10,4.10,0.00,0.08,0.00,241551628,228547000,12974000,14
3.06,2.45,0.00,0.05,0.00,146891113,128800000,18112000,14
4.97,3.96,0.00,0.08,0.00,242134633,231138000,11006000,14
5.35,4.29,0.00,0.09,0.00,258077820,239962000,17997000,14
2.76,2.19,0.00,0.05,0.00,140894635,138929000,1984000,14
2.45,1.96,0.00,0.04,0.00,116825579,98695000,18127000,14
1.59,1.26,0.00,0.03,0.00,80267995,75272000,5018000,14
5.35,4.28,0.00,0.09,0.00,258451979,246401000,12019000,14
4.81,3.83,0.00,0.08,0.00,234188346,216146000,18012000,14
4.51,3.61,0.00,0.07,0.00,218800266,203825000,14987000,14
3.25,2.59,0.00,0.05,0.00,158819976,151774000,7035000,14
3.10,2.50,0.00,0.05,0.00,143609437,124507000,19077000,14
5.90,4.73,0.00,0.09,0.00,279127200,264974000,13998000,14
2.64,2.07,0.00,0.05,0.00,137890555,135871000,1983000,14
5.18,4.12,0.00,0.09,0.00,252813620,236796000,16054000,14
3.90,3.12,0.00,0.06,0.00,187580823,163604000,23942000,14
5.48,4.38,0.00,0.09,0.00,265339476,253313000,12014000,14
4.63,3.71,0.00,0.07,0.00,215909195,204832000,11044000,14
1.51,1.19,0.00,0.03,0.00,77753388,70746000,6974000,14
4.56,3.65,0.00,0.08,0.00,221364476,208439000,12965000,14
5.19,4.14,0.00,0.09,0.00,251547523,240526000,11024000,14
2.60,2.08,0.00,0.04,0.00,123779931,109771000,13970000,14
4.83,3.85,0.00,0.08,0.00,236193050,223077000,13004000,14
1.46,1.16,0.00,0.02,0.00,72913946,71909000,998000,14
4.34,3.45,0.00,0.07,0.00,217014734,208919000,7996000,14
2.33,1.86,0.00,0.04,0.00,111553893,87422000,24116000,14
2.77,2.21,0.00,0.05,0.00,138758255,137760000,998000,14
1.27,1.00,0.00,0.02,0.00,66324965,57219000,9034000,14
1.37,1.07,0.00,0.02,0.00,71680996,53676000,17892000,14
4.31,3.45,0.00,0.07,0.00,208816799,192559000,16046000,14
4.53,3.63,0.00,0.07,0.00,217109056,203104000,14007000,14
2.26,1.78,0.00,0.04,0.00,116503604,115512000,1004000,14
4.01,3.24,0.00,0.06,0.00,188145712,187194000,995000,14
4.90,3.90,0.00,0.08,0.00,240374139,227229000,12956000,14
3.75,2.99,0.00,0.06,0.00,185393031,175400000,10022000,14
1.71,1.35,0.00,0.03,0.00,85587517,70659000,14927000,14
1.08,0.84,0.00,0.02,0.00,59768471,53383000,6043000,15
2.84,2.23,0.00,0.05,0.00,149131352,143181000,5965000,15
1.09,0.86,0.00,0.02,0.00,56822256,54808000,1993000,15
1.16,0.91,0.00,0.02,0.00,61267567,58286000,3014000,15
1.08,0.86,0.00,0.02,0.00,55468862,53380000,2014000,15
1.17,0.93,0.00,0.02,0.00,61442011,59400000,2013000,15
3.63,2.93,0.00,0.06,0.00,172155475,168147000,4003000,15
1.31,1.04,0.00,0.02,0.00,65571716,58595000,6951000,15
3.71,2.99,0.00,0.06,0.00,180457824,177410000,3006000,15
1.43,1.14,0.00,0.02,0.00,71546516,70587000,994000,15
3.82,3.09,0.00,0.06,0.00,180900928,177758000,3012000,15
1.20,0.95,0.00,0.02,0.00,61825876,59833000,1994000,15
1.15,0.90,0.00,0.02,0.00,62145365,62059000,0,15
3.79,3.11,0.00,0.06,0.00,169971158,167825000,2009000,15
1.08,0.83,0.00,0.02,0.00,60558641,55611000,4965000,15
1.10,0.86,0.00,0.02,0.00,57714761,53755000,3981000,15
1.28,1.04,0.00,0.02,0.00,60256683,57189000,3009000,15
1.30,1.03,0.00,0.02,0.00,65010797,62002000,3000000,15
3.76,3.03,0.00,0.06,0.00,180725631,176712000,3993000,15
5.10,4.11,0.00,0.08,0.00,243680719,238671000,5014000,15
4.09,3.32,0.00,0.06,0.00,190524739,187491000,3007000,15
1.05,0.82,0.00,0.02,0.00,58159627,56158000,2005000,15
1.10,0.87,0.00,0.02,0.00,57416604,52415000,5039000,15
1.08,0.85,0.00,0.02,0.00,57417476,53461000,3960000,15
1.11,0.87,0.00,0.02,0.00,57925990,53916000,3993000,15
5.03,4.04,0.00,0.08,0.00,240384207,237400000,2992000,15
3.74,3.02,0.00,0.06,0.00,177845693,174769000,2996000,15
1.08,0.86,0.00,0.02,0.00,55637758,52641000,3036000,15
3.83,3.09,0.00,0.06,0.00,182272500,181324000,996000,15
1.14,0.90,0.00,0.02,0.00,58140404,56021000,1965000,15
1.08,0.85,0.00,0.02,0.00,56644087,52648000,4049000,15
1.21,0.95,0.00,0.02,0.00,61663018,59723000,1990000,15
1.06,0.83,0.00,0.02,0.00,56142116,52133000,4010000,15
1.89,1.52,0.00,0.03,0.00,92462476,88454000,3975000,15
1.27,1.00,0.00,0.02,0.00,63926536,58932000,4994000,15
4.04,3.27,0.00,0.06,0.00,190010885,187012000,3000000,15
3.83,3.10,0.00,0.06,0.00,180775165,178773000,2008000,15
1.08,0.85,0.00,0.02,0.00,55728954,51675000,4053000,15
1.18,0.93,0.00,0.02,0.00,61737469,56684000,5061000,15
1.27,1.00,0.00,0.02,0.00,66418648,62359000,4023000,15
1.29,1.04,0.00,0.02,0.00,61132698,57005000,4000000,15
1.86,1.48,0.00,0.03,0.00,93666437,88656000,4980000,15
1.12,0.88,0.00,0.02,0.00,58185706,53167000,5015000,15
1.39,1.11,0.00,0.02,0.00,70513490,68474000,2013000,15
2.01,1.59,0.00,0.03,0.00,98060861,90077000,8006000,15
3.83,3.10,0.00,0.06,0.00,179474262,175492000,3988000,15
1.18,0.94,0.00,0.02,0.00,61688913,60702000,1011000,15
3.71,3.00,0.00,0.06,0.00,174672029,171684000,2994000,15
3.91,3.17,0.00,0.06,0.00,181129062,177127000,4002000,15
1.19,0.94,0.00,0.02,0.00,62615737,59612000,2980000,15
1.08,0.85,0.00,0.02,0.00,56093755,54065000,2002000,15
1.05,0.82,0.00,0.02,0.00,54958756,52955000,1998000,15
1.20,0.95,0.00,0.02,0.00,61586040,55599000,5957000,15
1.16,0.90,0.00,0.02,0.00,62026503,55011000,7001000,15
1.22,0.96,0.00,0.02,0.00,64710626,61705000,2985000,15
1.06,0.84,0.00,0.02,0.00,56353731,51390000,4941000,15
1.40,1.11,0.00,0.02,0.00,71385464,66341000,5025000,15
1.17,0.91,0.00,0.02,0.00,64153466,60063000,4004000,15
1.21,0.96,0.00,0.02,0.00,62397799,58398000,3959000,15
3.89,3.17,0.00,0.06,0.00,177852540,174817000,3014000,15
3.82,3.10,0.00,0.06,0.00,179620617,175529000,4012000,15
1.24,0.98,0.00,0.02,0.00,63968826,61947000,1998000,15
1.19,0.94,0.00,0.02,0.00,60179321,59117000,1001000,15
1.24,0.98,0.00,0.02,0.00,63512244,61482000,2015000,15
1.07,0.84,0.00,0.02,0.00,57258636,53223000,4016000,15
3.72,3.00,0.00,0.06,0.00,172631633,167563000,4987000,15
3.99,3.24,0.00,0.06,0.00,186444353,177352000,9017000,15
3.66,2.96,0.00,0.06,0.00,171841342,168825000,2996000,15
2.07,1.63,0.00,0.03,0.00,101930497,93904000,7991000,15
3.86,3.13,0.00,0.06,0.00,178689889,175686000,2994000,15
3.66,2.96,0.00,0.06,0.00,173008377,170994000,1999000,15
1.12,0.89,0.00,0.02,0.00,56724478,54649000,2024000,15
3.77,3.06,0.00,0.06,0.00,175892925,171752000,4017000,15
3.85,3.12,0.00,0.06,0.00,179370889,176360000,3006000,15
6.03,4.85,0.00,0.10,0.00,281057513,262956000,17997000,15
3.68,2.98,0.00,0.06,0.00,172252894,172140000,0,15
1.20,0.93,0.00,0.02,0.00,64742244,60647000,4043000,15
1.09,0.85,0.00,0.02,0.00,57715820,53729000,3979000,15
1.15,0.91,0.00,0.02,0.00,59759896,56749000,2986000,15
1.22,0.95,0.00,0.02,0.00,66048787,60980000,4998000,15
4.69,3.71,0.00,0.08,0.00,242981141,236755000,5993000,16
4.63,3.67,0.00,0.08,0.00,238678523,234724000,4012000,16
2.56,2.09,0.00,0.04,0.00,117173612,114102000,2976000,16
4.65,3.70,0.00,0.08,0.00,237350843,234357000,2991000,16
4.72,3.76,0.00,0.08,0.00,238710596,232590000,6015000,16
3.25,2.59,0.00,0.06,0.00,164623360,157586000,7026000,16
4.89,3.90,0.00,0.08,0.00,247025213,243039000,3984000,16
4.64,3.69,0.00,0.08,0.00,237693782,234737000,3009000,16
2.94,2.27,0.00,0.05,0.00,133030407,126949000,5997000,16
3.48,2.80,0.00,0.06,0.00,168315382,155258000,13021000,16
3.77,3.01,0.00,0.06,0.00,188641126,181596000,6984000,16
4.76,3.79,0.00,0.08,0.00,240343965,236334000,4005000,16
3.00,2.37,0.00,0.05,0.00,155356579,7819000,0,16
3.37,2.69,0.00,0.06,0.00,169434552,162461000,6976000,16
6.29,5.03,0.00,0.11,0.00,314905268,312867000,1999000,16
8.25,6.78,0.00,0.12,0.00,365611368,361599000,4006000,16
4.73,3.77,0.00,0.08,0.00,239453083,236469000,2993000,16
4.67,3.72,0.00,0.08,0.00,237894265,235932000,1999000,16
3.02,2.42,0.00,0.05,0.00,149497721,142515000,6976000,16
4.71,3.74,0.00,0.08,0.00,240832919,233678000,7020000,16
3.23,2.59,0.00,0.05,0.00,160786369,154784000,5991000,16
7.37,6.08,0.00,0.11,0.00,320658888,315621000,4994000,16
9.02,6.84,0.00,0.13,0.00,372360401,358366000,13975000,16
11.12,9.15,0.00,0.16,0.00,485356699,477335000,7988000,16
4.78,3.80,0.00,0.08,0.00,242003093,235000000,7000000,16
3.27,2.62,0.00,0.05,0.00,161578923,156514000,5016000,16
4.82,3.87,0.00,0.08,0.00,233986228,230935000,3012000,16
4.73,3.76,0.00,0.08,0.00,239362566,233357000,5983000,16
5.08,4.06,0.00,0.09,0.00,251976795,247985000,4015000,16
2.61,2.08,0.00,0.04,0.00,132880217,127963000,4959000,16
3.58,2.86,0.00,0.06,0.00,177625553,172605000,4988000,16
4.83,3.84,0.00,0.08,0.00,244003432,238926000,5019000,16
4.71,3.74,0.00,0.08,0.00,240062493,237064000,3000000,16
8.65,7.11,0.00,0.13,0.00,382650915,372524000,10014000,16
4.80,3.82,0.00,0.08,0.00,241131309,237005000,4000000,16
4.70,3.73,0.00,0.08,0.00,239719705,235613000,3993000,16
2.59,2.08,0.00,0.04,0.00,122830519,2269000,6807000,16
3.17,2.46,0.00,0.05,0.00,139719381,134678000,5025000,16
4.75,3.79,0.00,0.08,0.00,239246813,232187000,7005000,16
3.71,2.94,0.00,0.06,0.00,190302239,183214000,7008000,16
4.77,3.79,0.00,0.08,0.00,242846649,238759000,4012000,16
4.69,3.72,0.00,0.08,0.00,240218851,235211000,5004000,16
5.98,4.76,0.00,0.10,0.00,302670883,299546000,2995000,16
4.89,3.87,0.00,0.09,0.00,250727188,248688000,2005000,16
4.06,3.23,0.00,0.07,0.00,206592879,201557000,5013000,16
4.69,3.71,0.00,0.08,0.00,241547679,238480000,3006000,16
4.95,3.94,0.00,0.08,0.00,248401100,241406000,6982000,16
7.44,5.99,0.00,0.11,0.00,334890252,203846000,130901000,16
4.77,3.81,0.00,0.08,0.00,236927574,232835000,3980000,16
6.07,4.85,0.00,0.09,0.00,275695670,133836000,141827000,16
5.00,4.01,0.00,0.08,0.00,244641334,240543000,3992000,16
4.83,3.87,0.00,0.08,0.00,237855791,234709000,2996000,16
4.91,3.94,0.00,0.08,0.00,238988222,235965000,2999000,16
11.41,9.39,0.00,0.17,0.00,500407580,494314000,6003000,16
2.46,1.97,0.00,0.04,0.00,123028846,119007000,4000000,16
2.98,2.39,0.00,0.05,0.00,144691514,138687000,5986000,16
2.83,2.28,0.00,0.05,0.00,135207895,131224000,3976000,16
7.71,6.34,0.00,0.11,0.00,337614427,335365000,2002000,16
8.82,7.27,0.00,0.13,0.00,381701682,378678000,2997000,16
4.74,3.77,0.00,0.08,0.00,237800597,234777000,2997000,16
4.92,3.93,0.00,0.08,0.00,246001847,243016000,2987000,16
3.73,2.99,0.00,0.06,0.00,182491820,174490000,7976000,16
2.95,2.36,0.00,0.05,0.00,146817480,143858000,2997000,16
10.46,8.57,0.00,0.16,0.00,466894739,459869000,6998000,16
5.00,3.99,0.00,0.08,0.00,247981656,242964000,4999000,16
2.70,2.18,0.00,0.04,0.00,123179802,3072000,8193000,16
11.23,9.24,0.00,0.17,0.00,493345536,487323000,5991000,16
4.80,3.83,0.00,0.08,0.00,240225431,237248000,2990000,16
4.74,3.77,0.00,0.08,0.00,239501808,233518000,5987000,16
3.50,2.79,0.00,0.06,0.00,174548294,168517000,6018000,16
4.83,3.83,0.00,0.08,0.00,240876904,233863000,6995000,16
4.82,3.86,0.00,0.08,0.00,236887353,231813000,4995000,16
10.19,8.37,0.00,0.15,0.00,447863645,441845000,5997000,16
9.78,8.00,0.00,0.15,0.00,436814004,429812000,6996000,16
11.50,9.41,0.00,0.17,0.00,513635400,508573000,4995000,16
4.76,3.79,0.00,0.08,0.00,239454590,234478000,4988000,16
2.99,2.40,0.00,0.05,0.00,144531031,138559000,5980000,16
3.29,2.63,0.00,0.06,0.00,162424685,148482000,13951000,16
4.82,3.83,0.00,0.08,0.00,240948971,234970000,5999000,16
4.81,3.82,0.00,0.08,0.00,243945713,235981000,7965000,16
14.80,12.11,0.00,0.23,0.00,673001200,667726000,5005000,17
9.52,7.51,0.00,0.17,0.00,505554217,503488000,2001000,17
10.04,8.01,0.00,0.17,0.00,506945243,505940000,999000,17
9.55,7.53,0.00,0.17,0.00,505293420,503308000,2001000,17
7.68,6.10,0.00,0.13,0.00,396125541,391122000,5001000,17
8.84,7.11,0.00,0.15,0.00,433138482,425074000,8001000,17
10.74,8.48,0.00,0.19,0.00,563894060,558781000,5007000,17
11.46,9.35,0.00,0.18,0.00,525523646,521506000,3996000,17
5.09,4.08,0.00,0.08,0.00,249695334,242688000,6991000,17
5.91,4.68,0.00,0.10,0.00,306407265,302454000,3992000,17
4.80,3.83,0.00,0.08,0.00,243058959,241061000,2000000,17
16.70,13.65,0.00,0.26,0.00,758279914,751232000,7002000,17
9.58,7.55,0.00,0.17,0.00,505930634,501680000,3997000,17
8.55,6.84,0.00,0.14,0.00,423756102,416724000,6995000,17
18.16,14.42,0.00,0.32,0.00,929670880,927542000,2001000,17
10.95,8.67,0.00,0.19,0.00,567098846,561085000,6000000,17
8.49,6.75,0.00,0.15,0.00,432832822,425788000,6996000,17
10.96,8.69,0.00,0.19,0.00,564515896,558490000,5994000,17
3.06,2.43,0.00,0.05,0.00,152260731,6658000,7292000,17
5.35,4.28,0.00,0.09,0.00,266621080,262571000,3993000,17
10.65,8.57,0.00,0.18,0.00,517504222,508479000,8990000,17
9.95,7.96,0.00,0.17,0.00,493983493,484023000,9979000,17
9.64,7.62,0.00,0.17,0.00,501932308,499937000,2003000,17
9.88,7.81,0.00,0.17,0.00,514951971,513843000,999000,17
2.66,2.13,0.00,0.04,0.00,127599178,4137000,10343000,17
10.33,8.27,0.00,0.17,0.00,511228510,509231000,2000000,17
10.77,8.50,0.00,0.19,0.00,562074231,557982000,3999000,17
8.22,6.48,0.00,0.15,0.00,429494588,425412000,4003000,17
7.04,5.69,0.00,0.11,0.00,332620685,331535000,1001000,17
9.82,7.79,0.00,0.17,0.00,502225747,500229000,2000000,17
10.85,8.57,0.00,0.19,0.00,565239418,560230000,5002000,17
10.82,8.55,0.00,0.19,0.00,563294208,558106000,5000000,17
10.88,8.59,0.00,0.19,0.00,566717815,563576000,2997000,17
11.26,8.94,0.00,0.20,0.00,576425826,569412000,7005000,17
9.85,7.76,0.00,0.18,0.00,517235040,514233000,3001000,17
9.66,7.60,0.00,0.17,0.00,509879418,505831000,3998000,17
9.93,8.16,0.00,0.15,0.00,438242963,434186000,4001000,17
18.22,14.49,0.00,0.31,0.00,924527170,915398000,8994000,17
9.63,7.60,0.00,0.17,0.00,504515101,499501000,5005000,17
10.88,8.60,0.00,0.19,0.00,564611705,555554000,8992000,17
9.69,7.65,0.00,0.17,0.00,503720123,500678000,2998000,17
11.10,9.06,0.00,0.17,0.00,505696279,500656000,4996000,17
11.07,8.79,0.00,0.19,0.00,564691666,558561000,5995000,17
10.88,8.58,0.00,0.19,0.00,569646757,567466000,1998000,17
6.73,5.35,0.00,0.12,0.00,343668405,338649000,4994000,17
8.97,7.14,0.00,0.15,0.00,451842918,446856000,4987000,17
9.71,7.67,0.00,0.17,0.00,505333169,502229000,3001000,17
11.07,8.77,0.00,0.19,0.00,569154877,563099000,6001000,17
7.81,6.19,0.00,0.14,0.00,399730045,392702000,7012000,17
10.15,8.06,0.00,0.18,0.00,516417750,511402000,4994000,17
5.32,4.26,0.00,0.09,0.00,262288663,257325000,5006000,17
10.88,8.59,0.00,0.19,0.00,563361916,556355000,6991000,17
12.08,9.82,0.00,0.19,0.00,557469797,545461000,12010000,17
9.73,7.70,0.00,0.17,0.00,503093569,498989000,3991000,17
11.12,8.82,0.00,0.19,0.00,566160544,563154000,3000000,17
6.48,5.26,0.00,0.10,0.00,301353539,295323000,6006000,17
8.00,6.38,0.00,0.14,0.00,401747558,395727000,6011000,17
11.69,9.31,0.00,0.20,0.00,590819022,588616000,1998000,17
2.11,1.67,0.00,0.04,0.00,109503860,103457000,5968000,17
5.05,4.03,0.00,0.09,0.00,251744124,247727000,3995000,17
11.11,8.83,0.00,0.19,0.00,563073202,558897000,3999000,17
10.88,8.58,0.00,0.19,0.00,569193076,560155000,8986000,17
11.17,8.89,0.00,0.19,0.00,565051294,557067000,7986000,17
2.10,1.69,0.00,0.03,0.00,101320459,99206000,2004000,17
6.00,4.79,0.00,0.10,0.00,300612682,298468000,2003000,17
10.00,7.97,0.00,0.17,0.00,503075246,499010000,4008000,17
10.91,8.62,0.00,0.19,0.00,564669634,556646000,7994000,17
11.13,8.86,0.00,0.19,0.00,564299994,557300000,6991000,17
11.24,8.95,0.00,0.19,0.00,564694818,560579000,3997000,17
11.19,8.91,0.00,0.19,0.00,564958192,558714000,5996000,17
11.71,9.60,0.00,0.18,0.00,522114863,518086000,4000000,17
11.17,8.91,0.00,0.19,0.00,560649563,555443000,5003000,17
5.34,4.26,0.00,0.09,0.00,267288212,263195000,3987000,17
9.78,7.74,0.00,0.17,0.00,502693641,499698000,2998000,17
9.71,7.68,0.00,0.17,0.00,501443815,498390000,2996000,17
12.51,10.30,0.00,0.18,0.00,543625278,535527000,8007000,17
10.94,8.93,0.00,0.17,0.00,494616225,490485000,3995000,17
11.14,8.85,0.00,0.19,0.00,563883471,557836000,5998000,17
10.99,8.71,0.00,0.19,0.00,560235642,556054000,4000000,17
11.02,9.10,0.00,0.16,0.00,472212541,468159000,4001000,17
4.96,3.85,0.00,0.08,0.00,237419583,229143000,8005000,18
4.99,3.90,0.00,0.08,0.00,236107685,229071000,7002000,18
3.94,3.14,0.00,0.07,0.00,197702896,193678000,3993000,18
3.11,2.47,0.00,0.05,0.00,154698648,1079000,8377000,18
4.30,3.36,0.00,0.07,0.00,200614545,193604000,6985000,18
4.68,3.67,0.00,0.07,0.00,218142651,209148000,8963000,18
10.10,8.01,0.00,0.16,0.00,467975008,332952000,134980000,18
5.13,4.29,0.00,0.06,0.00,184912806,181734000,3012000,18
3.09,2.40,0.00,0.05,0.00,135315114,127176000,8011000,18
4.73,3.71,0.00,0.07,0.00,218851306,212702000,6019000,18
10.42,8.32,0.00,0.16,0.00,468595905,329677000,138864000,18
4.77,3.74,0.00,0.08,0.00,221433282,215377000,6010000,18
1.18,0.93,0.00,0.02,0.00,61291486,58334000,3017000,18
5.96,4.65,0.00,0.10,0.00,289358529,284186000,4985000,18
14.69,11.42,0.00,0.22,0.00,640462119,632422000,7992000,18
4.62,3.60,0.00,0.07,0.00,218271691,213236000,5005000,18
4.90,3.82,0.00,0.08,0.00,235343806,225398000,9973000,18
2.90,2.32,0.00,0.05,0.00,142344575,139324000,3007000,18
2.56,2.05,0.00,0.04,0.00,123253903,883000,7854000,18
4.92,3.83,0.00,0.08,0.00,235993771,228019000,8000000,18
4.91,3.80,0.00,0.08,0.00,239346063,235288000,4004000,18
2.61,2.10,0.00,0.04,0.00,123982418,2232000,6696000,18
8.54,6.86,0.00,0.14,0.00,415743619,411764000,3997000,18
6.72,5.38,0.00,0.10,0.00,307606841,176328000,131244000,18
4.39,3.41,0.00,0.07,0.00,205970359,197935000,7997000,18
5.28,4.15,0.00,0.08,0.00,244924061,240866000,3981000,18
2.35,1.89,0.00,0.04,0.00,112905685,109881000,3024000,18
2.64,2.14,0.00,0.04,0.00,122497824,884000,7826000,18
4.79,3.76,0.00,0.08,0.00,220055014,215041000,5000000,18
8.69,6.94,0.00,0.14,0.00,409961311,278613000,131288000,18
17.11,13.69,0.00,0.27,0.00,795764730,646768000,148946000,18
12.37,9.99,0.00,0.19,0.00,553900934,544730000,8995000,18
5.06,3.97,0.00,0.08,0.00,235784823,229741000,5993000,18
4.98,3.89,0.00,0.08,0.00,236773444,230717000,5992000,18
4.67,3.65,0.00,0.07,0.00,219477897,215414000,3989000,18
4.70,3.69,0.00,0.07,0.00,215726280,210684000,5016000,18
10.18,8.10,0.00,0.16,0.00,464523126,327347000,137145000,18
2.62,2.11,0.00,0.04,0.00,122871892,1054000,8170000,18
13.08,10.57,0.00,0.20,0.00,598191610,472262000,125803000,18
5.10,4.01,0.00,0.08,0.00,237660363,233658000,4011000,18
4.74,3.70,0.00,0.07,0.00,218868916,213695000,4992000,18
14.39,11.26,0.00,0.22,0.00,643937427,636897000,6998000,18
10.81,8.61,0.00,0.17,0.00,492463329,352330000,140131000,18
9.21,7.38,0.00,0.14,0.00,420085656,415936000,3999000,18
3.70,2.95,0.00,0.06,0.00,185221049,182089000,3001000,18
10.73,8.55,0.00,0.17,0.00,505524498,501420000,4003000,18
23.55,19.02,0.00,0.38,0.00,1119551407,1115538000,4001000,18
5.30,4.15,0.00,0.09,0.00,250756073,247673000,3008000,18
4.65,3.63,0.00,0.07,0.00,218216306,211237000,6974000,18
4.83,3.81,0.00,0.07,0.00,217149194,214126000,3001000,18
3.80,3.05,0.00,0.06,0.00,182808896,177831000,5023000,18
4.68,3.65,0.00,0.07,0.00,220231344,213215000,7007000,18
2.59,2.09,0.00,0.04,0.00,120916516,4507000,4402000,18
4.69,3.66,0.00,0.08,0.00,220977703,217906000,2998000,18
3.15,2.53,0.00,0.05,0.00,150879164,146824000,3968000,18
4.47,3.58,0.00,0.07,0.00,219466029,215475000,3990000,18
3.76,3.00,0.00,0.06,0.00,184283269,179286000,4980000,18
4.79,3.76,0.00,0.07,0.00,219459770,215460000,4008000,18
2.80,2.26,0.00,0.04,0.00,131365096,128232000,3005000,18
4.60,3.59,0.00,0.07,0.00,215176816,212129000,3001000,18
4.16,3.32,0.00,0.07,0.00,207064742,204121000,3001000,18
4.37,3.41,0.00,0.07,0.00,204411223,198359000,5980000,18
14.27,11.45,0.00,0.22,0.00,644459383,501483000,142852000,18
3.43,2.76,0.00,0.06,0.00,164652394,161684000,2994000,18
5.09,3.99,0.00,0.08,0.00,235706694,229662000,6017000,18
2.58,2.07,0.00,0.04,0.00,124444878,121422000,3010000,18
10.29,8.20,0.00,0.16,0.00,466150092,328078000,138032000,18
4.76,3.74,0.00,0.07,0.00,216040073,211001000,5000000,18
14.86,11.96,0.00,0.23,0.00,663249646,513172000,150050000,18
4.69,3.66,0.00,0.07,0.00,219112125,214074000,5001000,18
4.41,3.43,0.00,0.07,0.00,207334920,200353000,6977000,18
4.78,3.75,0.00,0.07,0.00,219664389,213665000,6018000,18
4.41,3.44,0.00,0.07,0.00,203419299,198300000,5007000,18
4.46,3.49,0.00,0.07,0.00,203234727,197196000,6005000,18
4.81,3.77,0.00,0.07,0.00,219332913,213301000,6008000,18
4.73,3.70,0.00,0.07,0.00,217696944,212442000,4986000,18
4.80,3.78,0.00,0.07,0.00,217072246,213020000,3981000,18
10.54,8.44,0.00,0.16,0.00,468480795,323625000,144832000,18
10.25,8.19,0.00,0.15,0.00,456133825,321061000,135025000,18
4.78,3.76,0.00,0.07,0.00,218524135,214480000,4008000,18
8.72,7.09,0.00,0.14,0.00,404387033,365623000,37063000,19
2.81,2.24,0.00,0.05,0.00,138371333,79200000,59150000,19
3.03,2.44,0.00,0.05,0.00,146819414,3082000,4048000,19
2.57,2.06,0.00,0.04,0.00,124347673,1043000,8102000,19
2.74,2.21,0.00,0.04,0.00,125709209,94519000,31171000,19
3.79,3.00,0.00,0.06,0.00,183454119,118672000,64821000,19
2.52,2.01,0.00,0.04,0.00,119957306,83948000,35978000,19
2.65,2.14,0.00,0.04,0.00,124966256,2833000,6437000,19
2.66,2.14,0.00,0.04,0.00,123784976,3375000,5396000,19
2.64,2.15,0.00,0.04,0.00,119507567,1185000,7113000,19
2.58,2.08,0.00,0.04,0.00,122939861,1018000,8035000,19
11.47,9.35,0.00,0.18,0.00,519715360,426449000,93098000,19
2.55,2.04,0.00,0.04,0.00,124453418,2023000,7009000,19
12.50,10.24,0.00,0.19,0.00,557321811,520285000,37020000,19
10.98,8.95,0.00,0.17,0.00,497587158,455522000,42048000,19
2.68,2.20,0.00,0.04,0.00,118112777,80690000,37319000,19
10.03,8.17,0.00,0.15,0.00,449647815,372719000,76942000,19
9.93,8.14,0.00,0.15,0.00,439006243,396974000,41997000,19
2.59,2.08,0.00,0.04,0.00,123625897,9077000,0,19
2.87,2.30,0.00,0.05,0.00,137598805,99367000,38141000,19
2.44,1.94,0.00,0.04,0.00,119133549,88342000,30771000,19
10.04,8.20,0.00,0.15,0.00,444000986,380972000,62995000,19
2.66,2.15,0.00,0.04,0.00,123428974,1024000,8124000,19
2.60,2.09,0.00,0.04,0.00,122377089,1906000,7417000,19
2.06,1.63,0.00,0.03,0.00,99734968,60431000,39280000,19
8.09,6.58,0.00,0.12,0.00,364360142,283400000,80828000,19
2.67,2.11,0.00,0.04,0.00,132011736,90997000,40998000,19
2.47,1.97,0.00,0.04,0.00,118455497,89287000,29093000,19
2.14,1.69,0.00,0.04,0.00,106216359,73445000,32752000,19
1.96,1.56,0.00,0.03,0.00,98758312,97781000,997000,19
2.61,2.07,0.00,0.04,0.00,127328302,95492000,31830000,19
2.14,1.71,0.00,0.04,0.00,103587307,75379000,28141000,19
2.84,2.25,0.00,0.05,0.00,142633315,97728000,44875000,19
2.27,1.81,0.00,0.04,0.00,108386011,77213000,31086000,19
3.80,3.04,0.00,0.06,0.00,175965165,106985000,68990000,19
2.46,1.94,0.00,0.04,0.00,121954429,89610000,32219000,19
2.50,1.97,0.00,0.04,0.00,126629901,94667000,31888000,19
2.63,2.12,0.00,0.04,0.00,125400184,1038000,8305000,19
3.45,2.78,0.00,0.05,0.00,161370509,90150000,71118000,19
3.52,2.80,0.00,0.06,0.00,166624035,102335000,64210000,19
3.31,2.65,0.00,0.05,0.00,151239585,87110000,64081000,19
2.59,2.10,0.00,0.04,0.00,119878438,1043000,7304000,19
8.83,7.24,0.00,0.13,0.00,386184174,350160000,36016000,19
3.41,2.71,0.00,0.05,0.00,160315841,83146000,77135000,19
3.76,2.99,0.00,0.06,0.00,176984533,102928000,73948000,19
3.11,2.49,0.00,0.05,0.00,142500272,75241000,67215000,19
2.68,2.16,0.00,0.04,0.00,125067677,3320000,5534000,19
2.83,2.28,0.00,0.04,0.00,130749454,95586000,35215000,19
13.54,11.13,0.00,0.20,0.00,589530391,552465000,37031000,19
12.87,10.43,0.00,0.20,0.00,588159015,529060000,59006000,19
2.66,2.14,0.00,0.04,0.00,124963960,3376000,5619000,19
2.84,2.28,0.00,0.04,0.00,131376218,95579000,35842000,19
2.51,1.99,0.00,0.04,0.00,121973895,91214000,30735000,19
2.82,2.27,0.00,0.04,0.00,130777901,95806000,34929000,19
6.72,5.61,0.00,0.09,0.00,267024699,228825000,38137000,19
3.20,2.57,0.00,0.05,0.00,145923684,80507000,65412000,19
2.55,2.02,0.00,0.04,0.00,123131040,87115000,36047000,19
2.58,2.10,0.00,0.04,0.00,114533490,81652000,32860000,19
13.94,11.40,0.00,0.21,0.00,621811518,588737000,33041000,19
2.65,2.13,0.00,0.04,0.00,125561508,911000,8119000,19
2.45,1.93,0.00,0.04,0.00,121822176,89154000,32689000,19
3.50,2.79,0.00,0.06,0.00,164097311,98046000,66031000,19
2.36,1.89,0.00,0.04,0.00,115265280,83160000,32061000,19
10.33,8.42,0.00,0.16,0.00,460794479,384956000,75794000,19
3.46,2.79,0.00,0.06,0.00,163883963,109550000,54272000,19
14.55,11.83,0.00,0.22,0.00,656361396,588419000,67932000,19
5.99,4.97,0.00,0.08,0.00,245201274,207133000,38024000,19
2.45,1.94,0.00,0.04,0.00,120309054,83501000,36780000,19
1.54,1.22,0.00,0.03,0.00,79264151,79321000,0,19
2.89,2.33,0.00,0.05,0.00,132751282,97780000,34921000,19
12.30,10.05,0.00,0.19,0.00,545514344,486464000,59056000,19
2.75,2.20,0.00,0.05,0.00,134719581,98804000,35928000,19
2.64,2.12,0.00,0.04,0.00,123919897,92690000,31232000,19
2.65,2.15,0.00,0.04,0.00,122866306,80531000,41757000,19
2.64,2.12,0.00,0.04,0.00,124241698,2709000,6264000,19
10.45,8.55,0.00,0.16,0.00,463557279,434472000,29031000,19
3.48,2.76,0.00,0.06,0.00,164110430,96050000,68035000,19
14.12,11.62,0.00,0.21,0.00,603778005,526758000,76964000,19
2.69,2.18,0.00,0.04,0.00,122210782,1996000,6824000,19
2.67,2.15,0.00,0.04,0.00,125197215,1853000,7339000,19
0.36,0.27,0.00,0.01,0.00,22325041,20072000,2007000,20
0.03,0.02,0.00,0.00,0.00,2221464,2191000,0,20
0.03,0.02,0.00,0.00,0.00,2248234,1132000,1132000,20
0.05,0.04,0.00,0.00,0.00,2215984,2236000,0,20
0.76,0.59,0.00,0.01,0.00,42038337,40088000,2004000,20
0.30,0.22,0.00,0.01,0.00,19718459,15905000,3742000,20
0.79,0.62,0.00,0.01,0.00,41802358,38764000,2981000,20
0.73,0.59,0.00,0.01,0.00,35541279,30582000,4932000,20
1.29,1.01,0.00,0.02,0.00,70011136,66011000,4000000,20
0.44,0.35,0.00,0.01,0.00,22750974,18698000,3936000,20
0.28,0.21,0.00,0.01,0.00,18322582,16118000,2014000,20
0.04,0.03,0.00,0.00,0.00,1881361,990000,990000,20
0.33,0.25,0.00,0.01,0.00,20055762,16039000,4009000,20
0.82,0.64,0.00,0.02,0.00,45484422,42440000,3031000,20
0.74,0.57,0.00,0.02,0.00,43841751,40859000,2989000,20
0.39,0.32,0.00,0.01,0.00,17141730,16063000,1003000,20
0.30,0.22,0.00,0.01,0.00,19570133,16637000,2936000,20
0.04,0.03,0.00,0.00,0.00,2095009,1054000,1054000,20
0.70,0.55,0.00,0.01,0.00,38778996,36752000,2041000,20
0.73,0.55,0.00,0.02,0.00,44010604,41031000,3002000,20
0.38,0.29,0.00,0.01,0.00,21158722,21173000,0,20
0.41,0.32,0.00,0.01,0.00,22503889,19512000,2926000,20
0.77,0.60,0.00,0.01,0.00,42190951,40190000,2009000,20
0.65,0.50,0.00,0.01,0.00,35404267,32470000,2951000,20
0.38,0.28,0.00,0.01,0.00,23587857,20632000,2947000,20
0.43,0.32,0.00,0.01,0.00,26221948,22182000,4033000,20
0.29,0.23,0.00,0.01,0.00,16891071,14785000,2112000,20
0.35,0.26,0.00,0.01,0.00,23343966,21317000,2030000,20
0.04,0.03,0.00,0.00,0.00,2094699,1060000,1060000,20
0.43,0.32,0.00,0.01,0.00,27553019,24465000,3058000,20
0.05,0.03,0.00,0.00,0.00,2112155,1069000,1069000,20
0.37,0.29,0.00,0.01,0.00,20997756,19994000,999000,20
0.73,0.58,0.00,0.01,0.00,37140866,35124000,2007000,20
0.78,0.61,0.00,0.01,0.00,41700122,39754000,1987000,20
0.46,0.35,0.00,0.01,0.00,28122730,25171000,3020000,20
0.63,0.48,0.00,0.01,0.00,35510825,33509000,2030000,20
0.26,0.19,0.00,0.01,0.00,15792378,13692000,2106000,20
0.26,0.21,0.00,0.00,0.00,14299361,13219000,1016000,20
0.39,0.31,0.00,0.01,0.00,21774128,18616000,3102000,20
0.63,0.47,0.00,0.01,0.00,37180676,36225000,979000,20
0.43,0.33,0.00,0.01,0.00,26557913,20672000,5906000,20
0.03,0.02,0.00,0.00,0.00,2213121,2278000,0,20
0.29,0.22,0.00,0.01,0.00,15974574,14935000,1066000,20
0.35,0.27,0.00,0.01,0.00,20771176,19773000,988000,20
0.85,0.68,0.00,0.01,0.00,42888138,40888000,1994000,20
0.83,0.64,0.00,0.02,0.00,48334956,47381000,1008000,20
0.67,0.52,0.00,0.01,0.00,35685622,32754000,2977000,20
0.03,0.02,0.00,0.00,0.00,2129231,1069000,1069000,20
0.40,0.31,0.00,0.01,0.00,23549225,22598000,982000,20
0.48,0.37,0.00,0.01,0.00,27278689,22342000,4857000,20
0.81,0.63,0.00,0.01,0.00,43436357,40450000,3033000,20
0.70,0.54,0.00,0.01,0.00,39549927,34635000,4947000,20
0.80,0.62,0.00,0.01,0.00,42564013,37551000,4940000,20
0.75,0.57,0.00,0.02,0.00,44509724,43448000,1010000,20
0.30,0.22,0.00,0.01,0.00,19920626,18935000,996000,20
0.81,0.65,0.00,0.01,0.00,40899252,39860000,996000,20
0.78,0.60,0.00,0.02,0.00,45409606,41451000,3947000,20
0.42,0.33,0.00,0.01,0.00,22582791,19544000,2931000,20
0.71,0.56,0.00,0.01,0.00,38080458,35087000,3007000,20
0.34,0.26,0.00,0.01,0.00,19993084,18027000,2003000,20
0.72,0.54,0.00,0.01,0.00,43569814,40549000,2967000,20
0.43,0.32,0.00,0.01,0.00,27103600,22113000,5025000,20
0.42,0.32,0.00,0.01,0.00,25032942,22879000,2079000,20
0.75,0.60,0.00,0.01,0.00,37620512,36568000,1015000,20
0.64,0.50,0.00,0.01,0.00,34931457,33896000,1027000,20
0.26,0.20,0.00,0.01,0.00,15126810,14045000,1003000,20
0.48,0.36,0.00,0.01,0.00,28319480,26261000,2020000,20
0.35,0.27,0.00,0.01,0.00,19931971,15969000,3992000,20
0.81,0.63,0.00,0.02,0.00,43579215,39606000,3960000,20
0.04,0.03,0.00,0.00,0.00,1746006,1853000,0,20
0.76,0.59,0.00,0.01,0.00,41137721,39123000,2006000,20
0.89,0.70,0.00,0.02,0.00,47834899,44844000,3057000,20
0.29,0.22,0.00,0.01,0.00,17936677,15944000,1993000,20
0.72,0.54,0.00,0.02,0.00,43637341,39568000,3956000,20
1.57,1.27,0.00,0.03,0.00,73329541,25112000,48215000,20
0.42,0.34,0.00,0.01,0.00,21350258,20286000,1014000,20
0.43,0.34,0.00,0.01,0.00,22005060,17971000,3993000,20
0.04,0.03,0.00,0.00,0.00,1920591,1924000,0,20
0.80,0.62,0.00,0.01,0.00,42906274,40917000,1995000,20
0.79,0.63,0.00,0.01,0.00,40593525,39556000,1014000,20
0.09,0.07,0.00,0.00,0.00,4180213,1599000,2398000,21
2.98,2.34,0.00,0.05,0.00,156547522,1771000,6152000,21
0.25,0.19,0.00,0.00,0.00,12619075,9418000,3139000,21
0.45,0.34,0.00,0.01,0.00,28182643,17100000,11065000,21
6.10,4.86,0.00,0.11,0.00,309683175,306711000,2987000,21
0.08,0.06,0.00,0.00,0.00,5110227,3040000,2027000,21
5.41,4.29,0.00,0.10,0.00,278931158,263944000,14996000,21
0.91,0.70,0.00,0.02,0.00,48817108,40040000,8789000,21
0.30,0.23,0.00,0.01,0.00,16827785,9859000,6901000,21
0.40,0.31,0.00,0.01,0.00,22372104,15236000,7110000,21
6.85,5.49,0.00,0.11,0.00,337192864,324093000,13003000,21
5.21,4.24,0.00,0.08,0.00,242973849,240988000,1999000,21
0.05,0.02,0.00,0.00,0.00,2340730,1132000,1132000,21
0.14,0.11,0.00,0.00,0.00,5667619,4690000,938000,21
4.13,3.28,0.00,0.07,0.00,211725606,210694000,1003000,21
4.32,3.47,0.00,0.07,0.00,210052586,208890000,999000,21
0.54,0.41,0.00,0.01,0.00,31318853,18184000,13133000,21
4.15,3.30,0.00,0.07,0.00,211458913,210506000,1002000,21
0.72,0.55,0.00,0.01,0.00,38316074,18143000,20158000,21
0.08,0.06,0.00,0.00,0.00,5193523,4146000,1036000,21
4.09,3.28,0.00,0.07,0.00,200096907,199123000,1000000,21
4.77,3.81,0.00,0.08,0.00,240806654,239614000,998000,21
0.80,0.61,0.00,0.02,0.00,44031407,35052000,9013000,21
0.11,0.09,0.00,0.00,0.00,6187353,4417000,1767000,21
0.10,0.07,0.00,0.00,0.00,6523026,3781000,2835000,21
0.08,0.06,0.00,0.00,0.00,4892469,3694000,1231000,21
0.90,0.68,0.00,0.02,0.00,53064054,48049000,5005000,21
0.35,0.25,0.00,0.01,0.00,23556050,21635000,1966000,21
0.11,0.09,0.00,0.00,0.00,6655339,6617000,0,21
0.90,0.70,0.00,0.02,0.00,50683149,45717000,4969000,21
5.25,4.18,0.00,0.09,0.00,262506130,254490000,7984000,21
14.30,11.47,0.00,0.24,0.00,700770310,698773000,2002000,21
0.56,0.43,0.00,0.01,0.00,28928923,14891000,13898000,21
0.09,0.07,0.00,0.00,0.00,4935975,2913000,1942000,21
0.21,0.16,0.00,0.00,0.00,11800720,5932000,5932000,21
4.83,3.89,0.00,0.08,0.00,233635367,232622000,998000,21
0.35,0.27,0.00,0.01,0.00,20705880,8839000,11785000,21
0.12,0.09,0.00,0.00,0.00,6817790,5707000,1141000,21
4.18,3.33,0.00,0.07,0.00,211571434,209582000,1996000,21
0.12,0.09,0.00,0.00,0.00,6093509,4058000,2029000,21
3.89,3.10,0.00,0.07,0.00,193562333,192581000,997000,21
3.96,3.17,0.00,0.07,0.00,196229558,195148000,1000000,21
0.28,0.22,0.00,0.01,0.00,15961343,9560000,6373000,21
0.17,0.13,0.00,0.00,0.00,9039360,6988000,1996000,21
0.27,0.20,0.00,0.01,0.00,17545191,16552000,1034000,21
0.55,0.42,0.00,0.01,0.00,31854338,30842000,1028000,21
3.16,2.52,0.00,0.05,0.00,159052947,157039000,2000000,21
3.15,2.51,0.00,0.05,0.00,157219008,154156000,2983000,21
0.08,0.05,0.00,0.00,0.00,5054499,5072000,0,21
0.40,0.31,0.00,0.01,0.00,21070284,14290000,6668000,21
4.71,3.81,0.00,0.07,0.00,220180883,217063000,2987000,21
0.09,0.07,0.00,0.00,0.00,4568545,3667000,916000,21
5.54,4.45,0.00,0.09,0.00,269993894,268007000,2000000,21
0.09,0.07,0.00,0.00,0.00,5640044,4710000,942000,21
0.12,0.10,0.00,0.00,0.00,6024445,4993000,998000,21
0.05,0.04,0.00,0.00,0.00,2576012,861000,1723000,21
0.11,0.08,0.00,0.00,0.00,7240639,6175000,1029000,21
0.44,0.33,0.00,0.01,0.00,26220205,17508000,8754000,21
4.85,3.96,0.00,0.08,0.00,221223366,220172000,1000000,21
0.50,0.39,0.00,0.01,0.00,26761585,23711000,3092000,21
0.26,0.19,0.00,0.01,0.00,16153085,15161000,1010000,21
0.09,0.07,0.00,0.00,0.00,5490011,4324000,1081000,21
4.29,3.43,0.00,0.07,0.00,212711281,211729000,998000,21
4.74,3.80,0.00,0.08,0.00,231337318,229340000,2002000,21
0.47,0.36,0.00,0.01,0.00,25138553,14454000,10599000,21
3.91,3.13,0.00,0.07,0.00,194330698,193362000,996000,21
0.38,0.29,0.00,0.01,0.00,21352314,9069000,12092000,21
0.33,0.25,0.00,0.01,0.00,18144877,14098000,4028000,21
2.58,2.06,0.00,0.04,0.00,126746955,875000,7846000,21
2.10,1.66,0.00,0.03,0.00,98739959,79967000,18757000,21
0.71,0.55,0.00,0.01,0.00,36356795,22173000,14110000,21
0.09,0.07,0.00,0.00,0.00,5374242,3611000,1805000,21
0.08,0.06,0.00,0.00,0.00,5155702,4151000,1037000,21
4.37,3.52,0.00,0.07,0.00,213502447,211537000,1995000,21
0.08,0.06,0.00,0.00,0.00,4295804,3196000,1065000,21
3.19,2.53,0.00,0.06,0.00,162405532,160414000,1992000,21
3.19,2.55,0.00,0.05,0.00,158322644,155352000,2987000,21
3.12,2.49,0.00,0.05,0.00,156669428,155685000,997000,21
0.35,0.26,0.00,0.01,0.00,20981032,11463000,9553000,21
0.09,0.06,0.00,0.00,0.00,4723940,3771000,942000,21
0.28,0.23,0.00,0.00,0.00,12723591,9513000,2854000,22
0.31,0.23,0.00,0.01,0.00,20304217,19292000,1015000,22
0.70,0.58,0.00,0.01,0.00,31451642,31350000,0,22
0.70,0.57,0.00,0.01,0.00,33200276,31174000,2011000,22
0.65,0.50,0.00,0.01,0.00,38190282,36191000,2010000,22
0.44,0.38,0.00,0.00,0.00,12973692,10980000,1996000,22
0.36,0.27,0.00,0.01,0.00,21685714,17767000,3948000,22
0.27,0.20,0.00,0.01,0.00,15735960,13800000,1971000,22
0.26,0.19,0.00,0.01,0.00,15775493,11169000,4653000,22
0.28,0.22,0.00,0.01,0.00,15219198,13179000,2027000,22
0.29,0.22,0.00,0.01,0.00,16783569,13828000,2963000,22
0.31,0.24,0.00,0.01,0.00,18053767,16067000,2008000,22
0.68,0.54,0.00,0.01,0.00,35392988,35370000,0,22
0.69,0.54,0.00,0.01,0.00,37540419,33590000,3951000,22
0.68,0.52,0.00,0.01,0.00,37689958,34720000,2976000,22
0.28,0.21,0.00,0.01,0.00,15966823,13966000,1995000,22
0.29,0.22,0.00,0.01,0.00,16959619,12261000,4715000,22
0.28,0.21,0.00,0.01,0.00,15449819,14442000,1031000,22
0.28,0.21,0.00,0.01,0.00,17365491,15337000,2045000,22
0.25,0.19,0.00,0.01,0.00,15752857,12825000,2959000,22
0.23,0.17,0.00,0.01,0.00,14786152,13814000,986000,22
0.65,0.50,0.00,0.01,0.00,35698739,34692000,1020000,22
0.25,0.19,0.00,0.01,0.00,15824692,13861000,1980000,22
0.62,0.48,0.00,0.01,0.00,35310433,34311000,1009000,22
0.53,0.40,0.00,0.01,0.00,31551762,25623000,5913000,22
0.62,0.47,0.00,0.01,0.00,36387476,34440000,1968000,22
0.66,0.51,0.00,0.01,0.00,37041452,35165000,1953000,22
0.67,0.52,0.00,0.01,0.00,36290441,33268000,3024000,22
0.27,0.21,0.00,0.01,0.00,14654229,12562000,2093000,22
2.29,1.86,0.00,0.04,0.00,103240658,44064000,59086000,22
0.26,0.20,0.00,0.01,0.00,16138804,13304000,2850000,22
0.63,0.47,0.00,0.01,0.00,38888625,37840000,1022000,22
0.71,0.57,0.00,0.01,0.00,34648113,32540000,2033000,22
0.23,0.18,0.00,0.00,0.00,14806725,11042000,3680000,22
0.29,0.22,0.00,0.01,0.00,17563786,13694000,3912000,22
0.25,0.18,0.00,0.01,0.00,15459770,14466000,1033000,22
1.25,0.98,0.00,0.02,0.00,64686261,60633000,3975000,22
0.26,0.20,0.00,0.01,0.00,15389897,12533000,2892000,22
0.63,0.47,0.00,0.01,0.00,38064084,35081000,3006000,22
0.64,0.49,0.00,0.01,0.00,37421630,34439000,3038000,22
0.67,0.53,0.00,0.01,0.00,33598572,31546000,1971000,22
0.24,0.18,0.00,0.01,0.00,15880271,14825000,1058000,22
0.31,0.24,0.00,0.01,0.00,18151000,14147000,4042000,22
0.66,0.51,0.00,0.01,0.00,36513393,32583000,3949000,22
0.88,0.66,0.00,0.02,0.00,51746429,48766000,2985000,22
0.65,0.51,0.00,0.01,0.00,35132397,34144000,1004000,22
0.64,0.49,0.00,0.01,0.00,35665581,33681000,1981000,22
0.27,0.20,0.00,0.01,0.00,15917868,14939000,995000,22
0.26,0.19,0.00,0.01,0.00,16983886,13999000,2999000,22
0.63,0.48,0.00,0.01,0.00,35322316,33312000,1959000,22
0.25,0.19,0.00,0.01,0.00,15652594,14630000,1045000,22
0.27,0.21,0.00,0.01,0.00,15656710,13702000,1957000,22
0.27,0.20,0.00,0.01,0.00,16525493,13608000,2916000,22
0.30,0.23,0.00,0.01,0.00,17222057,13383000,3823000,22
0.26,0.20,0.00,0.01,0.00,14451181,13439000,1033000,22
0.25,0.20,0.00,0.00,0.00,14536283,12619000,1941000,22
0.65,0.51,0.00,0.01,0.00,35552066,34546000,1016000,22
0.41,0.31,0.00,0.01,0.00,24019438,19235000,4808000,22
0.26,0.20,0.00,0.00,0.00,13544556,12579000,967000,22
0.26,0.19,0.00,0.01,0.00,17202081,15183000,2024000,22
0.27,0.21,0.00,0.00,0.00,14279382,13258000,1019000,22
0.27,0.21,0.00,0.01,0.00,15867514,13894000,1984000,22
0.68,0.54,0.00,0.01,0.00,34807445,32746000,1984000,22
0.63,0.48,0.00,0.01,0.00,37260445,35272000,2015000,22
0.72,0.57,0.00,0.01,0.00,36286622,34182000,2010000,22
0.25,0.18,0.00,0.01,0.00,16630738,15639000,1042000,22
0.74,0.58,0.00,0.01,0.00,39743342,36744000,2979000,22
0.30,0.23,0.00,0.01,0.00,18425497,17430000,1025000,22
0.62,0.49,0.00,0.01,0.00,32910567,31915000,997000,22
0.28,0.22,0.00,0.00,0.00,14221515,12112000,2018000,22
0.37,0.27,0.00,0.01,0.00,24445485,22412000,2037000,22
0.26,0.20,0.00,0.01,0.00,15941400,14888000,1063000,22
0.67,0.52,0.00,0.01,0.00,36267896,34268000,2015000,22
0.28,0.21,0.00,0.01,0.00,17115261,14112000,3024000,22
0.66,0.51,0.00,0.01,0.00,36633953,35633000,1018000,22
0.26,0.19,0.00,0.01,0.00,17072734,13060000,4018000,22
0.66,0.51,0.00,0.01,0.00,36104585,34100000,2005000,22
0.63,0.49,0.00,0.01,0.00,35923633,33951000,1997000,22
0.26,0.20,0.00,0.01,0.00,16075438,14053000,2007000,22
0.29,0.22,0.00,0.01,0.00,16683438,15641000,1042000,22
0.89,0.68,0.00,0.02,0.00,50161352,42113000,7835000,23
3.44,2.76,0.00,0.06,0.00,166700615,156764000,9984000,23
3.24,2.62,0.00,0.05,0.00,154547443,143468000,11036000,23
3.22,2.59,0.00,0.05,0.00,153314762,144366000,8960000,23
1.69,1.32,0.00,0.03,0.00,86459058,71366000,15077000,23
1.46,1.16,0.00,0.03,0.00,73837524,67859000,5987000,23
1.62,1.29,0.00,0.03,0.00,81091246,73240000,7917000,23
1.60,1.26,0.00,0.03,0.00,81955758,73965000,7996000,23
9.65,7.60,0.00,0.17,0.00,490286540,471275000,19011000,23
3.39,2.72,0.00,0.06,0.00,162177136,157232000,5007000,23
3.28,2.64,0.00,0.05,0.00,156578155,146453000,10031000,23
3.27,2.64,0.00,0.05,0.00,153685337,147571000,6023000,23
1.58,1.25,0.00,0.03,0.00,80746019,74735000,5978000,23
0.73,0.56,0.00,0.01,0.00,41920527,38026000,3900000,23
1.61,1.25,0.00,0.03,0.00,86639337,77784000,8861000,23
0.92,0.70,0.00,0.02,0.00,53623080,51532000,1982000,23
1.63,1.29,0.00,0.03,0.00,82618873,75448000,7041000,23
1.38,1.08,0.00,0.02,0.00,71042482,66037000,5002000,23
1.65,1.30,0.00,0.03,0.00,83904701,71905000,11984000,23
3.13,2.50,0.00,0.05,0.00,153460672,150441000,3008000,23
1.60,1.25,0.00,0.03,0.00,84854466,76855000,7985000,23
3.16,2.55,0.00,0.05,0.00,150863448,144869000,6036000,23
3.28,2.63,0.00,0.05,0.00,158147725,152054000,6002000,23
0.79,0.61,0.00,0.01,0.00,43962572,42939000,1022000,23
1.43,1.12,0.00,0.03,0.00,74341552,69354000,5025000,23
1.58,1.27,0.00,0.03,0.00,76942457,67935000,8991000,23
1.97,1.57,0.00,0.03,0.00,98160705,89134000,9013000,23
1.61,1.27,0.00,0.03,0.00,83274663,74412000,8929000,23
1.61,1.26,0.00,0.03,0.00,85784094,79781000,6059000,23
1.60,1.27,0.00,0.03,0.00,79523944,76473000,3018000,23
1.69,1.33,0.00,0.03,0.00,86323771,79261000,7023000,23
1.56,1.23,0.00,0.03,0.00,78368511,67466000,10913000,23
3.19,2.58,0.00,0.05,0.00,151203334,147228000,4006000,23
1.48,1.17,0.00,0.03,0.00,75014979,67990000,6999000,23
3.20,2.58,0.00,0.05,0.00,151449205,144483000,6975000,23
1.44,1.14,0.00,0.02,0.00,72956565,68931000,3996000,23
1.47,1.17,0.00,0.03,0.00,74208275,66135000,8016000,23
1.69,1.34,0.00,0.03,0.00,84230246,75332000,8920000,23
2.58,2.08,0.00,0.04,0.00,122192486,120224000,1987000,23
3.77,3.02,0.00,0.06,0.00,183493658,173403000,10023000,23
1.59,1.26,0.00,0.03,0.00,80658857,76611000,3979000,23
3.20,2.58,0.00,0.05,0.00,152381124,145352000,7016000,23
3.39,2.76,0.00,0.05,0.00,152320418,139294000,12934000,23
3.48,2.83,0.00,0.05,0.00,160228323,155201000,5006000,23
3.33,2.66,0.00,0.06,0.00,162281700,155163000,7007000,23
3.33,2.69,0.00,0.05,0.00,155816495,147765000,8041000,23
1.53,1.23,0.00,0.02,0.00,73511699,70419000,3017000,23
3.48,2.81,0.00,0.05,0.00,160725817,155700000,5022000,23
3.24,2.61,0.00,0.05,0.00,152626322,146610000,5984000,23
3.31,2.69,0.00,0.05,0.00,152772013,149766000,2975000,23
1.74,1.38,0.00,0.03,0.00,86641748,81621000,4976000,23
3.47,2.80,0.00,0.06,0.00,163764537,155779000,7988000,23
1.66,1.31,0.00,0.03,0.00,83452274,76498000,6954000,23
1.47,1.16,0.00,0.03,0.00,74248171,65237000,9032000,23
1.39,1.09,0.00,0.02,0.00,71143502,61290000,9885000,23
1.56,1.25,0.00,0.02,0.00,73031606,66969000,5997000,23
3.56,2.88,0.00,0.06,0.00,166087547,156131000,9944000,23
1.43,1.13,0.00,0.03,0.00,73238377,69191000,4011000,23
1.47,1.15,0.00,0.03,0.00,76354916,73331000,3013000,23
1.52,1.21,0.00,0.03,0.00,73812114,65579000,8071000,23
1.76,1.40,0.00,0.03,0.00,84311871,74236000,10032000,23
1.45,1.14,0.00,0.03,0.00,74557718,72500000,2013000,23
3.59,2.91,0.00,0.06,0.00,165526327,147631000,17955000,23
1.42,1.12,0.00,0.02,0.00,72488136,69442000,3019000,23
3.36,2.71,0.00,0.05,0.00,156477824,146527000,9967000,23
1.63,1.30,0.00,0.03,0.00,78942848,75917000,2996000,23
1.37,1.08,0.00,0.02,0.00,69330902,66327000,2969000,23
3.41,2.78,0.00,0.05,0.00,154489735,146488000,7972000,23
1.49,1.17,0.00,0.03,0.00,75020852,74015000,1013000,23
1.46,1.15,0.00,0.03,0.00,74277962,68229000,6020000,23
1.54,1.22,0.00,0.03,0.00,76289491,65215000,11036000,23
1.47,1.18,0.00,0.02,0.00,71178936,66039000,4928000,23
1.55,1.23,0.00,0.03,0.00,76396237,69447000,6944000,23
1.67,1.33,0.00,0.03,0.00,81669756,72682000,8960000,23
2.69,2.16,0.00,0.04,0.00,130256903,127278000,2983000,23
3.23,2.61,0.00,0.05,0.00,148985219,145845000,3017000,23
3.28,2.65,0.00,0.05,0.00,151965233,143889000,7993000,23
3.24,2.62,0.00,0.05,0.00,149770954,145734000,4020000,23
1.69,1.33,0.00,0.03,0.00,85552217,75574000,9944000,23
0.89,0.70,0.00,0.02,0.00,45600365,42582000,2970000,23
4.11,3.36,0.00,0.06,0.00,187664555,179273000,8012000,24
3.53,2.86,0.00,0.06,0.00,165187912,157147000,8007000,24
1.32,1.04,0.00,0.02,0.00,67160629,61146000,6014000,24
1.30,1.03,0.00,0.02,0.00,66087587,56213000,9861000,24
1.29,1.03,0.00,0.02,0.00,64066875,62036000,2001000,24
3.06,2.48,0.00,0.05,0.00,142615037,136598000,5982000,24
3.36,2.72,0.00,0.05,0.00,157929558,148910000,8994000,24
3.04,2.46,0.00,0.05,0.00,144568116,141542000,3011000,24
3.08,2.48,0.00,0.05,0.00,147787958,141849000,5993000,24
1.31,1.04,0.00,0.02,0.00,66119335,62137000,4008000,24
1.48,1.17,0.00,0.03,0.00,75293569,68206000,7021000,24
3.25,2.61,0.00,0.05,0.00,157749351,149725000,8038000,24
3.09,2.49,0.00,0.05,0.00,147866835,142857000,5030000,24
1.90,1.48,0.00,0.03,0.00,99758866,85792000,13966000,24
1.71,1.35,0.00,0.03,0.00,86368373,77367000,9042000,24
3.07,2.49,0.00,0.05,0.00,142383329,138360000,3981000,24
1.42,1.13,0.00,0.02,0.00,70530090,64486000,5952000,24
1.75,1.39,0.00,0.03,0.00,87265062,69223000,18058000,24
1.53,1.21,0.00,0.03,0.00,77394481,72328000,5022000,24
1.30,1.01,0.00,0.02,0.00,71731947,68707000,3031000,24
1.42,1.13,0.00,0.02,0.00,70732677,66675000,4040000,24
3.15,2.55,0.00,0.05,0.00,146068239,142006000,4028000,24
1.32,1.04,0.00,0.02,0.00,66989264,64031000,3001000,24
3.08,2.49,0.00,0.05,0.00,145811597,139820000,6035000,24
1.60,1.27,0.00,0.03,0.00,79637916,72542000,7052000,24
1.37,1.09,0.00,0.02,0.00,67951265,60975000,6997000,24
1.38,1.09,0.00,0.02,0.00,70237000,68197000,2005000,24
4.05,3.21,0.00,0.07,0.00,202528239,192539000,9976000,24
4.23,3.38,0.00,0.07,0.00,194739950,109845000,84880000,24
3.33,2.69,0.00,0.05,0.00,157523197,150528000,6978000,24
1.54,1.22,0.00,0.03,0.00,77076191,67079000,10011000,24
1.37,1.09,0.00,0.02,0.00,66813610,62721000,4046000,24
3.16,2.56,0.00,0.05,0.00,146675137,142578000,4016000,24
1.35,1.07,0.00,0.02,0.00,67778810,64705000,2986000,24
2.14,1.68,0.00,0.04,0.00,108434783,97502000,10944000,24
1.54,1.21,0.00,0.03,0.00,77645113,72638000,4975000,24
1.36,1.08,0.00,0.02,0.00,67782890,56808000,10963000,24
6.19,4.97,0.00,0.10,0.00,291765828,282736000,8991000,24
3.31,2.66,0.00,0.05,0.00,158605628,150562000,7976000,24
1.42,1.10,0.00,0.03,0.00,77975328,73777000,4042000,24
1.63,1.30,0.00,0.03,0.00,79267308,73302000,5943000,24
1.37,1.08,0.00,0.02,0.00,69642888,64584000,5045000,24
1.44,1.15,0.00,0.02,0.00,71689501,64616000,6958000,24
3.06,2.48,0.00,0.05,0.00,143574126,135542000,7973000,24
3.38,2.75,0.00,0.05,0.00,153705456,145566000,8031000,24
1.38,1.10,0.00,0.02,0.00,69300048,65244000,4015000,24
3.23,2.59,0.00,0.05,0.00,157124618,148006000,9000000,24
1.31,1.03,0.00,0.02,0.00,66638705,65585000,1009000,24
3.26,2.63,0.00,0.05,0.00,153305184,145314000,7962000,24
1.37,1.09,0.00,0.02,0.00,69089446,64149000,4934000,24
1.32,1.05,0.00,0.02,0.00,65441467,57316000,8044000,24
1.35,1.07,0.00,0.02,0.00,67470582,62357000,5028000,24
2.05,1.63,0.00,0.04,0.00,103536933,97445000,5966000,24
1.56,1.23,0.00,0.03,0.00,78777450,68799000,9970000,24
1.56,1.24,0.00,0.03,0.00,75835948,69851000,5987000,24
1.31,1.01,0.00,0.02,0.00,70685187,64673000,5969000,24
1.32,1.04,0.00,0.02,0.00,67172711,63121000,4007000,24
3.07,2.48,0.00,0.05,0.00,144716569,136656000,8038000,24
1.33,1.05,0.00,0.02,0.00,68130337,64075000,4004000,24
1.37,1.07,0.00,0.02,0.00,71084158,65967000,4997000,24
1.42,1.12,0.00,0.02,0.00,71709536,66738000,4980000,24
1.25,0.97,0.00,0.02,0.00,65816067,59889000,5890000,24
1.32,1.04,0.00,0.02,0.00,67190670,61187000,6018000,24
1.32,1.04,0.00,0.02,0.00,66962473,61930000,4994000,24
1.62,1.28,0.00,0.03,0.00,81391838,64292000,17077000,24
1.36,1.07,0.00,0.02,0.00,69410634,66408000,3018000,24
1.55,1.22,0.00,0.03,0.00,79658703,71668000,7963000,24
3.35,2.69,0.00,0.05,0.00,161661777,153593000,7978000,24
1.51,1.19,0.00,0.03,0.00,77066850,73043000,4002000,24
3.09,2.50,0.00,0.05,0.00,145163895,141124000,4003000,24
1.56,1.24,0.00,0.03,0.00,77821047,73798000,3989000,24
1.61,1.27,0.00,0.03,0.00,80847860,75862000,4990000,24
3.17,2.54,0.00,0.05,0.00,152044846,146016000,6000000,24
3.54,2.85,0.00,0.06,0.00,166204417,161216000,4975000,24
1.84,1.44,0.00,0.03,0.00,94489941,85451000,9047000,24
3.22,2.61,0.00,0.05,0.00,148809898,139836000,8989000,24
3.14,2.54,0.00,0.05,0.00,145091186,137117000,7948000,24
6.16,4.88,0.00,0.10,0.00,303581467,284490000,19032000,24
1.87,1.47,0.00,0.03,0.00,93350409,88295000,5016000,24
1.35,1.06,0.00,0.02,0.00,68545664,59600000,8940000,24
1.83,1.44,0.00,0.03,0.00,94373812,85203000,8916000,25
1.67,1.32,0.00,0.03,0.00,84759934,77798000,6981000,25
1.66,1.35,0.00,0.03,0.00,75417418,70335000,5023000,25
1.64,1.31,0.00,0.03,0.00,79772945,75715000,3985000,25
1.52,1.20,0.00,0.03,0.00,77096601,73058000,4003000,25
1.67,1.33,0.00,0.03,0.00,82253218,73283000,8912000,25
1.65,1.31,0.00,0.03,0.00,82358474,76307000,6024000,25
1.63,1.28,0.00,0.03,0.00,84984254,75985000,8998000,25
1.67,1.31,0.00,0.03,0.00,85461368,78530000,6958000,25
9.84,7.79,0.00,0.17,0.00,495318543,480259000,15008000,25
1.59,1.25,0.00,0.03,0.00,81087156,74218000,6927000,25
3.37,2.72,0.00,0.05,0.00,160524078,154523000,5981000,25
4.96,3.91,0.00,0.08,0.00,250231597,242140000,8004000,25
1.66,1.31,0.00,0.03,0.00,83427734,75450000,7942000,25
1.66,1.31,0.00,0.03,0.00,84170677,77158000,7014000,25
1.79,1.42,0.00,0.03,0.00,89013584,81984000,6998000,25
3.59,2.88,0.00,0.06,0.00,171981298,164944000,7040000,25
1.64,1.30,0.00,0.03,0.00,80787514,73706000,7067000,25
1.67,1.33,0.00,0.03,0.00,80472642,74303000,6024000,25
1.64,1.31,0.00,0.03,0.00,79981190,70758000,8969000,25
1.77,1.41,0.00,0.03,0.00,87522300,78290000,9033000,25
1.79,1.41,0.00,0.03,0.00,90662343,81732000,8970000,25
3.26,2.63,0.00,0.05,0.00,154415669,147360000,7017000,25
3.28,2.63,0.00,0.05,0.00,158131057,153113000,5003000,25
1.88,1.49,0.00,0.03,0.00,93194538,79141000,14025000,25
1.77,1.42,0.00,0.03,0.00,85300341,76316000,8920000,25
1.67,1.35,0.00,0.03,0.00,79394879,72389000,6941000,25
3.45,2.78,0.00,0.06,0.00,164065095,158108000,6004000,25
3.57,2.88,0.00,0.06,0.00,168708566,164669000,4016000,25
1.55,1.22,0.00,0.03,0.00,81376073,75338000,6027000,25
1.56,1.23,0.00,0.03,0.00,79343134,75294000,4015000,25
3.26,2.64,0.00,0.05,0.00,153551139,142550000,10965000,25
1.66,1.30,0.00,0.03,0.00,87525027,79454000,7945000,25
1.57,1.25,0.00,0.03,0.00,79363958,77359000,2009000,25
3.48,2.80,0.00,0.06,0.00,164806463,157825000,6992000,25
3.54,2.87,0.00,0.06,0.00,163062307,152972000,9998000,25
1.48,1.17,0.00,0.03,0.00,75309837,69246000,6021000,25
3.45,2.79,0.00,0.05,0.00,161092198,156064000,5002000,25
3.35,2.70,0.00,0.05,0.00,158843136,151818000,6991000,25
1.63,1.30,0.00,0.03,0.00,80139306,71099000,9012000,25
1.63,1.30,0.00,0.03,0.00,82656605,72668000,9954000,25
1.85,1.46,0.00,0.03,0.00,95923773,84954000,10994000,25
3.44,2.79,0.00,0.05,0.00,160319406,152145000,8007000,25
1.64,1.30,0.00,0.03,0.00,82416627,75366000,6941000,25
1.58,1.25,0.00,0.03,0.00,80125180,73176000,6922000,25
1.67,1.32,0.00,0.03,0.00,84071812,78032000,6002000,25
1.69,1.36,0.00,0.03,0.00,79246737,73162000,5932000,25
1.53,1.23,0.00,0.02,0.00,71200813,68045000,3002000,25
1.91,1.51,0.00,0.03,0.00,93963299,75983000,17996000,25
3.42,2.77,0.00,0.05,0.00,158296631,151315000,6968000,25
3.64,2.95,0.00,0.06,0.00,170349150,161306000,9017000,25
5.03,4.05,0.00,0.08,0.00,235331848,225280000,10012000,25
1.62,1.29,0.00,0.03,0.00,80021524,73993000,5999000,25
3.41,2.75,0.00,0.05,0.00,160693737,152680000,7983000,25
1.74,1.38,0.00,0.03,0.00,85711954,74738000,10961000,25
1.79,1.41,0.00,0.03,0.00,91390861,84473000,6956000,25
1.57,1.24,0.00,0.03,0.00,78077310,73049000,5003000,25
3.44,2.77,0.00,0.06,0.00,163087139,155025000,8001000,25
1.69,1.34,0.00,0.03,0.00,85484571,77500000,7948000,25
1.62,1.28,0.00,0.03,0.00,81836356,71843000,9978000,25
3.65,2.94,0.00,0.06,0.00,170839749,162830000,7991000,25
1.60,1.26,0.00,0.03,0.00,81754322,75688000,6055000,25
3.46,2.80,0.00,0.06,0.00,161433226,155385000,6014000,25
1.57,1.25,0.00,0.03,0.00,79729455,72734000,6974000,25
3.42,2.76,0.00,0.06,0.00,161712365,154699000,6986000,25
4.10,3.32,0.00,0.06,0.00,184607209,164529000,19943000,25
3.32,2.68,0.00,0.05,0.00,156195929,149072000,7003000,25
1.57,1.25,0.00,0.03,0.00,79664886,73668000,5973000,25
3.56,2.85,0.00,0.06,0.00,171982240,166815000,5024000,25
1.73,1.40,0.00,0.03,0.00,78628535,69511000,9066000,25
5.10,4.05,0.00,0.09,0.00,250228105,239187000,11008000,25
1.96,1.56,0.00,0.03,0.00,95332556,85331000,9922000,25
3.44,2.79,0.00,0.05,0.00,157502894,154423000,2988000,25
1.89,1.49,0.00,0.03,0.00,94801135,82793000,11970000,25
1.68,1.33,0.00,0.03,0.00,84231937,80242000,4012000,25
4.28,3.46,0.00,0.07,0.00,197949560,190917000,6996000,25
1.51,1.20,0.00,0.03,0.00,75616418,69621000,5967000,25
2.02,1.61,0.00,0.03,0.00,99956497,91975000,7997000,25
2.04,1.64,0.00,0.03,0.00,94454493,87378000,7030000,25
5.55,4.44,0.00,0.09,0.00,267715053,258743000,8991000,25
3.00,2.45,0.00,0.05,0.00,136492035,129233000,6958000,26
2.92,2.35,0.00,0.05,0.00,140801046,135769000,5028000,26
3.01,2.45,0.00,0.05,0.00,138412788,133322000,5012000,26
2.98,2.41,0.00,0.05,0.00,140473224,132532000,7971000,26
1.25,0.99,0.00,0.02,0.00,62827542,57753000,5066000,26
1.41,1.11,0.00,0.02,0.00,72216690,60338000,11869000,26
1.17,0.92,0.00,0.02,0.00,62222668,55202000,7025000,26
2.94,2.37,0.00,0.05,0.00,140761484,138762000,1996000,26
3.16,2.55,0.00,0.05,0.00,149095642,145041000,4028000,26
1.37,1.08,0.00,0.02,0.00,69121545,62213000,6912000,26
3.27,2.63,0.00,0.05,0.00,156782238,152722000,3992000,26
1.39,1.10,0.00,0.02,0.00,70303986,65338000,4949000,26
1.24,0.98,0.00,0.02,0.00,62232396,56198000,6021000,26
2.97,2.40,0.00,0.05,0.00,141092696,136971000,3999000,26
1.38,1.09,0.00,0.02,0.00,68985701,64911000,4056000,26
2.98,2.40,0.00,0.05,0.00,142170036,136003000,6000000,26
3.02,2.44,0.00,0.05,0.00,143492104,135458000,8027000,26
3.06,2.47,0.00,0.05,0.00,146148526,139185000,7009000,26
1.21,0.96,0.00,0.02,0.00,63553652,58638000,4969000,26
1.53,1.21,0.00,0.03,0.00,77497003,65561000,11920000,26
1.41,1.11,0.00,0.02,0.00,71307636,67255000,4015000,26
1.19,0.94,0.00,0.02,0.00,60401993,52319000,8049000,26
1.37,1.08,0.00,0.02,0.00,71521805,65536000,5957000,26
1.39,1.10,0.00,0.02,0.00,71039221,65013000,6001000,26
2.14,1.70,0.00,0.04,0.00,106122848,100092000,6005000,26
1.51,1.19,0.00,0.03,0.00,77749401,74755000,2990000,26
1.39,1.08,0.00,0.03,0.00,73988343,68062000,5918000,26
1.33,1.04,0.00,0.02,0.00,70308759,63417000,6936000,26
1.25,0.99,0.00,0.02,0.00,63506175,55556000,7936000,26
1.21,0.95,0.00,0.02,0.00,63392203,62368000,1005000,26
3.04,2.46,0.00,0.05,0.00,141420720,137385000,4011000,26
2.98,2.41,0.00,0.05,0.00,141553666,135576000,6025000,26
1.27,1.00,0.00,0.02,0.00,66301125,62358000,3959000,26
3.01,2.44,0.00,0.05,0.00,140394261,136357000,4010000,26
0.69,0.53,0.00,0.01,0.00,38252239,35237000,2936000,26
1.27,1.02,0.00,0.02,0.00,61638742,53655000,7948000,26
1.25,0.99,0.00,0.02,0.00,63052094,57942000,5082000,26
3.96,3.21,0.00,0.06,0.00,182297118,172279000,9958000,26
0.16,0.12,0.00,0.00,0.00,10586214,7430000,3184000,26
1.39,1.10,0.00,0.02,0.00,70106870,61065000,9009000,26
1.18,0.91,0.00,0.02,0.00,65842269,61735000,3982000,26
1.39,1.10,0.00,0.02,0.00,70190186,61285000,8896000,26
1.24,0.98,0.00,0.02,0.00,63883064,57828000,5982000,26
1.73,1.36,0.00,0.03,0.00,86498097,79437000,7038000,26
3.30,2.67,0.00,0.05,0.00,154495600,146461000,8025000,26
1.79,1.42,0.00,0.03,0.00,89671382,75736000,13951000,26
3.44,2.76,0.00,0.06,0.00,166898406,159859000,6993000,26
1.24,0.98,0.00,0.02,0.00,63578189,61500000,2016000,26
3.52,2.85,0.00,0.06,0.00,164605478,156499000,7974000,26
1.28,1.03,0.00,0.02,0.00,61556777,55469000,6051000,26
1.40,1.11,0.00,0.02,0.00,70288428,63231000,7025000,26
3.94,3.19,0.00,0.06,0.00,184505662,179487000,4985000,26
3.25,2.63,0.00,0.05,0.00,154127151,146109000,8006000,26
3.08,2.49,0.00,0.05,0.00,143022855,137014000,6000000,26
1.25,0.99,0.00,0.02,0.00,64020030,59118000,4926000,26
1.38,1.09,0.00,0.02,0.00,71079096,61221000,9874000,26
3.00,2.40,0.00,0.05,0.00,146027791,136899000,8993000,26
1.66,1.31,0.00,0.03,0.00,84124064,68264000,15829000,26
1.25,0.99,0.00,0.02,0.00,63833923,58800000,4983000,26
1.41,1.11,0.00,0.02,0.00,72193101,68149000,4008000,26
1.39,1.10,0.00,0.02,0.00,70234780,65185000,5014000,26
3.04,2.45,0.00,0.05,0.00,141437567,133479000,7968000,26
1.35,1.08,0.00,0.02,0.00,64698659,59625000,4968000,26
1.35,1.06,0.00,0.02,0.00,70479132,65441000,5033000,26
1.42,1.13,0.00,0.02,0.00,71635838,64540000,7059000,26
3.18,2.56,0.00,0.05,0.00,150682748,145659000,4988000,26
6.61,5.27,0.00,0.11,0.00,321223138,293287000,27932000,26
1.25,0.99,0.00,0.02,0.00,64408235,57447000,6933000,26
0.49,0.37,0.00,0.01,0.00,28761906,22598000,6163000,26
1.89,1.49,0.00,0.03,0.00,95057949,87002000,8000000,26
1.60,1.27,0.00,0.03,0.00,80853359,74860000,5988000,26
3.00,2.41,0.00,0.05,0.00,143880989,138848000,4994000,26
3.02,2.44,0.00,0.05,0.00,141481534,137532000,3986000,26
1.39,1.10,0.00,0.02,0.00,70207492,62158000,8020000,26
3.95,3.18,0.00,0.06,0.00,185839272,175801000,9988000,26
1.42,1.13,0.00,0.02,0.00,70084535,61965000,7995000,26
3.18,2.58,0.00,0.05,0.00,146891694,142703000,4019000,26
3.02,2.47,0.00,0.05,0.00,135014135,127640000,6980000,26
1.39,1.10,0.00,0.02,0.00,71303245,65858000,4989000,26
1.70,1.35,0.00,0.03,0.00,84853082,72769000,12128000,26
2.06,1.62,0.00,0.04,0.00,105991525,95776000,9976000,27
4.98,4.06,0.00,0.08,0.00,231686749,226631000,5013000,27
1.86,1.46,0.00,0.03,0.00,98380956,93287000,5015000,27
2.08,1.66,0.00,0.03,0.00,101930333,95836000,6052000,27
1.10,0.87,0.00,0.02,0.00,54986487,48847000,5981000,27
1.87,1.49,0.00,0.03,0.00,94605408,86680000,7970000,27
2.00,1.60,0.00,0.03,0.00,96944463,90876000,6058000,27
1.94,1.54,0.00,0.03,0.00,96604518,91593000,4977000,27
1.89,1.50,0.00,0.03,0.00,96112979,88082000,8007000,27
1.75,1.40,0.00,0.03,0.00,87739655,80726000,6976000,27
5.01,4.06,0.00,0.08,0.00,234774071,227676000,6990000,27
7.07,5.72,0.00,0.11,0.00,329782325,320754000,8993000,27
1.97,1.57,0.00,0.03,0.00,96549520,84462000,12066000,27
5.04,4.07,0.00,0.08,0.00,237913467,230914000,7027000,27
2.00,1.59,0.00,0.03,0.00,97990378,86958000,10994000,27
2.27,1.82,0.00,0.04,0.00,111085680,105006000,6000000,27
1.99,1.58,0.00,0.03,0.00,98167705,89121000,9012000,27
1.99,1.58,0.00,0.03,0.00,97830085,92758000,5041000,27
2.13,1.70,0.00,0.04,0.00,104380398,99394000,5019000,27
1.97,1.58,0.00,0.03,0.00,94605666,87481000,7038000,27
1.92,1.53,0.00,0.03,0.00,94903745,88964000,5930000,27
5.37,4.37,0.00,0.08,0.00,245404863,238372000,7010000,27
1.90,1.50,0.00,0.03,0.00,96248282,90287000,6019000,27
6.23,5.03,0.00,0.10,0.00,292281160,279250000,13011000,27
1.94,1.55,0.00,0.03,0.00,95293874,90266000,5014000,27
4.96,4.01,0.00,0.08,0.00,232388820,225333000,7010000,27
3.02,2.41,0.00,0.05,0.00,149796485,140764000,8984000,27
2.76,2.20,0.00,0.04,0.00,131046830,96009000,35003000,27
1.92,1.53,0.00,0.03,0.00,95807314,85723000,10085000,27
1.93,1.53,0.00,0.03,0.00,96567175,91538000,5029000,27
1.93,1.52,0.00,0.03,0.00,99112752,91106000,8009000,27
3.08,2.45,0.00,0.05,0.00,152676399,143708000,8981000,27
2.02,1.61,0.00,0.03,0.00,99910750,93863000,5991000,27
1.80,1.43,0.00,0.03,0.00,89779818,81802000,7980000,27
1.96,1.57,0.00,0.03,0.00,93957939,81841000,11976000,27
5.01,4.07,0.00,0.08,0.00,233259219,228219000,5004000,27
1.95,1.54,0.00,0.03,0.00,99599971,89646000,9960000,27
1.95,1.56,0.00,0.03,0.00,94625231,89591000,4977000,27
5.07,4.10,0.00,0.08,0.00,238368240,233264000,5005000,27
1.98,1.59,0.00,0.03,0.00,96335251,94200000,2004000,27
5.10,4.13,0.00,0.08,0.00,238379140,236252000,2002000,27
1.89,1.51,0.00,0.03,0.00,92832344,91865000,1009000,27
2.03,1.61,0.00,0.03,0.00,101538303,93554000,7962000,27
1.91,1.51,0.00,0.03,0.00,96137955,90112000,6007000,27
2.00,1.59,0.00,0.03,0.00,100882913,96718000,3988000,27
1.77,1.40,0.00,0.03,0.00,91218142,85164000,6011000,27
5.12,4.16,0.00,0.08,0.00,233764820,223694000,10031000,27
5.41,4.39,0.00,0.09,0.00,250869798,242592000,7986000,27
1.92,1.53,0.00,0.03,0.00,94546277,87462000,7037000,27
5.13,4.16,0.00,0.08,0.00,237825693,233825000,3997000,27
1.96,1.57,0.00,0.03,0.00,94073929,87978000,5998000,27
5.09,4.13,0.00,0.08,0.00,235471316,226470000,8979000,27
1.99,1.59,0.00,0.03,0.00,97416559,94405000,3012000,27
5.01,4.05,0.00,0.08,0.00,234343517,222376000,12020000,27
2.19,1.76,0.00,0.04,0.00,105684731,96634000,9059000,27
1.86,1.49,0.00,0.03,0.00,89372970,85334000,4015000,27
6.69,5.41,0.00,0.11,0.00,310775263,301731000,8991000,27
1.95,1.57,0.00,0.03,0.00,94615050,88588000,5972000,27
5.18,4.21,0.00,0.08,0.00,237765391,232745000,4994000,27
1.84,1.47,0.00,0.03,0.00,88917853,83899000,4994000,27
5.08,4.11,0.00,0.08,0.00,235913415,224951000,10948000,27
1.89,1.50,0.00,0.03,0.00,93477327,89529000,3979000,27
4.91,3.99,0.00,0.08,0.00,226831711,220802000,5994000,27
5.14,4.17,0.00,0.08,0.00,236794008,227684000,8987000,27
5.17,4.20,0.00,0.08,0.00,237861385,226917000,10947000,27
5.09,4.14,0.00,0.08,0.00,233793202,227717000,5992000,27
5.23,4.26,0.00,0.08,0.00,238225898,231116000,6973000,27
2.10,1.69,0.00,0.03,0.00,97364159,89390000,7945000,27
2.19,1.75,0.00,0.04,0.00,106005067,100015000,6000000,27
1.84,1.47,0.00,0.03,0.00,88772358,84674000,4032000,27
1.93,1.57,0.00,0.03,0.00,84720264,81618000,3022000,27
1.98,1.59,0.00,0.03,0.00,94420613,88442000,5962000,27
4.94,4.01,0.00,0.08,0.00,228484698,219465000,8978000,27
1.95,1.55,0.00,0.03,0.00,95479800,85505000,9942000,27
1.97,1.57,0.00,0.03,0.00,95577244,89521000,5968000,27
1.92,1.53,0.00,0.03,0.00,95161035,86164000,9017000,27
2.03,1.63,0.00,0.03,0.00,96296256,91239000,5013000,27
2.00,1.58,0.00,0.03,0.00,102534218,94535000,7960000,27
1.95,1.56,0.00,0.03,0.00,96327818,93330000,3010000,27
5.17,4.20,0.00,0.08,0.00,236895279,231912000,4998000,27
3.67,2.97,0.00,0.06,0.00,174556505,143447000,30881000,28
3.44,2.82,0.00,0.05,0.00,158120108,154022000,4000000,28
3.81,3.15,0.00,0.06,0.00,162265710,161264000,1001000,28
6.23,5.08,0.00,0.10,0.00,287419181,241442000,45894000,28
3.59,2.94,0.00,0.05,0.00,162054395,159070000,3001000,28
5.16,4.21,0.00,0.08,0.00,235555785,217496000,18041000,28
3.48,2.87,0.00,0.05,0.00,151924108,148952000,2979000,28
4.59,3.71,0.00,0.07,0.00,220652214,217632000,3008000,28
3.39,2.78,0.00,0.05,0.00,153140862,150214000,2984000,28
16.11,12.96,0.00,0.27,0.00,781112637,778065000,3000000,28
2.50,2.06,0.00,0.04,0.00,110031103,105059000,4955000,28
2.37,1.93,0.00,0.04,0.00,110006687,108935000,999000,28
3.46,2.80,0.00,0.06,0.00,164957867,132179000,32796000,28
5.65,4.60,0.00,0.09,0.00,261493916,236431000,25045000,28
3.49,2.85,0.00,0.05,0.00,160377168,156380000,3984000,28
3.36,2.74,0.00,0.05,0.00,154945234,152008000,3000000,28
3.67,3.01,0.00,0.06,0.00,162838277,159818000,2996000,28
4.20,3.42,0.00,0.07,0.00,193342192,165444000,27906000,28
3.39,2.78,0.00,0.05,0.00,153418428,151428000,2005000,28
3.73,3.03,0.00,0.06,0.00,174976853,155874000,19107000,28
4.38,3.53,0.00,0.07,0.00,211083700,184048000,27007000,28
5.58,4.50,0.00,0.09,0.00,269884154,248863000,20988000,28
5.35,4.36,0.00,0.08,0.00,245387361,210447000,34908000,28
13.97,11.30,0.00,0.22,0.00,662539218,657521000,4996000,28
3.60,2.96,0.00,0.05,0.00,158965966,156003000,2980000,28
5.29,4.33,0.00,0.08,0.00,237698231,203729000,33954000,28
2.59,2.11,0.00,0.04,0.00,118958096,114992000,3965000,28
3.59,2.94,0.00,0.05,0.00,158942520,157945000,999000,28
4.64,3.80,0.00,0.07,0.00,207915916,177917000,29986000,28
4.73,3.85,0.00,0.07,0.00,216286423,188267000,28039000,28
4.68,3.84,0.00,0.07,0.00,206732344,183314000,22914000,28
5.22,4.26,0.00,0.08,0.00,232258264,208219000,24025000,28
5.38,4.39,0.00,0.08,0.00,245956674,223055000,22902000,28
4.80,3.91,0.00,0.07,0.00,221059199,193052000,28007000,28
4.17,3.37,0.00,0.07,0.00,198143576,163071000,35015000,28
5.66,4.60,0.00,0.09,0.00,260455695,240495000,19958000,28
4.27,3.47,0.00,0.07,0.00,197740100,162617000,35133000,28
5.20,4.20,0.00,0.08,0.00,246394814,225443000,20948000,28
3.41,2.76,0.00,0.05,0.00,160986026,126969000,33991000,28
2.51,2.04,0.00,0.04,0.00,117295532,115228000,2003000,28
6.21,4.98,0.00,0.10,0.00,304755494,270785000,33973000,28
7.62,6.26,0.00,0.11,0.00,336466109,307436000,28946000,28
4.74,3.83,0.00,0.08,0.00,225859686,204825000,21084000,28
7.21,5.92,0.00,0.11,0.00,318912023,285925000,32991000,28
3.60,2.95,0.00,0.05,0.00,160342837,159346000,1002000,28
3.65,3.00,0.00,0.05,0.00,162139368,160176000,2002000,28
7.65,6.18,0.00,0.12,0.00,360830531,328698000,32068000,28
3.59,2.95,0.00,0.05,0.00,160338076,159370000,1002000,28
3.50,2.88,0.00,0.05,0.00,153655003,149670000,3991000,28
4.29,3.48,0.00,0.07,0.00,201055907,174057000,27008000,28
4.65,3.75,0.00,0.07,0.00,219642912,194562000,25072000,28
6.31,5.16,0.00,0.10,0.00,284412415,258369000,26037000,28
3.46,2.84,0.00,0.05,0.00,153610755,152622000,1004000,28
4.82,3.91,0.00,0.08,0.00,223270573,200274000,22916000,28
3.38,2.74,0.00,0.05,0.00,157205015,155109000,2001000,28
4.36,3.58,0.00,0.06,0.00,183908929,180884000,3014000,28
3.44,2.84,0.00,0.05,0.00,150656142,150549000,0,28
3.46,2.85,0.00,0.05,0.00,152919618,151895000,992000,28
2.91,2.33,0.00,0.05,0.00,144782292,142690000,2009000,28
4.79,3.92,0.00,0.07,0.00,214547812,186487000,28073000,28
5.24,4.27,0.00,0.08,0.00,239725655,204777000,34961000,28
3.55,2.92,0.00,0.05,0.00,155376621,122423000,32845000,28
3.60,2.95,0.00,0.05,0.00,158738720,155729000,3014000,28
3.66,2.98,0.00,0.06,0.00,164907551,161823000,2996000,28
5.66,4.58,0.00,0.09,0.00,267545141,241393000,26042000,28
3.08,2.48,0.00,0.05,0.00,147486097,122571000,24912000,28
4.90,3.98,0.00,0.08,0.00,225922156,192735000,33126000,28
3.01,2.38,0.00,0.05,0.00,154133751,148978000,4999000,28
3.61,2.96,0.00,0.05,0.00,159654552,153529000,5981000,28
4.70,3.85,0.00,0.07,0.00,209001396,181852000,26978000,28
2.98,2.40,0.00,0.05,0.00,143978243,142971000,999000,28
4.36,3.55,0.00,0.07,0.00,198321086,170309000,28051000,28
4.52,3.67,0.00,0.07,0.00,208713409,178746000,29957000,28
2.95,2.37,0.00,0.05,0.00,143867139,142874000,1006000,28
10.67,8.82,0.00,0.16,0.00,456372176,427210000,29014000,28
13.40,10.83,0.00,0.22,0.00,635958909,629869000,5998000,28
3.41,2.80,0.00,0.05,0.00,152186899,150190000,2002000,28
2.77,2.24,0.00,0.04,0.00,128624611,126633000,1994000,28
5.17,4.22,0.00,0.08,0.00,232527145,204584000,27943000,28
3.46,2.84,0.00,0.05,0.00,153037730,151035000,2000000,28
0.59,0.45,0.00,0.01,0.00,36371725,31089000,5014000,29
0.59,0.45,0.00,0.01,0.00,34138308,30156000,4020000,29
1.90,1.60,0.00,0.02,0.00,71170111,63115000,8014000,29
1.13,0.89,0.00,0.02,0.00,58416788,50472000,7917000,29
1.11,0.86,0.00,0.02,0.00,60952720,55915000,4904000,29
1.96,1.64,0.00,0.03,0.00,72627271,64590000,8073000,29
0.59,0.45,0.00,0.01,0.00,33665525,27709000,5937000,29
0.61,0.48,0.00,0.01,0.00,33045636,29983000,2998000,29
0.65,0.51,0.00,0.01,0.00,35669104,29741000,5948000,29
1.58,1.26,0.00,0.03,0.00,77403975,56571000,20842000,29
1.10,0.87,0.00,0.02,0.00,56700317,48601000,8100000,29
0.98,0.79,0.00,0.02,0.00,47147849,38301000,8838000,29
1.07,0.85,0.00,0.02,0.00,55506282,50536000,4954000,29
0.59,0.44,0.00,0.01,0.00,36250540,32198000,4024000,29
0.85,0.66,0.00,0.02,0.00,45126832,38953000,6150000,29
0.65,0.51,0.00,0.01,0.00,34207980,31125000,3012000,29
1.10,0.87,0.00,0.02,0.00,56630795,55659000,1011000,29
0.87,0.67,0.00,0.02,0.00,46461109,40376000,6056000,29
0.59,0.45,0.00,0.01,0.00,33259581,30199000,3019000,29
0.94,0.75,0.00,0.02,0.00,45054166,38992000,5998000,29
1.14,0.90,0.00,0.02,0.00,58122598,52084000,6009000,29
0.65,0.50,0.00,0.01,0.00,35203203,30166000,5027000,29
1.09,0.87,0.00,0.02,0.00,52824229,39485000,12832000,29
0.60,0.45,0.00,0.01,0.00,34771071,27649000,7168000,29
0.57,0.44,0.00,0.01,0.00,33560381,29475000,4065000,29
0.44,0.34,0.00,0.01,0.00,24266619,19413000,4853000,29
1.05,0.83,0.00,0.02,0.00,54342838,49324000,5033000,29
0.82,0.68,0.00,0.01,0.00,35777937,32646000,2967000,29
0.74,0.57,0.00,0.01,0.00,41775778,33824000,7958000,29
0.91,0.70,0.00,0.02,0.00,48327904,44291000,4026000,29
0.94,0.74,0.00,0.02,0.00,48064402,41022000,7003000,29
0.59,0.45,0.00,0.01,0.00,35588805,27677000,7907000,29
0.86,0.67,0.00,0.02,0.00,46318384,40313000,6046000,29
1.70,1.36,0.00,0.03,0.00,82549393,60414000,22151000,29
1.07,0.85,0.00,0.02,0.00,54600842,50614000,3969000,29
1.19,0.95,0.00,0.02,0.00,59741867,57713000,2025000,29
0.83,0.69,0.00,0.01,0.00,33449649,28434000,4902000,29
0.94,0.74,0.00,0.02,0.00,47493335,37509000,9870000,29
1.37,1.09,0.00,0.02,0.00,68148652,61125000,7014000,29
0.88,0.69,0.00,0.02,0.00,46692123,39733000,6953000,29
1.41,1.13,0.00,0.02,0.00,69723809,60713000,8957000,29
0.63,0.49,0.00,0.01,0.00,35671750,27728000,7922000,29
1.10,0.87,0.00,0.02,0.00,56218825,50216000,6026000,29
1.16,0.92,0.00,0.02,0.00,59285751,53256000,6029000,29
0.63,0.48,0.00,0.01,0.00,34445056,29410000,5070000,29
1.09,0.85,0.00,0.02,0.00,59491764,55249000,4018000,29
1.52,1.22,0.00,0.02,0.00,72322362,63254000,9036000,29
2.62,2.07,0.00,0.05,0.00,132039429,123033000,9002000,29
0.54,0.40,0.00,0.01,0.00,34917431,31912000,2991000,29
1.06,0.83,0.00,0.02,0.00,54101919,39088000,15034000,29
0.63,0.49,0.00,0.01,0.00,34444190,27568000,6892000,29
1.10,0.87,0.00,0.02,0.00,56344090,53353000,3019000,29
0.92,0.72,0.00,0.02,0.00,46123068,42105000,4010000,29
2.06,1.64,0.00,0.04,0.00,102993987,95870000,6990000,29
1.12,0.88,0.00,0.02,0.00,56320361,52365000,3952000,29
0.62,0.48,0.00,0.01,0.00,33155988,29040000,4005000,29
0.97,0.77,0.00,0.02,0.00,48437835,43384000,5044000,29
0.90,0.70,0.00,0.02,0.00,47409906,40344000,7060000,29
0.65,0.50,0.00,0.01,0.00,35738247,27795000,7941000,29
0.59,0.45,0.00,0.01,0.00,33578209,28623000,4935000,29
1.16,0.93,0.00,0.02,0.00,55783155,50698000,4970000,29
1.18,0.97,0.00,0.02,0.00,52150737,49997000,1999000,29
0.62,0.47,0.00,0.01,0.00,35072968,29082000,6017000,29
0.69,0.54,0.00,0.01,0.00,36332590,27235000,9078000,29
0.89,0.69,0.00,0.02,0.00,46175358,30114000,16060000,29
0.61,0.48,0.00,0.01,0.00,33190063,28064000,5011000,29
1.08,0.84,0.00,0.02,0.00,58671144,53638000,5060000,29
0.59,0.44,0.00,0.01,0.00,34916085,28935000,5986000,29
1.14,0.90,0.00,0.02,0.00,59295471,50370000,8888000,29
1.09,0.86,0.00,0.02,0.00,56260195,50215000,6025000,29
0.61,0.47,0.00,0.01,0.00,35098726,26056000,9019000,29
1.10,0.85,0.00,0.02,0.00,60426538,53252000,7033000,29
1.18,0.97,0.00,0.02,0.00,50902926,48755000,2031000,29
1.44,1.14,0.00,0.02,0.00,72133134,62246000,9880000,29
0.64,0.48,0.00,0.01,0.00,36397842,29501000,6883000,29
0.86,0.67,0.00,0.02,0.00,45896625,38941000,6989000,29
0.92,0.72,0.00,0.02,0.00,48163171,38120000,10031000,29
0.60,0.46,0.00,0.01,0.00,33374050,28299000,5053000,29
0.58,0.45,0.00,0.01,0.00,31914116,27912000,3987000,29
0.89,0.69,0.00,0.02,0.00,46052565,39999000,5999000,29
3.78,3.02,0.00,0.06,0.00,185644563,167176000,18019000,30
12.16,9.89,0.00,0.19,0.00,566100679,534097000,32005000,30
4.04,3.25,0.00,0.07,0.00,192597709,178558000,14043000,30
9.39,7.63,0.00,0.15,0.00,432221484,418167000,14005000,30
9.90,8.05,0.00,0.15,0.00,456130692,422080000,33926000,30
10.18,8.32,0.00,0.16,0.00,462781596,427754000,34979000,30
4.36,3.51,0.00,0.07,0.00,209029591,195952000,12996000,30
3.14,2.54,0.00,0.05,0.00,146391543,140382000,5973000,30
3.11,2.48,0.00,0.05,0.00,155441791,148412000,6972000,30
8.10,6.56,0.00,0.13,0.00,379960546,344972000,34997000,30
4.05,3.29,0.00,0.06,0.00,187715958,180674000,7026000,30
3.97,3.22,0.00,0.06,0.00,183241999,173205000,10011000,30
3.02,2.44,0.00,0.05,0.00,142906086,136931000,5953000,30
2.52,2.03,0.00,0.04,0.00,118958144,110862000,8062000,30
3.66,2.98,0.00,0.06,0.00,168590616,160564000,7978000,30
6.19,5.01,0.00,0.09,0.00,277817318,257781000,19983000,30
3.05,2.47,0.00,0.05,0.00,144090060,136032000,8001000,30
2.94,2.35,0.00,0.05,0.00,145298806,138293000,7014000,30
6.47,5.20,0.00,0.10,0.00,305114765,292002000,13000000,30
3.94,3.18,0.00,0.06,0.00,188011358,179949000,8042000,30
4.76,3.86,0.00,0.08,0.00,220599997,213553000,7018000,30
10.77,8.72,0.00,0.17,0.00,494542115,446549000,47951000,30
5.78,4.69,0.00,0.09,0.00,267020289,265041000,2000000,30
4.33,3.51,0.00,0.07,0.00,200525795,192506000,7979000,30
2.96,2.39,0.00,0.05,0.00,138412498,131359000,7019000,30
2.92,2.36,0.00,0.05,0.00,137210527,129170000,8010000,30
4.70,3.81,0.00,0.07,0.00,219103945,173048000,46012000,30
5.47,4.43,0.00,0.09,0.00,250744762,243701000,6991000,30
9.11,7.40,0.00,0.14,0.00,418320206,384261000,34023000,30
4.13,3.35,0.00,0.07,0.00,191590658,180609000,10976000,30
10.24,8.34,0.00,0.16,0.00,464994902,430992000,33999000,30
4.75,3.74,0.00,0.08,0.00,245890142,85278000,5634000,30
5.70,4.63,0.00,0.09,0.00,261093569,227018000,34002000,30
5.79,4.66,0.00,0.09,0.00,266621855,255600000,10982000,30
5.59,4.51,0.00,0.09,0.00,264317648,229264000,35040000,30
2.44,1.96,0.00,0.04,0.00,117749393,107752000,9977000,30
3.28,2.66,0.00,0.05,0.00,152207791,145167000,7008000,30
7.49,6.09,0.00,0.12,0.00,343516060,318318000,25025000,30
4.42,3.57,0.00,0.07,0.00,207148990,176102000,31018000,30
3.08,2.48,0.00,0.05,0.00,145198845,133196000,12017000,30
3.37,2.70,0.00,0.06,0.00,163043559,156055000,7002000,30
2.88,2.32,0.00,0.05,0.00,136482461,131488000,5018000,30
2.96,2.39,0.00,0.05,0.00,140217187,133186000,7009000,30
6.62,5.29,0.00,0.10,0.00,304854439,293794000,11029000,30
3.92,3.18,0.00,0.06,0.00,182288656,174288000,8013000,30
3.22,2.58,0.00,0.05,0.00,156177807,149111000,7005000,30
4.40,3.57,0.00,0.07,0.00,203416437,193387000,10020000,30
6.63,5.40,0.00,0.10,0.00,301436297,270452000,30937000,30
7.88,6.37,0.00,0.12,0.00,363552889,352551000,10986000,30
2.89,2.33,0.00,0.05,0.00,136627933,129646000,6980000,30
4.48,3.64,0.00,0.07,0.00,204944478,169956000,34990000,30
4.03,3.27,0.00,0.06,0.00,185124925,179055000,6001000,30
3.03,2.44,0.00,0.05,0.00,142766199,134748000,7985000,30
5.44,4.42,0.00,0.08,0.00,246793397,235711000,10940000,30
2.91,2.35,0.00,0.05,0.00,136661929,125652000,10969000,30
8.31,6.76,0.00,0.13,0.00,380030905,349931000,30080000,30
3.67,2.95,0.00,0.06,0.00,175868877,144844000,30966000,30
3.34,2.70,0.00,0.05,0.00,155128411,145028000,10071000,30
10.10,8.24,0.00,0.15,0.00,455269285,423213000,32016000,30
8.15,6.64,0.00,0.13,0.00,371199013,345153000,25936000,30
10.08,8.21,0.00,0.16,0.00,456133396,418071000,38006000,30
4.86,3.93,0.00,0.08,0.00,222763619,211695000,11036000,30
5.51,4.48,0.00,0.09,0.00,252036246,244942000,6998000,30
3.09,2.48,0.00,0.05,0.00,149916612,144935000,4997000,30
5.24,4.24,0.00,0.08,0.00,239899002,232905000,6967000,30
8.46,6.92,0.00,0.13,0.00,379878828,348958000,30907000,30
1.05,0.80,0.00,0.02,0.00,59876634,54861000,4987000,30
10.00,8.12,0.00,0.16,0.00,457908234,420940000,36907000,30
8.38,6.82,0.00,0.13,0.00,382910166,348794000,34077000,30
3.67,2.96,0.00,0.06,0.00,173745322,150775000,22965000,30
3.50,2.83,0.00,0.06,0.00,164608773,151620000,12967000,30
3.48,2.80,0.00,0.06,0.00,167355408,160262000,7011000,30
3.57,2.89,0.00,0.06,0.00,164204194,149200000,15020000,30
4.03,3.26,0.00,0.06,0.00,187060661,176052000,11003000,30
8.44,6.87,0.00,0.13,0.00,383060590,353073000,30006000,30
4.05,3.25,0.00,0.07,0.00,192568382,178464000,14036000,30
3.87,3.13,0.00,0.06,0.00,177996929,168823000,9044000,30
4.72,3.78,0.00,0.08,0.00,223697846,209590000,14039000,30
8.79,7.17,0.00,0.14,0.00,398026799,368859000,28988000,30
4.41,3.55,0.00,0.07,0.00,209233972,169176000,40041000,30
3.27,2.64,0.00,0.05,0.00,157857699,156591000,1003000,31
3.55,2.87,0.00,0.06,0.00,169045561,168060000,1000000,31
4.32,3.60,0.00,0.06,0.00,178223774,176113000,2001000,31
4.46,3.65,0.00,0.07,0.00,201782295,200799000,1003000,31
3.48,2.82,0.00,0.06,0.00,163486630,163506000,0,31
2.32,1.86,0.00,0.04,0.00,114314841,108386000,5966000,31
1.54,1.22,0.00,0.03,0.00,81626266,80649000,995000,31
6.98,5.63,0.00,0.11,0.00,318783847,263828000,54964000,31
3.46,2.82,0.00,0.05,0.00,159910417,159834000,0,31
3.46,2.79,0.00,0.06,0.00,166429137,164445000,2005000,31
3.40,2.74,0.00,0.06,0.00,165298479,164313000,1001000,31
3.43,2.78,0.00,0.06,0.00,163409033,162423000,1002000,31
1.73,1.35,0.00,0.03,0.00,91935145,84829000,6985000,31
4.09,3.30,0.00,0.07,0.00,195539221,193564000,1995000,31
3.43,2.79,0.00,0.05,0.00,158614725,157621000,997000,31
3.35,2.68,0.00,0.06,0.00,165973481,164993000,999000,31
0.49,0.38,0.00,0.01,0.00,28269668,25385000,2929000,31
3.29,2.67,0.00,0.05,0.00,155550810,153563000,2007000,31
2.87,2.27,0.00,0.05,0.00,148994674,146967000,1999000,31
10.55,8.52,0.00,0.17,0.00,487499261,423525000,63928000,31
10.41,8.42,0.00,0.16,0.00,477487806,416539000,60932000,31
3.37,2.75,0.00,0.05,0.00,154128156,152115000,1988000,31
3.02,2.42,0.00,0.05,0.00,149160077,148212000,1001000,31
3.46,2.80,0.00,0.06,0.00,163834022,161730000,1984000,31
3.41,2.76,0.00,0.06,0.00,163861909,162878000,999000,31
2.52,2.03,0.00,0.04,0.00,120936109,120826000,0,31
3.45,2.81,0.00,0.05,0.00,160408579,160422000,0,31
5.75,4.67,0.00,0.09,0.00,269512373,268334000,1001000,31
3.44,2.80,0.00,0.05,0.00,159187185,156199000,2984000,31
1.52,1.18,0.00,0.03,0.00,84088450,82111000,2002000,31
3.35,2.71,0.00,0.05,0.00,158219039,156307000,1991000,31
1.81,1.45,0.00,0.03,0.00,90587192,89604000,1006000,31
0.40,0.31,0.00,0.01,0.00,22622920,21633000,983000,31
0.37,0.28,0.00,0.01,0.00,22408037,21409000,1019000,31
3.55,2.87,0.00,0.06,0.00,167602450,165531000,1994000,31
3.25,2.63,0.00,0.05,0.00,153929562,150931000,2998000,31
1.90,1.51,0.00,0.03,0.00,98750001,95733000,2991000,31
3.67,2.97,0.00,0.06,0.00,173740461,172582000,1003000,31
3.34,2.71,0.00,0.05,0.00,156003891,154054000,1987000,31
3.63,2.95,0.00,0.06,0.00,169368425,167391000,1992000,31
3.44,2.80,0.00,0.05,0.00,159937027,157950000,1986000,31
3.52,2.87,0.00,0.05,0.00,160431506,159426000,996000,31
3.73,3.06,0.00,0.06,0.00,167917409,166925000,999000,31
3.29,2.67,0.00,0.05,0.00,155502892,153505000,2006000,31
7.41,5.96,0.00,0.12,0.00,360511785,358555000,1997000,31
6.87,5.60,0.00,0.11,0.00,312736168,309762000,2988000,31
3.72,3.01,0.00,0.06,0.00,175607493,174616000,997000,31
3.38,2.74,0.00,0.05,0.00,158791509,157714000,998000,31
3.39,2.74,0.00,0.06,0.00,162597089,162621000,0,31
3.70,2.99,0.00,0.06,0.00,177710272,176719000,998000,31
3.69,2.98,0.00,0.06,0.00,174940905,173840000,999000,31
3.34,2.70,0.00,0.05,0.00,160526966,158429000,1992000,31
3.54,2.88,0.00,0.06,0.00,164084611,163051000,1000000,31
3.47,2.82,0.00,0.06,0.00,162157500,161185000,1001000,31
2.01,1.59,0.00,0.03,0.00,102127661,100152000,2003000,31
3.60,2.92,0.00,0.06,0.00,167838502,166896000,999000,31
1.95,1.54,0.00,0.03,0.00,99332403,97296000,2006000,31
11.98,9.68,0.00,0.19,0.00,569350545,568220000,1000000,31
1.42,1.12,0.00,0.03,0.00,75298591,74311000,1004000,31
3.42,2.76,0.00,0.06,0.00,162817631,160671000,1983000,31
3.59,2.91,0.00,0.06,0.00,168420085,166421000,1993000,31
3.32,2.69,0.00,0.05,0.00,154822718,152856000,2011000,31
0.74,0.58,0.00,0.01,0.00,39121441,38073000,1029000,31
8.35,6.77,0.00,0.13,0.00,391146852,390155000,1000000,31
3.44,2.80,0.00,0.05,0.00,158949654,157958000,999000,31
3.12,2.50,0.00,0.05,0.00,154608740,151594000,3011000,31
3.68,2.98,0.00,0.06,0.00,172115505,172125000,0,31
3.41,2.77,0.00,0.05,0.00,160388359,158388000,2004000,31
3.24,2.59,0.00,0.05,0.00,158437194,157461000,1002000,31
3.73,3.03,0.00,0.06,0.00,173686177,172566000,997000,31
3.54,2.89,0.00,0.05,0.00,160938790,159976000,999000,31
3.41,2.76,0.00,0.05,0.00,159749172,158555000,1003000,31
3.59,2.93,0.00,0.06,0.00,165751598,164755000,1004000,31
0.71,0.56,0.00,0.01,0.00,34138038,21035000,13021000,31
0.33,0.25,0.00,0.01,0.00,18944842,15964000,2993000,31
3.69,3.00,0.00,0.06,0.00,170604200,169610000,997000,31
3.63,2.95,0.00,0.06,0.00,168470797,166385000,1992000,31
3.59,2.91,0.00,0.06,0.00,169066385,168072000,1000000,31
3.72,3.02,0.00,0.06,0.00,172067029,171073000,1000000,31
0.35,0.27,0.00,0.01,0.00,20055728,18077000,2008000,31
