@relation problema
@attribute 'pkg' real
@attribute 'cores' real
@attribute 'ram' real
@attribute 'gpu' real
@attribute 'psys' real
@attribute 'duration_time' real
@attribute 'user_time' real
@attribute 'system_time' real
@attribute 'class' {0,1,2,3,4,5,6,7,8,9,10,11,12,13,14,15,16,17,18,19,20,21,22,23,24,25,26,27,28,29,30,31}
@data
1.57,1.52,0.07,0.00,4.08,131974071,103633000,27901000,0
1.57,1.52,0.07,0.00,3.92,130808394,105782000,24948000,0
1.59,1.55,0.07,0.00,3.85,130998534,96983000,33994000,0
1.58,1.53,0.07,0.00,3.98,131469779,97268000,34094000,0
1.59,1.54,0.07,0.00,3.98,132826794,95804000,36924000,0
1.59,1.54,0.07,0.00,3.98,131906813,100922000,30976000,0
1.56,1.51,0.07,0.00,3.93,132472673,94611000,37844000,0
0.34,0.32,0.01,0.00,0.79,25790993,22789000,2972000,0
1.11,1.08,0.05,0.00,2.80,90945404,54956000,35971000,0
1.63,1.59,0.07,0.00,3.87,132853025,105852000,26962000,0
1.53,1.48,0.07,0.00,3.95,133451481,95264000,38105000,0
1.53,1.49,0.07,0.00,3.93,130554429,99664000,30896000,0
0.15,0.15,0.01,0.00,0.40,14575782,12493000,2082000,0
0.31,0.30,0.01,0.00,0.77,25099060,24984000,0,0
0.33,0.32,0.01,0.00,0.79,25665511,24669000,986000,0
0.30,0.30,0.01,0.00,0.72,24836687,24838000,0,0
1.58,1.54,0.07,0.00,3.76,131253858,105194000,25802000,0
0.34,0.33,0.02,0.00,0.84,29153234,28140000,1005000,0
1.49,1.44,0.07,0.00,3.71,132563137,102660000,29901000,0
0.92,0.89,0.05,0.00,2.51,86459148,57304000,29155000,0
1.58,1.53,0.07,0.00,3.79,131985982,102976000,28993000,0
1.52,1.48,0.07,0.00,3.91,131457678,103553000,27879000,0
1.53,1.49,0.07,0.00,3.93,131213043,93431000,37770000,0
1.53,1.49,0.07,0.00,3.94,131340562,103260000,28070000,0
1.57,1.52,0.07,0.00,4.03,133655248,100734000,32913000,0
0.34,0.33,0.01,0.00,0.85,26550371,25560000,983000,0
1.58,1.54,0.07,0.00,3.76,131578033,89324000,42153000,0
1.15,1.12,0.05,0.00,2.87,102178228,69021000,33010000,0
1.52,1.47,0.07,0.00,3.96,130328409,99385000,30809000,0
1.56,1.52,0.07,0.00,3.78,131149296,99049000,32015000,0
1.59,1.54,0.07,0.00,3.79,130902395,105905000,24977000,0
0.32,0.32,0.01,0.00,0.78,26285682,23365000,2920000,0
1.53,1.49,0.06,0.00,3.72,128141642,98038000,30011000,0
1.51,1.47,0.07,0.00,3.88,130474867,108385000,22078000,0
0.31,0.29,0.01,0.00,0.79,26434582,26439000,0,0
1.56,1.52,0.07,0.00,3.84,131096117,100963000,29989000,0
1.48,1.44,0.07,0.00,3.84,128881540,90538000,38227000,0
0.32,0.31,0.01,0.00,0.81,25707313,23691000,1974000,0
1.53,1.48,0.07,0.00,3.95,131133355,107108000,24024000,0
0.99,0.96,0.05,0.00,2.58,90100502,59057000,31030000,0
0.30,0.29,0.01,0.00,0.72,24721498,22757000,1978000,0
0.33,0.32,0.01,0.00,0.81,26891359,26852000,0,0
0.29,0.29,0.01,0.00,0.72,24515819,23539000,980000,0
1.53,1.49,0.07,0.00,3.97,131287327,96464000,34806000,0
1.52,1.47,0.07,0.00,3.93,131151903,106092000,25021000,0
1.56,1.51,0.07,0.00,3.96,131063467,102029000,29008000,0
1.54,1.50,0.07,0.00,3.94,131506607,97376000,34132000,0
1.57,1.52,0.07,0.00,4.01,131798266,102767000,28934000,0
1.54,1.50,0.07,0.00,3.88,129415462,97305000,32100000,0
1.56,1.51,0.07,0.00,3.97,131149980,103271000,27803000,0
0.32,0.30,0.01,0.00,0.75,25019256,25032000,0,0
1.48,1.44,0.07,0.00,3.84,129381556,97520000,31843000,0
1.56,1.52,0.07,0.00,4.03,131902760,91776000,39902000,0
0.92,0.89,0.04,0.00,2.26,70905548,66990000,3940000,0
0.32,0.32,0.01,0.00,0.80,25680014,24686000,987000,0
0.32,0.32,0.01,0.00,0.76,25647956,24663000,986000,0
1.55,1.50,0.07,0.00,4.01,131264724,100067000,31021000,0
1.53,1.49,0.07,0.00,3.97,132653456,109695000,22936000,0
1.50,1.46,0.07,0.00,3.88,128829397,96843000,31948000,0
0.34,0.33,0.01,0.00,0.84,27371254,26337000,1012000,0
1.55,1.51,0.07,0.00,3.96,131223559,99160000,32052000,0
0.33,0.32,0.01,0.00,0.80,25992672,24996000,999000,0
0.32,0.31,0.01,0.00,0.76,25601997,25601000,0,0
1.54,1.50,0.07,0.00,3.93,131804955,109836000,21967000,0
0.99,0.96,0.05,0.00,2.66,90550387,65664000,24872000,0
1.58,1.53,0.07,0.00,4.05,133619566,105486000,28129000,0
1.49,1.44,0.07,0.00,3.92,134961369,99967000,34988000,0
1.54,1.51,0.07,0.00,4.07,131746635,98741000,32913000,0
1.56,1.51,0.07,0.00,4.02,131851254,98865000,32955000,0
0.99,0.97,0.04,0.00,2.48,87197033,54113000,33069000,0
1.53,1.49,0.07,0.00,3.93,130435789,96571000,33849000,0
1.01,0.99,0.05,0.00,2.53,89331505,60450000,28738000,0
1.50,1.46,0.07,0.00,3.92,135644844,94747000,40891000,0
1.53,1.48,0.07,0.00,3.99,131567719,101658000,29899000,0
0.95,0.92,0.05,0.00,2.58,89919213,58946000,30971000,0
0.30,0.30,0.01,0.00,0.73,24430456,21498000,2931000,0
1.53,1.49,0.07,0.00,3.93,131168305,109139000,22028000,0
0.31,0.30,0.01,0.00,0.77,26119121,23099000,3012000,0
1.53,1.49,0.07,0.00,3.96,130888880,98879000,31961000,0
1.41,1.36,0.08,0.00,4.01,147570972,110992000,36667000,0
2.69,2.59,0.13,0.00,6.89,259046770,257752000,999000,1
0.52,0.50,0.03,0.00,1.40,50848203,49848000,996000,1
0.33,0.32,0.02,0.00,0.84,30189820,29053000,1001000,1
0.61,0.59,0.03,0.00,1.66,63222128,63203000,0,1
3.32,3.21,0.16,0.00,8.36,308414123,307402000,1001000,1
0.25,0.24,0.02,0.00,0.80,32834838,32812000,0,1
2.15,2.07,0.11,0.00,5.45,205568994,204447000,997000,1
0.65,0.63,0.03,0.00,1.78,68501215,68430000,0,1
1.90,1.82,0.10,0.00,4.92,185646360,184521000,997000,1
1.93,1.86,0.09,0.00,5.00,184241067,183154000,1000000,1
0.64,0.61,0.04,0.00,1.83,68378641,67375000,990000,1
3.29,3.16,0.17,0.00,8.68,333560781,332531000,998000,1
15.94,15.38,0.80,0.00,41.26,1564661773,1563260000,999000,1
0.41,0.39,0.02,0.00,1.07,37695058,36691000,991000,1
0.56,0.54,0.03,0.00,1.53,56893359,55886000,997000,1
0.65,0.62,0.03,0.00,1.74,62069157,59951000,1998000,1
0.25,0.23,0.01,0.00,0.67,23967897,22971000,998000,1
1.32,1.26,0.07,0.00,3.52,130266489,129112000,1000000,1
8.68,8.37,0.45,0.00,23.11,884027531,881880000,1999000,1
15.78,15.22,0.80,0.00,41.09,1562015656,1561691000,0,1
0.25,0.25,0.01,0.00,0.69,25608841,25605000,0,1
1.10,1.06,0.06,0.00,2.97,112423020,111408000,1003000,1
1.27,1.22,0.06,0.00,3.29,121566231,119479000,1991000,1
0.36,0.35,0.02,0.00,0.96,34073963,33056000,1001000,1
0.29,0.28,0.01,0.00,0.73,26305745,26192000,0,1
0.59,0.57,0.03,0.00,1.54,55095483,54117000,983000,1
8.01,7.74,0.40,0.00,20.62,781988288,780817000,999000,1
0.74,0.71,0.04,0.00,1.92,69683049,69565000,0,1
3.35,3.23,0.16,0.00,9.07,314730067,308626000,5992000,1
16.02,15.46,0.80,0.00,41.00,1560091833,1558896000,999000,1
0.58,0.56,0.03,0.00,1.50,53496828,52390000,1007000,1
0.63,0.61,0.03,0.00,1.71,63065258,60900000,1996000,1
3.31,3.19,0.17,0.00,8.78,338436992,337331000,1000000,1
0.43,0.41,0.03,0.00,1.40,57543124,56561000,992000,1
0.33,0.32,0.02,0.00,0.88,31378311,30348000,1011000,1
0.85,0.82,0.04,0.00,2.25,80911562,79880000,998000,1
8.14,7.85,0.41,0.00,21.22,807184584,805974000,999000,1
0.41,0.40,0.02,0.00,1.10,38429479,36378000,1966000,1
0.76,0.73,0.04,0.00,2.03,73145011,71126000,2003000,1
0.31,0.30,0.02,0.00,0.82,28413704,27424000,979000,1
4.36,4.22,0.20,0.00,10.65,384508540,383375000,998000,1
0.36,0.34,0.02,0.00,0.95,33993129,32989000,999000,1
1.90,1.83,0.10,0.00,5.08,194319095,193299000,1001000,1
0.23,0.22,0.01,0.00,0.60,20564377,18610000,1959000,1
0.42,0.41,0.02,0.00,1.15,40728893,38738000,1986000,1
8.53,8.21,0.45,0.00,22.82,879810670,879578000,0,1
0.54,0.53,0.03,0.00,1.46,53551434,53469000,0,1
0.34,0.32,0.02,0.00,0.91,31108735,29102000,2007000,1
0.20,0.19,0.01,0.00,0.55,19829043,18835000,991000,1
0.86,0.83,0.04,0.00,2.20,77683566,76680000,995000,1
0.71,0.68,0.04,0.00,1.89,68935599,67790000,996000,1
0.31,0.29,0.02,0.00,0.82,28684025,26596000,1970000,1
0.59,0.57,0.03,0.00,1.62,59379132,58261000,1004000,1
0.27,0.26,0.01,0.00,0.73,25831211,24834000,993000,1
2.07,1.99,0.11,0.00,5.89,217391464,212333000,4984000,1
0.16,0.15,0.01,0.00,0.45,15694665,13610000,1944000,1
0.65,0.63,0.03,0.00,1.80,66967970,66952000,0,1
1.54,1.48,0.08,0.00,4.22,159554143,157550000,1994000,1
5.49,5.31,0.24,0.00,13.29,464318495,463221000,1000000,1
0.50,0.47,0.02,0.00,1.33,46687045,46667000,0,1
0.50,0.48,0.03,0.00,1.50,59281747,58270000,1004000,1
0.81,0.79,0.04,0.00,2.16,78931246,77824000,997000,1
7.71,7.48,0.33,0.00,18.54,656256142,655255000,1000000,1
0.42,0.40,0.02,0.00,1.09,37768482,36684000,991000,1
6.12,5.89,0.33,0.00,16.52,635179577,634042000,1000000,1
0.65,0.63,0.03,0.00,1.69,60082985,59072000,1001000,1
1.17,1.13,0.06,0.00,3.10,115594063,114579000,996000,1
0.86,0.83,0.04,0.00,2.27,83943830,82795000,997000,1
3.90,3.76,0.21,0.00,10.55,412058460,411050000,1000000,1
0.54,0.52,0.03,0.00,1.44,52187166,50965000,999000,1
0.35,0.33,0.02,0.00,0.91,31092462,30053000,1001000,1
0.54,0.52,0.03,0.00,1.43,50811776,50802000,0,1
0.73,0.70,0.04,0.00,2.01,71894882,70861000,998000,1
0.14,0.14,0.01,0.00,0.37,13292623,12267000,1022000,1
0.91,0.87,0.05,0.00,2.33,79605272,73615000,5968000,1
1.97,1.90,0.10,0.00,5.23,200157496,199156000,1000000,1
0.53,0.51,0.03,0.00,1.42,52035325,51027000,1000000,1
20.84,20.12,1.03,0.00,53.50,2024906016,2022655000,1999000,1
1.96,1.89,0.10,0.00,5.06,189802983,188701000,998000,1
0.47,0.46,0.02,0.00,1.26,45112761,43150000,1961000,1
1.37,1.32,0.06,0.00,3.29,108086191,102724000,4938000,2
2.04,1.98,0.08,0.00,4.81,162630298,160617000,1995000,2
4.33,4.21,0.20,0.00,10.33,362336135,356280000,6004000,2
1.34,1.30,0.06,0.00,3.20,108067788,106049000,2000000,2
1.01,0.99,0.04,0.00,2.46,82249737,82249000,0,2
1.89,1.84,0.08,0.00,4.63,158967267,157966000,1006000,2
2.05,1.99,0.09,0.00,4.92,164895622,162745000,1996000,2
2.04,1.98,0.08,0.00,4.85,164127362,161106000,3001000,2
1.49,1.45,0.07,0.00,3.70,130078865,129054000,1000000,2
1.31,1.27,0.06,0.00,3.22,109154319,107133000,2002000,2
2.32,2.25,0.11,0.00,5.85,207638189,199643000,7985000,2
2.10,2.03,0.09,0.00,4.99,170593475,168493000,1994000,2
1.36,1.32,0.06,0.00,3.29,108698349,104609000,3985000,2
1.32,1.28,0.06,0.00,3.17,106242458,106201000,0,2
1.54,1.50,0.07,0.00,3.71,128269203,127303000,994000,2
1.49,1.44,0.07,0.00,3.72,129249300,126229000,3005000,2
2.74,2.66,0.12,0.00,6.77,237704506,236703000,1002000,2
1.95,1.89,0.08,0.00,4.73,161951892,159943000,1999000,2
0.93,0.91,0.04,0.00,2.26,76366452,74343000,2009000,2
0.92,0.89,0.04,0.00,2.23,74989653,71977000,2999000,2
2.72,2.63,0.12,0.00,6.49,221780165,217758000,3995000,2
1.34,1.30,0.06,0.00,3.21,106857222,103847000,2995000,2
1.89,1.84,0.08,0.00,4.66,163338496,162315000,1001000,2
1.33,1.29,0.06,0.00,3.18,106166931,104161000,2003000,2
1.69,1.64,0.07,0.00,4.07,141255744,139109000,2001000,2
1.38,1.34,0.06,0.00,3.30,107725110,106720000,997000,2
1.33,1.29,0.05,0.00,3.18,105825831,103817000,1996000,2
2.10,2.04,0.09,0.00,5.08,175837664,174822000,998000,2
1.98,1.93,0.08,0.00,4.71,158932543,157910000,999000,2
8.82,8.56,0.38,0.00,22.32,749385910,748363000,1000000,2
2.00,1.95,0.09,0.00,4.88,164692240,158700000,5988000,2
3.80,3.68,0.18,0.00,9.45,325895770,318874000,6997000,2
1.31,1.27,0.06,0.00,3.17,105570615,104547000,1005000,2
0.93,0.90,0.04,0.00,2.30,76959238,74940000,1998000,2
0.93,0.90,0.04,0.00,2.27,75109355,74098000,1001000,2
0.90,0.88,0.04,0.00,2.22,75509042,72471000,3019000,2
1.57,1.52,0.07,0.00,3.79,128922654,127804000,998000,2
1.30,1.27,0.06,0.00,3.17,106199386,104178000,2003000,2
2.97,2.88,0.13,0.00,7.27,250249618,247258000,2991000,2
1.31,1.28,0.05,0.00,3.21,106159535,104101000,2001000,2
0.91,0.88,0.04,0.00,2.23,75746165,73736000,1992000,2
1.32,1.28,0.05,0.00,3.22,106218861,103232000,2977000,2
1.58,1.53,0.07,0.00,3.87,130453829,125363000,4974000,2
1.55,1.51,0.07,0.00,3.78,129420177,127410000,2006000,2
2.00,1.94,0.09,0.00,4.84,163251226,161051000,2000000,2
1.58,1.53,0.07,0.00,3.79,128723542,125731000,2993000,2
0.92,0.90,0.04,0.00,2.26,75474266,75439000,0,2
2.17,2.10,0.10,0.00,5.32,185692529,183676000,1996000,2
3.97,3.85,0.19,0.00,9.96,335249056,332219000,3001000,2
1.97,1.91,0.08,0.00,4.73,159150000,158137000,1000000,2
0.91,0.89,0.04,0.00,2.26,75325278,72346000,2973000,2
1.35,1.32,0.06,0.00,3.28,107287446,105276000,2005000,2
2.00,1.95,0.08,0.00,4.79,162349159,160334000,2004000,2
1.34,1.31,0.06,0.00,3.18,108285318,105222000,3006000,2
0.90,0.88,0.04,0.00,2.20,75497720,73544000,1987000,2
0.91,0.88,0.04,0.00,2.23,74939882,71853000,2993000,2
3.67,3.55,0.18,0.00,8.99,315720302,309571000,5991000,2
1.95,1.89,0.08,0.00,4.72,158810411,156791000,1997000,2
1.25,1.21,0.06,0.00,3.19,111543258,108569000,2988000,2
1.96,1.90,0.08,0.00,4.68,158130307,157125000,1000000,2
2.36,2.29,0.10,0.00,5.74,197832639,193693000,3993000,2
0.92,0.89,0.04,0.00,2.26,74707890,72517000,1986000,2
1.94,1.90,0.08,0.00,4.68,157867088,155846000,1998000,2
1.34,1.30,0.06,0.00,3.24,106656480,105643000,996000,2
0.98,0.95,0.05,0.00,2.46,84812640,82824000,1995000,2
0.93,0.90,0.04,0.00,2.30,75533476,72538000,2981000,2
1.55,1.51,0.07,0.00,3.77,128306901,126084000,2001000,2
2.03,1.98,0.09,0.00,4.87,164328042,158292000,6011000,2
1.45,1.40,0.07,0.00,3.66,130704308,128625000,1994000,2
1.35,1.31,0.05,0.00,3.26,105789697,103635000,1992000,2
3.73,3.62,0.18,0.00,9.28,321436528,313383000,8009000,2
4.39,4.26,0.20,0.00,10.85,370548525,366488000,4005000,2
1.33,1.28,0.06,0.00,3.25,106516235,104405000,1988000,2
2.00,1.94,0.08,0.00,4.77,160569200,159542000,997000,2
1.71,1.65,0.08,0.00,4.12,141389826,134387000,6968000,2
1.57,1.52,0.06,0.00,3.72,127116872,125020000,2000000,2
1.37,1.32,0.06,0.00,3.26,107183414,106188000,1001000,2
0.90,0.88,0.04,0.00,2.20,75530349,73532000,1987000,2
4.29,4.16,0.19,0.00,10.41,366487896,362486000,3994000,2
3.59,3.48,0.15,0.00,8.59,300168870,298154000,2001000,2
2.92,2.83,0.15,0.00,7.63,248052355,240690000,6991000,3
3.20,3.11,0.15,0.00,7.95,265379895,264347000,1001000,3
3.31,3.22,0.16,0.00,8.24,278031185,274005000,4000000,3
2.94,2.85,0.15,0.00,7.18,236574672,225576000,10979000,3
4.36,4.23,0.22,0.00,11.44,387601647,331126000,56021000,3
3.55,3.44,0.17,0.00,9.05,297996946,290868000,6996000,3
4.72,4.56,0.23,0.00,12.36,412509243,355408000,57065000,3
4.76,4.61,0.23,0.00,12.59,421335735,365276000,55889000,3
3.56,3.46,0.17,0.00,9.03,297269750,292235000,5004000,3
2.78,2.70,0.14,0.00,7.15,238502828,234312000,4005000,3
2.69,2.60,0.14,0.00,6.82,233979413,230950000,2999000,3
4.81,4.66,0.23,0.00,12.58,421166379,361963000,58994000,3
3.08,2.98,0.17,0.00,8.10,284074065,274017000,10000000,3
4.04,3.91,0.21,0.00,10.79,367502551,313404000,54069000,3
4.85,4.70,0.24,0.00,12.71,424342615,364152000,60025000,3
4.04,3.91,0.21,0.00,10.74,365030502,319951000,44993000,3
4.13,3.99,0.21,0.00,11.05,375926856,305839000,69963000,3
4.11,3.98,0.21,0.00,10.90,370963655,305878000,64974000,3
2.59,2.51,0.14,0.00,6.84,231601413,221591000,9981000,3
2.72,2.64,0.14,0.00,7.16,237865481,229843000,7994000,3
2.77,2.68,0.14,0.00,7.16,239989077,230883000,8995000,3
2.71,2.62,0.14,0.00,7.13,239942221,235893000,4015000,3
3.94,3.80,0.20,0.00,10.60,362467225,309332000,53056000,3
3.42,3.32,0.17,0.00,8.82,290698177,285670000,4994000,3
4.76,4.61,0.23,0.00,12.55,422776837,363649000,59105000,3
6.47,6.26,0.35,0.00,17.13,573881169,507635000,66082000,3
2.66,2.57,0.14,0.00,7.02,233189664,230157000,3002000,3
2.87,2.78,0.14,0.00,7.34,240537544,233390000,7011000,3
4.82,4.68,0.24,0.00,12.79,426369440,362334000,63882000,3
4.79,4.63,0.23,0.00,12.56,420038568,344942000,74987000,3
2.77,2.69,0.14,0.00,7.02,238781577,233678000,4993000,3
2.84,2.76,0.14,0.00,7.38,243860974,238829000,4996000,3
3.96,3.84,0.19,0.00,10.04,329485026,318436000,11015000,3
5.16,5.00,0.25,0.00,13.47,450294091,393285000,56896000,3
2.79,2.70,0.14,0.00,7.26,240225170,232094000,8003000,3
4.86,4.72,0.24,0.00,12.86,431766499,358527000,73107000,3
4.00,3.86,0.20,0.00,10.74,359355668,298213000,61043000,3
4.54,4.40,0.22,0.00,11.79,390147446,384055000,6000000,3
2.74,2.66,0.14,0.00,7.20,238082146,234932000,2999000,3
6.58,6.37,0.31,0.00,17.35,575152004,501008000,74001000,3
5.17,5.01,0.25,0.00,13.61,452283345,400167000,52021000,3
4.09,3.96,0.21,0.00,10.78,362216344,356174000,6002000,3
4.62,4.47,0.23,0.00,12.32,410379649,336276000,74060000,3
2.72,2.62,0.14,0.00,7.19,238166475,235142000,3001000,3
2.69,2.60,0.14,0.00,7.10,241599231,236561000,5011000,3
4.74,4.59,0.23,0.00,12.58,420813051,361815000,58969000,3
3.14,3.04,0.16,0.00,8.13,267506547,263473000,3992000,3
8.64,8.36,0.46,0.00,22.78,762372414,690309000,72032000,3
4.74,4.59,0.23,0.00,12.51,418199011,365142000,53020000,3
4.00,3.87,0.21,0.00,10.83,366209086,299139000,67031000,3
2.75,2.66,0.14,0.00,7.11,238965111,232913000,6023000,3
6.35,6.16,0.31,0.00,16.50,537315792,529290000,8004000,3
2.66,2.57,0.14,0.00,6.88,234374711,230238000,4004000,3
3.69,3.56,0.20,0.00,9.89,333863169,264864000,68964000,3
4.81,4.65,0.24,0.00,12.69,423994162,350146000,73819000,3
3.96,3.83,0.20,0.00,10.67,362238140,299175000,63036000,3
2.60,2.52,0.14,0.00,7.02,236484504,232441000,4007000,3
2.68,2.60,0.14,0.00,7.05,234801596,227751000,6961000,3
2.64,2.55,0.14,0.00,7.00,242370482,240219000,2001000,3
3.89,3.76,0.21,0.00,10.64,365380215,324323000,41040000,3
4.80,4.65,0.23,0.00,12.64,422030849,355955000,65991000,3
2.80,2.72,0.14,0.00,7.24,238166302,232127000,6003000,3
5.62,5.45,0.27,0.00,14.52,480367650,476097000,4000000,3
2.80,2.72,0.14,0.00,7.24,239582678,235403000,4006000,3
4.03,3.90,0.20,0.00,10.76,363414977,288100000,75026000,3
4.89,4.74,0.23,0.00,12.70,424350574,375402000,48922000,3
2.73,2.65,0.14,0.00,7.17,238215508,232212000,5979000,3
4.83,4.68,0.23,0.00,12.67,420832996,373832000,46978000,3
2.72,2.64,0.14,0.00,7.03,239933510,229910000,9996000,3
2.79,2.71,0.14,0.00,7.20,238359529,232345000,5983000,3
4.00,3.87,0.20,0.00,10.66,362262088,302173000,60034000,3
3.37,3.27,0.17,0.00,9.02,305525335,240388000,65105000,3
3.61,3.49,0.17,0.00,9.28,303541570,299440000,4005000,3
4.79,4.63,0.24,0.00,12.79,439279065,393236000,46027000,3
5.23,5.06,0.25,0.00,13.74,454833265,407787000,46975000,3
2.73,2.65,0.14,0.00,7.03,238184508,233134000,5002000,3
3.95,3.82,0.20,0.00,10.84,363953341,284941000,78983000,3
2.56,2.47,0.14,0.00,7.01,237459512,234440000,3005000,3
4.79,4.63,0.23,0.00,12.71,420623151,359650000,60940000,3
2.78,2.69,0.14,0.00,7.27,238357950,233320000,5006000,3
3.09,2.98,0.20,0.00,8.25,276278492,148731000,9982000,4
3.76,3.64,0.22,0.00,9.33,330036815,326929000,2999000,4
3.48,3.38,0.20,0.00,8.68,287021364,191600000,10977000,4
3.78,3.66,0.22,0.00,9.35,299463581,196449000,14032000,4
2.70,2.61,0.17,0.00,6.81,231165245,133702000,12971000,4
2.81,2.73,0.17,0.00,7.17,249212696,241169000,8005000,4
2.59,2.51,0.17,0.00,6.68,226219722,131382000,10029000,4
3.40,3.29,0.21,0.00,8.84,288731180,194530000,9252000,4
2.46,2.38,0.18,0.00,6.39,217758239,210738000,6991000,4
3.39,3.28,0.20,0.00,8.74,286196590,193484000,7978000,4
3.47,3.37,0.20,0.00,8.82,290593688,197912000,7996000,4
3.45,3.34,0.21,0.00,8.96,293192859,196704000,11039000,4
2.55,2.47,0.17,0.00,6.76,225734086,130233000,10017000,4
3.35,3.25,0.20,0.00,8.70,283698474,187717000,11042000,4
2.64,2.55,0.18,0.00,6.90,230134845,134304000,11025000,4
2.66,2.57,0.18,0.00,7.10,239673329,148011000,6000000,4
2.56,2.47,0.17,0.00,6.81,228082818,131792000,10982000,4
2.57,2.49,0.17,0.00,6.79,225705361,129096000,11224000,4
2.69,2.60,0.18,0.00,7.20,240213950,143828000,10986000,4
3.40,3.30,0.20,0.00,8.83,288917842,191243000,12015000,4
2.69,2.60,0.17,0.00,7.11,235380382,144547000,6022000,4
4.69,4.55,0.28,0.00,12.04,400370511,306622000,8016000,4
2.61,2.52,0.17,0.00,6.85,228832510,131678000,12261000,4
3.94,3.83,0.23,0.00,10.16,341916676,250185000,6977000,4
3.31,3.21,0.21,0.00,8.74,296890672,198968000,12997000,4
2.84,2.74,0.18,0.00,7.38,245962812,151861000,9237000,4
2.27,2.19,0.16,0.00,6.11,212555575,204474000,7979000,4
3.56,3.45,0.21,0.00,9.13,301806598,200893000,15946000,4
2.67,2.58,0.17,0.00,7.05,235077348,139852000,10061000,4
2.69,2.60,0.17,0.00,7.09,233885502,141744000,5989000,4
2.69,2.60,0.18,0.00,7.08,241582430,147905000,9055000,4
2.77,2.68,0.18,0.00,7.21,240717203,146609000,8378000,4
3.16,3.07,0.20,0.00,8.43,281281015,274250000,7006000,4
3.30,3.20,0.20,0.00,8.49,287977465,279854000,7995000,4
6.51,6.30,0.42,0.00,17.24,580374839,483550000,12013000,4
2.75,2.65,0.18,0.00,7.11,237188371,144264000,8014000,4
2.69,2.61,0.17,0.00,7.09,234319495,142897000,5995000,4
3.41,3.31,0.20,0.00,8.81,287897502,194048000,9002000,4
2.60,2.51,0.17,0.00,6.87,228435836,134992000,7999000,4
3.09,2.99,0.20,0.00,8.17,274373687,180655000,9032000,4
3.09,2.98,0.19,0.00,8.15,271524648,262513000,8983000,4
2.73,2.64,0.17,0.00,7.11,237022732,144587000,6980000,4
2.67,2.58,0.17,0.00,7.03,242064524,237941000,3999000,4
2.54,2.47,0.16,0.00,6.58,218395050,122617000,10050000,4
3.36,3.25,0.20,0.00,8.76,285543391,193118000,7203000,4
3.60,3.49,0.20,0.00,9.14,309753368,304722000,4995000,4
2.63,2.54,0.17,0.00,6.90,227823881,133544000,8404000,4
2.61,2.54,0.17,0.00,6.89,226509798,132666000,9045000,4
2.53,2.45,0.18,0.00,6.63,229520085,135108000,9007000,4
2.69,2.60,0.17,0.00,7.06,233006593,140079000,8004000,4
2.63,2.55,0.17,0.00,6.93,229300397,136384000,7019000,4
2.45,2.38,0.15,0.00,6.45,211839341,120917000,5934000,4
2.54,2.46,0.17,0.00,6.77,227251590,135259000,7013000,4
2.58,2.51,0.17,0.00,6.83,225730002,132562000,8207000,4
3.29,3.19,0.19,0.00,8.47,276388123,184019000,7000000,4
3.42,3.31,0.20,0.00,8.82,286146903,193034000,8001000,4
2.55,2.47,0.17,0.00,6.76,222397110,129066000,8004000,4
2.62,2.54,0.18,0.00,6.97,231230763,140668000,5023000,4
2.75,2.66,0.18,0.00,7.24,238013863,142483000,10341000,4
3.36,3.25,0.20,0.00,8.78,282359466,192503000,5013000,4
7.73,7.49,0.48,0.00,20.32,675534296,574471000,16013000,4
2.41,2.33,0.15,0.00,6.20,206308593,109220000,12020000,4
5.09,4.93,0.28,0.00,13.10,436506931,339226000,12427000,4
2.52,2.44,0.18,0.00,6.75,231485811,220472000,10973000,4
2.75,2.66,0.18,0.00,7.26,236004813,142337000,7016000,4
2.39,2.31,0.15,0.00,6.32,206290182,113169000,7927000,4
2.59,2.51,0.17,0.00,6.86,227431330,130929000,10994000,4
2.71,2.62,0.17,0.00,7.15,235023645,143376000,6015000,4
2.54,2.46,0.17,0.00,6.74,222267439,128415000,8959000,4
3.72,3.60,0.22,0.00,9.60,312508326,211841000,15309000,4
2.49,2.40,0.16,0.00,6.55,215812323,118020000,12002000,4
2.63,2.53,0.17,0.00,6.85,227351924,131630000,10230000,4
2.23,2.16,0.16,0.00,5.89,203281134,201204000,2002000,4
3.42,3.31,0.20,0.00,8.84,287506482,192543000,9193000,4
3.56,3.46,0.21,0.00,9.19,299927710,207573000,7019000,4
3.60,3.48,0.20,0.00,9.09,306768097,302738000,3996000,4
2.61,2.53,0.17,0.00,6.81,224429580,131969000,6998000,4
2.94,2.85,0.18,0.00,7.68,261753130,253608000,7987000,4
3.70,3.59,0.21,0.00,9.42,307904267,215019000,8000000,4
2.68,2.60,0.16,0.00,7.05,233228089,140835000,7041000,4
2.94,2.83,0.20,0.00,7.88,263095007,130676000,11057000,5
3.49,3.38,0.20,0.00,8.74,287817947,185496000,17045000,5
2.93,2.84,0.19,0.00,7.48,251468445,152837000,14077000,5
3.65,3.55,0.21,0.00,9.12,290511399,195142000,10007000,5
3.48,3.37,0.21,0.00,8.82,290723289,196524000,9255000,5
2.81,2.72,0.18,0.00,7.12,242446605,147624000,9974000,5
2.57,2.50,0.17,0.00,6.73,225667989,128473000,12044000,5
3.43,3.33,0.20,0.00,8.64,287997508,195145000,8005000,5
2.67,2.59,0.18,0.00,7.12,234411498,132973000,15996000,5
2.61,2.53,0.17,0.00,6.81,223968558,129328000,10025000,5
2.55,2.47,0.17,0.00,6.75,232008517,134115000,12914000,5
3.48,3.37,0.21,0.00,8.91,291960524,197617000,9527000,5
2.64,2.56,0.17,0.00,6.72,224659905,127684000,11970000,5
3.37,3.26,0.22,0.00,8.67,290642138,193602000,11785000,5
2.56,2.47,0.17,0.00,6.73,225312229,129821000,9986000,5
2.60,2.51,0.17,0.00,6.65,224250790,124638000,14956000,5
2.71,2.63,0.18,0.00,6.98,232692605,132004000,15427000,5
2.84,2.75,0.18,0.00,7.49,252908579,161039000,7001000,5
4.16,4.02,0.28,0.00,10.80,368295045,361278000,6986000,5
3.73,3.61,0.24,0.00,9.70,332898559,323841000,8995000,5
2.58,2.49,0.17,0.00,6.83,227711437,130835000,11984000,5
3.76,3.65,0.25,0.00,9.87,335453256,332318000,2993000,5
2.56,2.48,0.17,0.00,6.73,224533402,130243000,9196000,5
2.95,2.85,0.21,0.00,7.72,270714849,264680000,5992000,5
2.57,2.48,0.17,0.00,6.82,225199275,124213000,16027000,5
3.59,3.48,0.21,0.00,9.12,301995627,205482000,12087000,5
2.61,2.52,0.17,0.00,6.88,228178897,132316000,11026000,5
3.69,3.56,0.25,0.00,9.74,322251770,229747000,7022000,5
2.61,2.52,0.17,0.00,6.89,227368971,130274000,11023000,5
4.57,4.42,0.27,0.00,11.67,400385144,398354000,2001000,5
5.27,5.12,0.31,0.00,13.58,464916311,456878000,7997000,5
3.46,3.35,0.21,0.00,8.87,293179848,198816000,8991000,5
2.69,2.60,0.17,0.00,7.03,234089302,140492000,9031000,5
2.59,2.51,0.17,0.00,6.90,226246673,131675000,8977000,5
3.06,2.96,0.20,0.00,8.08,267976091,172206000,10883000,5
2.48,2.39,0.15,0.00,6.55,213835815,120123000,8210000,5
2.79,2.71,0.18,0.00,7.38,241359303,147920000,8995000,5
2.89,2.79,0.20,0.00,7.67,264655617,258610000,5990000,5
3.41,3.30,0.20,0.00,8.74,283917873,191590000,7415000,5
2.54,2.45,0.17,0.00,6.90,234780413,139905000,9246000,5
2.51,2.43,0.16,0.00,6.70,219915784,125492000,9035000,5
2.51,2.43,0.16,0.00,6.64,216743543,120433000,11480000,5
2.65,2.56,0.17,0.00,6.90,230589408,139445000,5976000,5
3.41,3.29,0.21,0.00,8.92,296908737,204160000,8006000,5
3.98,3.84,0.25,0.00,10.22,349486444,251034000,13053000,5
3.79,3.67,0.25,0.00,9.83,335941685,326891000,8969000,5
2.76,2.66,0.18,0.00,7.31,239566956,143104000,11085000,5
2.63,2.54,0.17,0.00,6.81,227898683,133729000,9049000,5
2.72,2.62,0.17,0.00,7.19,234336696,145611000,3989000,5
2.82,2.72,0.18,0.00,7.47,244844150,152413000,7019000,5
2.60,2.51,0.17,0.00,6.77,224744358,129481000,10174000,5
6.91,6.69,0.44,0.00,18.11,611191914,516295000,10005000,5
3.08,2.97,0.24,0.00,8.30,285996230,279862000,5997000,5
3.24,3.13,0.18,0.00,8.35,268606195,176103000,7859000,5
5.32,5.15,0.31,0.00,13.46,459051334,451755000,6996000,5
2.59,2.50,0.17,0.00,6.76,222806858,126479000,11041000,5
2.65,2.56,0.17,0.00,6.98,229469838,132975000,10997000,5
4.32,4.17,0.36,0.00,11.78,410014458,397985000,11999000,5
4.41,4.26,0.28,0.00,11.49,375333004,266947000,23632000,5
2.66,2.57,0.17,0.00,6.97,228679218,134285000,9019000,5
3.42,3.31,0.20,0.00,8.74,286509489,194815000,6993000,5
8.28,8.01,0.54,0.00,21.24,735534744,718417000,17009000,5
2.21,2.13,0.15,0.00,5.79,189770302,95342000,9032000,5
2.15,2.08,0.15,0.00,5.70,189340343,89280000,15047000,5
3.38,3.27,0.20,0.00,8.66,281381957,189772000,5992000,5
3.40,3.29,0.20,0.00,8.79,287667947,189083000,13005000,5
3.47,3.37,0.21,0.00,8.88,292523182,192892000,13992000,5
3.43,3.32,0.21,0.00,8.76,286917952,188675000,13354000,5
3.43,3.32,0.21,0.00,8.79,287351895,191493000,11028000,5
2.59,2.51,0.17,0.00,6.86,226416867,132610000,8973000,5
2.47,2.40,0.15,0.00,6.48,211330101,110789000,15107000,5
2.64,2.56,0.17,0.00,6.94,228121196,135142000,8008000,5
2.60,2.52,0.17,0.00,6.78,226983667,136242000,5008000,5
2.62,2.54,0.17,0.00,6.92,230080748,135358000,9023000,5
3.32,3.21,0.20,0.00,8.72,293028704,193245000,14017000,5
3.25,3.15,0.19,0.00,8.38,272179875,178430000,8019000,5
3.37,3.26,0.20,0.00,8.70,281992944,191185000,6005000,5
2.48,2.39,0.15,0.00,6.55,212436690,120257000,7015000,5
2.47,2.40,0.15,0.00,6.56,213578418,116946000,10995000,5
2.60,2.51,0.18,0.00,6.95,230223326,131546000,13054000,5
5.40,5.24,0.23,0.00,12.90,422136851,415762000,5996000,6
4.01,3.89,0.16,0.00,9.61,316931052,311914000,4998000,6
1.44,1.40,0.07,0.00,3.58,120851710,114824000,5990000,6
8.29,8.02,0.51,0.00,21.39,739303314,724123000,15002000,6
9.79,9.48,0.57,0.00,25.09,865420961,848372000,17007000,6
15.93,15.43,0.71,0.00,39.26,1374614978,1367120000,6995000,6
6.28,6.11,0.26,0.00,15.17,498124970,488026000,10000000,6
6.09,5.90,0.33,0.00,15.43,529066726,406279000,8984000,6
8.73,8.46,0.42,0.00,20.82,716027562,665089000,50930000,6
14.84,14.38,0.67,0.00,36.67,1295257689,1289102000,6000000,6
16.17,15.68,0.71,0.00,39.62,1386104536,1377983000,7999000,6
5.68,5.50,0.30,0.00,14.21,497287905,488232000,9004000,6
5.01,4.86,0.23,0.00,12.26,426003298,412703000,13022000,6
3.26,3.16,0.15,0.00,7.91,272193616,269164000,3001000,6
7.67,7.45,0.33,0.00,18.74,646770120,642658000,3997000,6
7.72,7.50,0.33,0.00,18.67,631427136,623375000,8004000,6
3.59,3.48,0.18,0.00,9.05,305084630,212402000,7887000,6
11.34,10.99,0.55,0.00,29.56,975380792,965227000,10002000,6
5.56,5.40,0.27,0.00,14.18,466617796,455515000,11012000,6
2.95,2.86,0.14,0.00,7.66,263759531,260665000,2996000,6
8.35,8.07,0.52,0.00,22.04,751519169,734505000,16988000,6
4.52,4.37,0.25,0.00,11.35,393637389,387660000,5994000,6
1.67,1.62,0.08,0.00,4.22,141814825,137791000,3993000,6
9.88,9.57,0.58,0.00,25.85,871631034,855591000,15992000,6
5.76,5.58,0.26,0.00,14.08,490098325,483018000,7000000,6
6.50,6.30,0.28,0.00,15.80,534206657,525224000,8986000,6
9.48,9.18,0.47,0.00,23.53,801746614,699165000,17028000,6
9.97,9.64,0.58,0.00,25.82,874462301,853425000,20985000,6
9.99,9.67,0.58,0.00,25.76,871794768,857734000,13995000,6
9.92,9.61,0.58,0.00,25.71,869273453,853105000,16001000,6
2.55,2.48,0.11,0.00,6.19,213596967,210477000,2992000,6
8.50,8.23,0.54,0.00,22.10,762737339,751675000,10995000,6
5.47,5.30,0.32,0.00,14.43,477635844,375672000,16139000,6
20.07,19.46,0.92,0.00,48.55,1691252083,1688160000,3000000,6
1.39,1.34,0.06,0.00,3.42,114315987,110274000,4009000,6
7.93,7.69,0.36,0.00,19.40,673348489,660200000,13003000,6
3.44,3.33,0.17,0.00,8.76,288916769,191417000,12911000,6
9.87,9.57,0.54,0.00,25.45,859742320,849671000,9996000,6
4.79,4.65,0.21,0.00,11.79,408193538,404122000,4001000,6
9.56,9.25,0.58,0.00,24.24,855946338,831864000,23996000,6
2.47,2.39,0.12,0.00,6.20,210038827,205020000,4976000,6
1.78,1.73,0.08,0.00,4.42,146324472,144305000,2004000,6
5.30,5.12,0.40,0.00,14.35,501559604,484537000,16983000,6
3.59,3.48,0.18,0.00,9.02,303995641,209611000,8905000,6
2.88,2.79,0.13,0.00,7.01,240503127,236352000,4005000,6
9.81,9.50,0.59,0.00,25.51,872797961,851720000,20993000,6
3.86,3.74,0.18,0.00,9.63,334660969,333530000,1001000,6
6.04,5.85,0.31,0.00,15.21,513706496,499579000,14016000,6
9.37,9.08,0.47,0.00,23.48,818059794,813927000,3994000,6
15.73,15.24,0.77,0.00,39.45,1347588286,1318556000,28990000,6
1.43,1.39,0.07,0.00,3.61,121800881,115782000,5988000,6
9.70,9.38,0.58,0.00,24.96,863314046,835247000,28008000,6
6.44,6.25,0.29,0.00,15.77,535225084,521217000,14005000,6
2.83,2.73,0.13,0.00,7.04,240673283,231660000,8986000,6
3.83,3.71,0.16,0.00,9.40,305205016,297179000,8004000,6
3.17,3.08,0.14,0.00,7.75,267769910,260693000,6991000,6
4.61,4.48,0.20,0.00,11.18,371424999,355385000,15972000,6
4.53,4.39,0.21,0.00,11.12,363984066,272563000,6034000,6
9.92,9.59,0.58,0.00,25.46,870065301,853989000,15999000,6
8.39,8.11,0.52,0.00,21.87,755633768,730586000,24985000,6
4.95,4.80,0.22,0.00,12.01,421570350,414554000,6992000,6
10.43,10.11,0.51,0.00,25.72,905680279,899467000,6003000,6
5.79,5.61,0.31,0.00,14.36,501715067,486662000,15020000,6
6.15,5.97,0.26,0.00,14.67,493571803,488542000,4995000,6
9.21,8.94,0.46,0.00,22.35,772146606,759147000,12985000,6
6.60,6.40,0.30,0.00,16.25,546981916,445511000,15902000,6
7.06,6.82,0.45,0.00,18.56,630070768,512873000,31844000,6
2.20,2.12,0.10,0.00,5.43,187627359,182512000,5014000,6
3.70,3.59,0.15,0.00,9.05,299589121,293594000,5991000,6
8.68,8.40,0.56,0.00,22.71,777914774,749836000,27993000,6
3.25,3.15,0.14,0.00,8.01,273166803,270036000,3000000,6
7.75,7.50,0.35,0.00,18.97,662155241,652055000,10000000,6
4.18,4.05,0.18,0.00,10.45,347684052,342569000,4993000,6
1.44,1.39,0.07,0.00,3.60,121303271,115207000,5959000,6
2.11,2.04,0.10,0.00,5.30,181448369,178405000,3006000,6
3.19,3.09,0.16,0.00,8.06,264735649,171272000,8012000,6
10.66,10.32,0.49,0.00,26.21,916766023,901745000,14995000,6
2.24,2.18,0.10,0.00,5.50,185203170,183188000,2002000,6
7.74,7.50,0.34,0.00,19.10,655673275,650582000,4996000,6
14.43,13.98,0.66,0.00,35.67,1262577396,1259532000,2998000,6
32.53,31.58,1.52,0.00,74.40,2525589998,2364153000,161010000,7
8.37,8.13,0.36,0.00,19.78,684763863,682707000,1999000,7
10.37,10.03,0.50,0.00,26.32,856325528,720483000,135090000,7
32.48,31.55,1.51,0.00,74.22,2500378984,2339018000,160932000,7
1.33,1.27,0.09,0.00,3.56,123131004,1824000,4561000,7
5.52,5.36,0.22,0.00,12.61,423134184,422120000,1000000,7
1.08,1.04,0.07,0.00,2.78,91721841,4049000,2567000,7
5.84,5.65,0.25,0.00,14.06,495322172,495289000,0,7
1.06,1.03,0.07,0.00,2.68,92139830,3614000,3298000,7
1.10,1.06,0.07,0.00,2.73,90914362,968000,5384000,7
10.71,10.42,0.43,0.00,26.04,833589210,830561000,2998000,7
34.01,33.00,1.44,0.00,81.04,2836640917,2834463000,1999000,7
1.08,1.05,0.07,0.00,2.79,91851448,1920000,4383000,7
25.22,24.49,1.28,0.00,58.84,1967971198,1799682000,167970000,7
5.18,5.03,0.22,0.00,12.24,420579360,418546000,1997000,7
31.14,30.22,1.50,0.00,73.53,2478105340,2303834000,173987000,7
1.08,1.04,0.07,0.00,2.86,90790092,973000,5394000,7
9.02,8.73,0.44,0.00,22.92,740956137,606917000,133981000,7
13.67,13.29,0.54,0.00,31.54,1067580205,1064485000,2998000,7
15.93,15.43,0.94,0.00,38.69,1315119207,1161880000,152984000,7
1.10,1.05,0.07,0.00,2.79,91475680,2159000,4318000,7
10.62,10.35,0.41,0.00,24.09,800416264,799354000,999000,7
12.95,12.60,0.49,0.00,29.17,968804718,966702000,1999000,7
19.56,18.99,1.06,0.00,45.94,1535178893,1376098000,159011000,7
1.07,1.03,0.07,0.00,2.78,91159947,974000,5373000,7
3.30,3.21,0.14,0.00,7.98,278536875,278374000,0,7
32.31,31.39,1.51,0.00,74.91,2500177059,2346932000,152995000,7
7.26,7.04,0.31,0.00,17.45,616032624,614908000,998000,7
1.50,1.46,0.10,0.00,3.98,133614177,25255000,23235000,7
6.50,6.32,0.25,0.00,14.77,487617009,485605000,1998000,7
8.79,8.49,0.58,0.00,21.26,706648474,548462000,158133000,7
1.09,1.06,0.07,0.00,2.81,91418027,2442000,3663000,7
25.85,25.11,1.30,0.00,60.06,2010941709,1852574000,157963000,7
6.14,5.98,0.25,0.00,14.39,494509304,493236000,1000000,7
12.57,12.18,0.60,0.00,31.95,1042991880,901934000,140989000,7
33.63,32.64,1.58,0.00,78.85,2642949823,2488657000,153978000,7
23.27,22.53,1.24,0.00,56.34,1940386524,1783118000,157010000,7
23.24,22.57,1.19,0.00,54.28,1798031578,1641659000,155967000,7
1.08,1.05,0.07,0.00,2.81,92152983,1967000,4464000,7
1.08,1.05,0.07,0.00,2.83,93189554,960000,5522000,7
5.25,5.10,0.22,0.00,12.55,421186618,420162000,1000000,7
9.54,9.23,0.61,0.00,22.92,751797828,609999000,141767000,7
10.55,10.23,0.50,0.00,26.48,844354675,717259000,127045000,7
5.17,5.03,0.21,0.00,12.28,420664131,418578000,1997000,7
34.14,33.16,1.58,0.00,79.80,2641119305,2467786000,172985000,7
21.99,21.36,0.91,0.00,53.97,1784726335,1782543000,1999000,7
1.09,1.05,0.07,0.00,2.84,91281394,6376000,0,7
43.15,41.95,1.91,0.00,98.83,3243931525,3083656000,159930000,7
16.15,15.71,0.63,0.00,38.94,1237749773,1236572000,999000,7
33.92,32.94,1.60,0.00,79.41,2666176899,2501878000,163992000,7
1.09,1.06,0.07,0.00,2.88,92399577,4352000,2176000,7
24.57,23.85,1.30,0.00,57.74,1925972542,1771655000,153970000,7
14.29,13.84,0.84,0.00,34.96,1170486272,1037509000,132937000,7
8.83,8.53,0.58,0.00,21.32,694947761,544929000,149980000,7
5.42,5.25,0.24,0.00,13.23,465477235,465467000,0,7
5.35,5.21,0.21,0.00,12.36,415034693,411010000,4000000,7
5.58,5.42,0.24,0.00,13.37,462713212,461604000,999000,7
30.40,29.53,1.41,0.00,69.82,2296451434,2127171000,169013000,7
20.81,20.22,1.08,0.00,48.11,1585050175,1428642000,155960000,7
1.07,1.02,0.07,0.00,2.81,93535816,6252000,0,7
16.31,15.86,0.64,0.00,37.55,1258594053,1256338000,1998000,7
25.69,24.94,1.30,0.00,60.16,2012338351,1854006000,158000000,7
43.84,42.61,1.98,0.00,101.53,3366353179,3202060000,164003000,7
35.66,34.66,1.62,0.00,81.89,2686302695,2532967000,152998000,7
10.12,9.84,0.40,0.00,23.24,775641300,775536000,0,7
8.09,7.86,0.33,0.00,19.07,649679980,649564000,0,7
32.22,31.28,1.51,0.00,75.36,2500476389,2340257000,159949000,7
8.88,8.62,0.37,0.00,21.27,732328499,731203000,1000000,7
9.86,9.54,0.48,0.00,25.09,800177419,655217000,144827000,7
16.06,15.62,0.64,0.00,39.17,1249901451,1248687000,999000,7
8.23,7.95,0.42,0.00,21.27,686671812,546709000,139925000,7
34.15,33.18,1.58,0.00,79.40,2624658571,2464364000,159958000,7
1.10,1.07,0.07,0.00,2.87,92406457,859000,5688000,7
16.77,16.32,0.64,0.00,37.87,1251958165,1249749000,1999000,7
17.70,17.24,0.67,0.00,41.96,1323154644,1320035000,3000000,7
14.18,13.76,0.64,0.00,35.09,1118162360,985220000,132894000,7
11.45,11.14,0.46,0.00,26.85,893442910,890982000,1999000,7
9.30,9.00,0.45,0.00,23.38,745574385,617571000,127911000,7
22.86,22.20,1.19,0.00,53.76,1779264060,1619004000,159901000,7
37.67,36.57,1.73,0.00,88.67,2930305186,2794951000,134949000,7
8.81,8.53,0.44,0.00,22.02,759797908,745459000,13971000,8
3.77,3.65,0.19,0.00,9.49,310240249,299175000,11006000,8
3.88,3.76,0.20,0.00,9.83,321928375,307937000,13997000,8
4.56,4.41,0.26,0.00,11.76,384953884,312603000,72139000,8
3.19,3.08,0.18,0.00,8.02,257170766,242142000,15008000,8
9.33,9.04,0.44,0.00,23.82,783389438,778278000,5001000,8
7.09,6.87,0.38,0.00,18.00,578818173,521786000,56976000,8
2.97,2.86,0.20,0.00,7.49,233364072,227337000,6008000,8
10.47,10.13,0.62,0.00,27.17,889216411,756125000,133022000,8
6.25,6.06,0.31,0.00,15.76,503405161,493060000,10001000,8
3.25,3.16,0.18,0.00,8.39,269618280,260388000,9013000,8
5.41,5.26,0.27,0.00,12.89,440968571,434832000,5997000,8
5.85,5.67,0.29,0.00,15.08,491481265,413512000,77908000,8
27.92,27.08,1.24,0.00,69.73,2372745472,2366541000,5998000,8
4.46,4.32,0.24,0.00,11.60,380072124,363055000,16955000,8
2.82,2.72,0.15,0.00,7.28,234454141,224437000,9975000,8
6.95,6.73,0.37,0.00,17.86,575776643,514647000,60958000,8
4.30,4.17,0.23,0.00,11.33,373790204,364598000,8990000,8
5.70,5.53,0.28,0.00,14.74,482746025,409733000,72952000,8
4.69,4.54,0.27,0.00,12.43,421469611,338284000,83069000,8
5.73,5.54,0.30,0.00,14.86,491481854,484445000,7006000,8
4.04,3.92,0.21,0.00,10.42,335965801,323933000,11997000,8
7.48,7.25,0.37,0.00,19.47,642786154,633743000,9010000,8
6.82,6.60,0.35,0.00,17.91,595716583,539629000,56065000,8
5.41,5.23,0.29,0.00,13.43,472363364,463365000,8987000,8
6.89,6.68,0.34,0.00,16.65,579979749,569940000,9998000,8
5.98,5.79,0.33,0.00,15.60,508398750,448220000,60029000,8
5.63,5.46,0.28,0.00,14.67,478883609,405838000,72970000,8
8.74,8.47,0.42,0.00,22.31,722975475,658948000,63994000,8
1.94,1.87,0.15,0.00,5.08,159653714,147650000,11971000,8
6.04,5.85,0.31,0.00,15.77,517828604,453689000,64097000,8
3.10,3.01,0.18,0.00,8.04,262014778,244977000,16998000,8
3.61,3.51,0.19,0.00,9.34,303173683,292084000,11003000,8
6.59,6.39,0.33,0.00,16.90,550867716,539829000,10996000,8
4.02,3.90,0.22,0.00,10.36,335749945,320731000,14987000,8
6.14,5.92,0.44,0.00,15.69,536538699,525488000,11010000,8
3.79,3.68,0.20,0.00,9.75,315134775,300092000,15004000,8
5.14,4.98,0.30,0.00,13.19,423285571,416252000,7004000,8
2.60,2.51,0.14,0.00,6.67,219458857,209390000,10018000,8
2.06,1.99,0.15,0.00,5.42,177155744,166106000,11007000,8
3.18,3.08,0.18,0.00,8.23,267038625,257873000,8995000,8
4.35,4.21,0.23,0.00,10.49,361565471,352550000,8988000,8
4.41,4.25,0.27,0.00,11.55,376518205,291338000,85098000,8
7.67,7.43,0.42,0.00,19.86,652032385,586959000,64995000,8
2.83,2.75,0.15,0.00,7.33,234735201,225717000,8988000,8
8.16,7.92,0.39,0.00,19.49,671899914,658863000,12997000,8
3.75,3.64,0.20,0.00,9.76,318272284,311230000,7005000,8
2.89,2.79,0.20,0.00,7.50,233621648,225591000,8021000,8
2.60,2.51,0.14,0.00,6.77,218621338,206593000,11976000,8
3.83,3.72,0.19,0.00,9.70,312158052,304128000,8003000,8
4.79,4.63,0.28,0.00,11.71,399851391,391834000,7996000,8
3.68,3.57,0.24,0.00,9.54,304536476,298514000,5990000,8
5.64,5.47,0.28,0.00,14.11,474986558,463954000,10998000,8
5.57,5.41,0.27,0.00,13.67,442361899,434327000,8006000,8
2.65,2.57,0.15,0.00,6.93,224803481,218833000,5968000,8
2.55,2.47,0.14,0.00,6.72,214402878,202279000,12016000,8
2.76,2.67,0.17,0.00,7.33,239073609,234948000,3999000,8
11.90,11.56,0.51,0.00,27.52,923611985,918444000,5002000,8
5.29,5.11,0.28,0.00,13.09,441415484,435364000,6005000,8
9.00,8.72,0.45,0.00,23.19,755578055,684571000,70955000,8
3.90,3.79,0.21,0.00,9.70,340714849,327639000,12985000,8
3.63,3.52,0.19,0.00,9.45,302742498,294586000,7988000,8
7.63,7.39,0.39,0.00,19.53,626202317,573157000,53014000,8
2.57,2.49,0.19,0.00,6.76,212941372,205891000,6996000,8
5.54,5.36,0.28,0.00,14.58,477325943,403406000,73891000,8
6.32,6.10,0.34,0.00,16.58,537211046,465161000,72024000,8
3.39,3.28,0.18,0.00,8.62,276021719,271973000,3999000,8
19.22,18.63,0.96,0.00,49.68,1613767277,1600740000,12997000,8
4.26,4.13,0.23,0.00,11.02,367696524,353661000,13986000,8
5.53,5.35,0.27,0.00,14.38,467298839,422235000,45025000,8
4.00,3.88,0.21,0.00,10.31,333935070,322846000,10994000,8
3.55,3.44,0.19,0.00,9.04,291044576,287010000,4000000,8
8.52,8.26,0.44,0.00,22.14,722965671,660922000,61992000,8
6.36,6.16,0.33,0.00,16.55,540393214,473386000,66913000,8
18.90,18.31,0.92,0.00,46.38,1604415771,1597991000,5996000,8
6.57,6.37,0.32,0.00,17.12,552106195,478025000,74003000,8
7.37,7.14,0.41,0.00,19.25,623861434,544569000,79082000,8
10.89,10.56,0.51,0.00,27.53,910159679,900971000,8999000,8
5.54,5.37,0.27,0.00,14.36,468279469,406217000,62033000,8
7.00,6.79,0.34,0.00,17.56,585319801,580186000,5001000,8
0.54,0.52,0.02,0.00,1.34,43043646,40799000,1990000,9
0.51,0.51,0.02,0.00,1.27,40835632,38886000,1944000,9
0.19,0.19,0.01,0.00,0.53,19796926,16833000,2970000,9
0.52,0.51,0.02,0.00,1.30,41682900,39689000,1984000,9
0.55,0.53,0.02,0.00,1.38,43777271,41780000,1989000,9
0.16,0.16,0.01,0.00,0.40,13469000,10511000,2866000,9
0.12,0.11,0.01,0.00,0.28,8806855,7761000,970000,9
1.22,1.18,0.05,0.00,3.12,101934332,97914000,3996000,9
0.53,0.52,0.02,0.00,1.35,41762610,39766000,1988000,9
0.52,0.50,0.02,0.00,1.39,46569141,45551000,1012000,9
0.96,0.93,0.04,0.00,2.41,79387379,79392000,0,9
0.82,0.80,0.04,0.00,2.14,72429941,60350000,12070000,9
0.23,0.23,0.01,0.00,0.58,19402358,17461000,1940000,9
0.49,0.48,0.02,0.00,1.26,40236025,38229000,2012000,9
0.07,0.06,0.00,0.00,0.18,5863596,5867000,0,9
0.33,0.32,0.01,0.00,0.81,25236386,21082000,4015000,9
0.51,0.50,0.02,0.00,1.29,42044908,42045000,0,9
0.60,0.58,0.02,0.00,1.52,46905717,43785000,2985000,9
0.16,0.16,0.01,0.00,0.40,13156278,10092000,3027000,9
1.24,1.17,0.10,0.00,3.59,129196653,1125000,5043000,9
0.20,0.20,0.01,0.00,0.51,16638752,12708000,3910000,9
0.34,0.32,0.02,0.00,0.87,28277966,21482000,6835000,9
0.56,0.56,0.02,0.00,1.42,46702544,42716000,3973000,9
0.48,0.47,0.02,0.00,1.21,40050047,38035000,2001000,9
0.20,0.20,0.01,0.00,0.50,16599371,11710000,4879000,9
0.25,0.25,0.01,0.00,0.61,19063245,17021000,2002000,9
0.08,0.07,0.00,0.00,0.21,6121161,5102000,1020000,9
0.58,0.56,0.02,0.00,1.47,46666243,43679000,2978000,9
0.55,0.53,0.03,0.00,1.37,43798604,40795000,2985000,9
0.53,0.52,0.02,0.00,1.35,43025975,41013000,2000000,9
0.45,0.44,0.02,0.00,1.28,46193468,42184000,4017000,9
0.57,0.55,0.03,0.00,1.59,58008988,56990000,999000,9
0.33,0.32,0.02,0.00,0.83,25918828,21878000,3977000,9
0.51,0.50,0.02,0.00,1.30,41234782,39211000,2010000,9
1.17,1.14,0.07,0.00,3.07,100365624,10218000,5109000,9
0.48,0.47,0.02,0.00,1.22,41258515,38304000,2946000,9
0.97,0.94,0.05,0.00,2.51,87810101,87819000,0,9
0.12,0.11,0.01,0.00,0.29,10282450,7203000,3087000,9
0.52,0.51,0.02,0.00,1.31,42576631,40528000,2026000,9
0.27,0.26,0.01,0.00,0.67,21620549,18413000,3068000,9
0.33,0.31,0.02,0.00,0.84,25434546,18304000,7118000,9
0.19,0.18,0.01,0.00,0.48,14500513,9318000,5177000,9
0.17,0.16,0.01,0.00,0.42,13056280,10956000,1992000,9
0.34,0.33,0.02,0.00,0.85,25868112,20690000,5172000,9
0.09,0.08,0.00,0.00,0.23,7765016,6651000,1108000,9
0.12,0.11,0.01,0.00,0.30,10092163,7043000,3018000,9
0.54,0.53,0.02,0.00,1.34,43597560,42596000,990000,9
0.55,0.53,0.02,0.00,1.36,43549744,41555000,1978000,9
0.08,0.08,0.00,0.00,0.22,6493020,4645000,1858000,9
0.19,0.18,0.01,0.00,0.46,14690986,14653000,0,9
0.12,0.10,0.01,0.00,0.28,8317478,5147000,3088000,9
0.26,0.25,0.01,0.00,0.63,19392602,17440000,1937000,9
0.25,0.25,0.01,0.00,0.67,22469213,19543000,2931000,9
0.16,0.15,0.01,0.00,0.39,12105783,9084000,3028000,9
0.94,0.91,0.04,0.00,2.38,78683202,77675000,995000,9
0.31,0.30,0.02,0.00,0.79,24754787,20694000,3941000,9
0.25,0.24,0.02,0.00,0.64,21309589,9635000,11562000,9
0.07,0.07,0.00,0.00,0.18,6257478,4178000,2089000,9
0.65,0.63,0.03,0.00,1.63,51331140,48294000,3018000,9
0.52,0.51,0.02,0.00,1.30,41198203,39178000,2009000,9
0.05,0.04,0.00,0.00,0.12,3525663,2645000,881000,9
0.08,0.08,0.00,0.00,0.21,7276429,4156000,3117000,9
0.51,0.50,0.02,0.00,1.27,41591914,40439000,1010000,9
0.63,0.60,0.03,0.00,1.58,52368339,51288000,986000,9
0.20,0.20,0.01,0.00,0.49,16562114,15523000,1034000,9
0.23,0.22,0.01,0.00,0.56,17281289,16249000,1015000,9
0.17,0.17,0.01,0.00,0.41,13403996,12345000,1028000,9
0.51,0.49,0.02,0.00,1.29,42029685,40605000,990000,9
0.26,0.24,0.01,0.00,0.62,19417532,17474000,1941000,9
0.49,0.47,0.03,0.00,1.35,47483658,45497000,1978000,9
0.50,0.48,0.02,0.00,1.32,45899663,40868000,4983000,9
0.48,0.47,0.02,0.00,1.22,41069095,41057000,0,9
1.02,0.99,0.05,0.00,2.59,85609986,76629000,8956000,9
0.08,0.08,0.00,0.00,0.19,6577100,4731000,1892000,9
0.53,0.51,0.02,0.00,1.34,41764949,40765000,994000,9
0.26,0.25,0.01,0.00,0.63,19573235,15643000,3910000,9
0.12,0.12,0.01,0.00,0.31,10430026,7289000,3124000,9
0.07,0.07,0.00,0.00,0.18,5623094,3753000,1876000,9
0.54,0.52,0.02,0.00,1.34,41449468,39465000,1973000,9
0.10,0.10,0.00,0.00,0.24,8311809,6227000,2075000,9
2.15,2.08,0.12,0.00,5.35,182719980,174447000,7974000,10
2.52,2.44,0.14,0.00,6.20,218915826,210889000,7995000,10
2.13,2.06,0.13,0.00,5.30,189145602,184101000,5002000,10
2.22,2.15,0.12,0.00,5.39,181520953,175437000,5980000,10
2.19,2.11,0.13,0.00,5.42,191430220,181457000,9970000,10
2.10,2.02,0.13,0.00,5.23,184597225,176583000,7981000,10
2.67,2.58,0.17,0.00,6.71,236867432,220851000,15989000,10
2.21,2.14,0.13,0.00,5.54,193407215,188345000,5009000,10
3.40,3.27,0.23,0.00,9.40,332708992,184957000,6199000,10
2.81,2.74,0.12,0.00,6.84,231885810,226786000,4995000,10
5.24,5.07,0.26,0.00,12.92,443447422,435433000,7989000,10
3.36,3.26,0.18,0.00,8.36,280636976,272613000,7988000,10
1.81,1.74,0.08,0.00,4.40,150048072,143033000,7001000,10
7.25,7.02,0.40,0.00,18.06,628812635,619768000,8996000,10
1.62,1.58,0.08,0.00,3.96,134264996,131219000,3005000,10
3.07,2.98,0.17,0.00,7.76,259755433,244736000,14983000,10
3.01,2.92,0.16,0.00,7.54,253403805,246394000,6982000,10
2.69,2.61,0.15,0.00,6.81,229040796,225043000,4000000,10
2.68,2.59,0.15,0.00,6.83,233198847,222160000,11007000,10
1.83,1.77,0.08,0.00,4.50,150102524,144076000,6003000,10
2.06,2.00,0.09,0.00,5.10,173146567,169122000,4002000,10
1.81,1.75,0.08,0.00,4.45,150928106,147825000,2996000,10
2.10,2.03,0.12,0.00,5.38,183752891,178732000,4992000,10
1.91,1.85,0.09,0.00,4.74,161423450,157400000,3984000,10
2.06,1.99,0.13,0.00,5.34,181292278,171295000,9959000,10
3.01,2.91,0.16,0.00,7.60,251873758,246846000,4996000,10
5.85,5.66,0.27,0.00,14.46,502579115,497496000,5004000,10
2.22,2.15,0.13,0.00,5.63,192327759,187297000,5007000,10
2.30,2.23,0.13,0.00,5.90,202930136,197908000,4997000,10
2.86,2.78,0.15,0.00,7.21,240704081,231687000,8987000,10
4.23,4.09,0.22,0.00,10.87,363330601,349199000,13967000,10
3.55,3.43,0.21,0.00,9.11,308832637,298810000,9993000,10
3.47,3.36,0.16,0.00,8.57,287822967,281790000,5995000,10
6.30,6.12,0.30,0.00,15.49,539468736,525419000,14011000,10
2.09,2.02,0.12,0.00,5.37,183311614,172244000,11015000,10
1.71,1.66,0.08,0.00,4.17,142997917,138964000,3998000,10
3.18,3.08,0.17,0.00,8.13,271226615,263245000,7977000,10
2.45,2.38,0.15,0.00,6.11,214294317,203220000,11011000,10
3.91,3.80,0.18,0.00,9.66,323100084,315131000,7978000,10
2.20,2.14,0.10,0.00,5.44,181572234,176268000,4979000,10
2.92,2.83,0.13,0.00,7.12,247466339,243351000,4005000,10
3.11,3.02,0.19,0.00,8.05,273286020,254145000,19010000,10
1.83,1.79,0.09,0.00,4.52,153523719,148502000,4983000,10
1.77,1.71,0.09,0.00,4.37,154986304,151951000,3018000,10
2.02,1.96,0.10,0.00,4.97,169479725,162392000,7016000,10
2.81,2.72,0.15,0.00,7.09,237050646,229949000,6998000,10
2.84,2.74,0.15,0.00,7.17,238185004,230137000,8004000,10
2.63,2.56,0.12,0.00,6.24,214635548,211507000,2993000,10
2.50,2.43,0.12,0.00,6.21,210059883,201978000,7959000,10
2.89,2.80,0.14,0.00,7.01,236606674,231615000,4991000,10
3.21,3.11,0.17,0.00,8.16,268759116,260741000,7992000,10
5.09,4.93,0.29,0.00,13.23,438916919,424890000,13996000,10
5.06,4.90,0.34,0.00,13.41,455454187,441434000,13982000,10
2.43,2.35,0.14,0.00,6.28,216445639,203469000,12966000,10
2.93,2.85,0.18,0.00,7.61,256630486,244493000,11975000,10
2.45,2.38,0.15,0.00,6.11,214560935,200456000,13962000,10
2.94,2.85,0.13,0.00,7.15,248514371,246458000,2003000,10
2.45,2.37,0.15,0.00,6.16,214413487,201363000,13023000,10
2.88,2.79,0.15,0.00,7.29,243884878,234776000,8991000,10
2.47,2.39,0.15,0.00,6.20,214515544,210550000,3991000,10
2.93,2.84,0.16,0.00,7.43,246682508,241520000,5010000,10
3.57,3.46,0.18,0.00,8.85,294402619,290334000,4004000,10
2.09,2.02,0.12,0.00,5.28,183950890,175819000,8037000,10
2.33,2.25,0.14,0.00,5.93,205577395,194580000,10976000,10
1.90,1.85,0.09,0.00,4.78,162529206,157524000,4984000,10
2.12,2.06,0.13,0.00,5.54,190776967,185654000,4990000,10
2.17,2.11,0.13,0.00,5.70,192216244,186178000,6005000,10
4.06,3.93,0.26,0.00,10.21,359061197,351991000,6999000,10
3.14,3.05,0.17,0.00,7.74,259621495,246578000,12977000,10
2.38,2.31,0.11,0.00,5.71,193981116,189839000,3996000,10
2.84,2.75,0.16,0.00,7.34,247027684,232913000,13994000,10
2.59,2.50,0.15,0.00,6.69,225322102,218179000,7005000,10
3.83,3.71,0.18,0.00,9.54,328610721,321445000,6987000,10
2.26,2.19,0.10,0.00,5.57,186853834,183793000,2996000,10
6.89,6.68,0.34,0.00,17.26,590019716,586950000,2999000,10
3.19,3.10,0.15,0.00,7.86,269874424,262784000,6994000,10
1.48,1.44,0.07,0.00,3.75,128307419,124149000,4004000,10
1.89,1.83,0.09,0.00,4.89,158544100,153434000,4981000,10
2.52,2.45,0.12,0.00,6.25,214510089,203434000,10969000,10
2.96,2.87,0.16,0.00,7.50,249051820,238917000,9996000,10
12.40,12.02,0.54,0.00,29.62,1061874583,1060495000,1000000,11
3.13,3.04,0.13,0.00,7.39,252983039,251976000,999000,11
3.62,3.51,0.15,0.00,8.46,289329853,287218000,1994000,11
36.24,35.11,1.62,0.00,88.28,3180296522,3178053000,2000000,11
5.62,5.46,0.23,0.00,13.33,453965545,452943000,999000,11
25.05,24.32,1.05,0.00,59.19,2070049047,2069909000,0,11
3.30,3.21,0.14,0.00,7.80,266050468,264865000,999000,11
24.22,23.49,1.04,0.00,58.03,2040704077,2037436000,2999000,11
2.17,2.11,0.09,0.00,5.14,177366165,176354000,1002000,11
6.01,5.83,0.25,0.00,14.23,490904358,489738000,999000,11
2.51,2.43,0.11,0.00,6.13,214051913,213036000,1000000,11
3.24,3.15,0.13,0.00,7.60,257662720,255653000,1997000,11
2.36,2.30,0.10,0.00,5.56,188118002,188102000,0,11
3.43,3.32,0.15,0.00,8.20,284830608,283817000,999000,11
7.32,7.10,0.30,0.00,17.35,597466869,594372000,2996000,11
3.05,2.96,0.12,0.00,7.12,241206373,240187000,1000000,11
6.55,6.34,0.29,0.00,15.99,569332147,567319000,1997000,11
3.59,3.49,0.15,0.00,8.39,284505554,283432000,998000,11
3.46,3.35,0.15,0.00,8.36,293152929,293152000,0,11
6.03,5.85,0.27,0.00,15.77,520182333,515102000,5000000,11
2.05,1.98,0.09,0.00,5.02,175969815,173956000,1999000,11
24.73,23.99,1.04,0.00,59.08,2049412337,2048210000,1000000,11
3.54,3.45,0.15,0.00,8.51,294678801,294596000,0,11
2.52,2.45,0.10,0.00,5.93,199162530,198156000,1000000,11
1.23,1.20,0.06,0.00,3.13,110705548,109575000,996000,11
11.46,11.10,0.51,0.00,28.20,1003781231,1002691000,999000,11
20.35,19.73,0.89,0.00,49.60,1746656197,1745440000,999000,11
3.44,3.34,0.14,0.00,8.16,276784867,276672000,0,11
3.42,3.31,0.15,0.00,8.37,290741129,289639000,998000,11
2.72,2.63,0.12,0.00,6.69,232549095,230545000,1996000,11
4.68,4.54,0.19,0.00,11.09,376705856,374692000,1998000,11
6.31,6.11,0.27,0.00,15.83,535518179,534507000,1000000,11
6.42,6.24,0.28,0.00,15.57,546848370,544833000,1999000,11
2.50,2.43,0.11,0.00,6.06,213619684,212479000,1002000,11
12.36,11.96,0.55,0.00,30.39,1085490838,1083341000,2000000,11
4.25,4.12,0.18,0.00,10.93,355751336,354732000,999000,11
3.86,3.76,0.16,0.00,9.10,311525724,311440000,0,11
4.92,4.77,0.21,0.00,11.75,405178464,403048000,2000000,11
4.93,4.79,0.21,0.00,11.81,407155175,406135000,1000000,11
25.65,24.89,1.08,0.00,61.33,2113506697,2111208000,1999000,11
4.10,3.99,0.17,0.00,10.13,329743609,328709000,999000,11
1.12,1.09,0.05,0.00,2.86,97159778,96009000,1000000,11
11.20,10.87,0.47,0.00,26.55,925142367,923950000,999000,11
2.84,2.76,0.12,0.00,6.79,235069218,235073000,0,11
3.42,3.32,0.15,0.00,8.30,290889806,289746000,999000,11
5.09,4.95,0.22,0.00,12.08,422473340,421384000,998000,11
7.38,7.15,0.33,0.00,18.08,644642105,643543000,999000,11
25.06,24.31,1.07,0.00,60.13,2105236900,2104988000,0,11
3.05,2.95,0.13,0.00,7.31,251507787,247502000,3991000,11
1.97,1.90,0.09,0.00,4.96,176204657,170182000,6006000,11
48.84,47.37,2.07,0.00,116.38,4066397019,4065845000,0,11
1.12,1.09,0.05,0.00,2.79,96081931,96081000,0,11
3.43,3.32,0.15,0.00,8.34,290868801,289856000,999000,11
24.37,23.65,1.03,0.00,58.00,2022087804,2020885000,999000,11
4.02,3.90,0.18,0.00,9.78,341958431,340906000,999000,11
5.03,4.88,0.22,0.00,12.30,433184050,433175000,0,11
3.67,3.56,0.16,0.00,8.86,304938523,302926000,1999000,11
4.82,4.67,0.21,0.00,11.76,407812457,404800000,2998000,11
25.86,25.10,1.10,0.00,61.93,2149190812,2148703000,0,11
4.22,4.11,0.17,0.00,9.95,340403353,339391000,1001000,11
3.38,3.28,0.14,0.00,8.05,275128749,274046000,1000000,11
26.03,25.26,1.10,0.00,62.24,2155092344,2153783000,999000,11
6.75,6.54,0.30,0.00,16.46,577274738,576151000,1000000,11
7.33,7.10,0.33,0.00,17.99,639737729,637626000,1998000,11
2.16,2.10,0.09,0.00,5.04,167721862,166733000,998000,11
3.58,3.48,0.15,0.00,8.62,296892815,295796000,999000,11
25.06,24.31,1.06,0.00,59.73,2079179239,2078001000,1000000,11
3.50,3.40,0.14,0.00,8.24,280146394,278961000,999000,11
2.21,2.15,0.09,0.00,5.16,172127224,172039000,0,11
3.39,3.29,0.14,0.00,7.96,267848149,265766000,1998000,11
6.52,6.34,0.28,0.00,15.72,546973779,545969000,999000,11
5.24,5.09,0.21,0.00,12.15,408445150,407436000,1001000,11
4.21,4.10,0.18,0.00,10.45,353765811,352606000,1001000,11
4.05,3.94,0.17,0.00,9.62,332065172,330069000,1994000,11
4.18,4.05,0.17,0.00,9.90,339303661,338282000,1000000,11
6.68,6.47,0.29,0.00,16.16,569768679,569627000,0,11
24.51,23.80,1.03,0.00,58.44,2030797378,2028644000,1999000,11
3.54,3.44,0.15,0.00,8.30,278801173,274712000,3995000,11
11.27,10.93,0.49,0.00,27.37,968600658,965494000,2998000,11
25.02,24.28,1.05,0.00,59.65,2067706644,2066379000,999000,11
2.76,2.68,0.11,0.00,6.78,218129208,212853000,4973000,12
4.68,4.53,0.22,0.00,11.62,394892897,381865000,12995000,12
2.85,2.77,0.12,0.00,6.81,221755155,216695000,4992000,12
4.13,4.01,0.18,0.00,10.14,358554447,355357000,2994000,12
9.07,8.79,0.41,0.00,22.87,770839247,761699000,8996000,12
1.68,1.62,0.07,0.00,4.07,136531191,133549000,2989000,12
7.87,7.62,0.40,0.00,20.41,676687565,648670000,27985000,12
2.11,2.05,0.09,0.00,5.03,164317050,163217000,1001000,12
2.79,2.71,0.12,0.00,6.78,226144348,221130000,5002000,12
2.02,1.96,0.09,0.00,5.00,163277780,157087000,6003000,12
2.25,2.19,0.09,0.00,5.50,179949094,176813000,2996000,12
2.00,1.94,0.09,0.00,4.92,165232255,160080000,5002000,12
2.38,2.31,0.10,0.00,5.79,191655571,190508000,1002000,12
2.07,2.01,0.09,0.00,5.08,166688004,165605000,997000,12
1.88,1.82,0.09,0.00,4.79,166293617,162186000,4004000,12
4.29,4.15,0.20,0.00,11.20,372305341,366279000,6004000,12
9.33,9.05,0.41,0.00,22.53,785955101,776924000,8999000,12
5.05,4.90,0.23,0.00,12.80,416099453,407943000,7998000,12
3.34,3.24,0.15,0.00,8.58,282648486,277540000,4991000,12
4.36,4.23,0.20,0.00,11.42,374135242,367049000,7000000,12
2.03,1.98,0.08,0.00,5.03,163099582,162092000,1000000,12
1.44,1.40,0.06,0.00,3.56,113778379,109770000,3991000,12
1.67,1.61,0.07,0.00,4.08,136588024,131579000,4984000,12
10.46,10.13,0.47,0.00,26.14,912978211,911850000,999000,12
1.90,1.86,0.08,0.00,4.59,156618275,155590000,1003000,12
1.90,1.85,0.08,0.00,4.74,154695316,151683000,2993000,12
2.75,2.68,0.11,0.00,6.76,220136804,212122000,8004000,12
1.14,1.11,0.05,0.00,2.88,97215540,97105000,0,12
2.83,2.74,0.12,0.00,6.86,225388515,223263000,2002000,12
2.70,2.63,0.11,0.00,6.69,219536306,217512000,2004000,12
0.68,0.67,0.03,0.00,1.70,55430547,53402000,2015000,12
5.08,4.93,0.22,0.00,12.86,414188320,411003000,3000000,12
13.17,12.76,0.60,0.00,34.45,1141653055,1127400000,14004000,12
1.95,1.89,0.09,0.00,4.82,162351895,159201000,3003000,12
2.69,2.62,0.11,0.00,6.59,218294659,214277000,4005000,12
1.92,1.85,0.09,0.00,4.80,165361051,162360000,2988000,12
2.44,2.37,0.10,0.00,5.83,188546172,184573000,3990000,12
5.14,4.98,0.24,0.00,13.08,425785919,413769000,11993000,12
0.70,0.68,0.03,0.00,1.74,56770159,55722000,1013000,12
2.75,2.66,0.11,0.00,6.71,219687584,217659000,1996000,12
2.76,2.68,0.11,0.00,6.71,221448949,220174000,1000000,12
1.66,1.60,0.07,0.00,4.09,136509914,132414000,3982000,12
4.20,4.08,0.20,0.00,10.21,353629915,331525000,22034000,12
4.38,4.25,0.20,0.00,11.28,373092850,365038000,8000000,12
2.01,1.96,0.09,0.00,4.88,162073831,157717000,3992000,12
2.01,1.96,0.09,0.00,4.91,164015657,155891000,7994000,12
2.76,2.67,0.12,0.00,6.77,221369739,218402000,2991000,12
2.07,2.00,0.08,0.00,5.03,164357960,160392000,3984000,12
28.57,27.68,1.41,0.00,70.84,2483021436,2471774000,10998000,12
9.95,9.65,0.49,0.00,24.87,845796913,826769000,18994000,12
3.38,3.26,0.16,0.00,8.81,286050005,279940000,5998000,12
2.71,2.63,0.12,0.00,6.80,223894284,220897000,2998000,12
1.83,1.78,0.08,0.00,4.49,147443203,143429000,3984000,12
1.27,1.25,0.05,0.00,3.09,106721746,103714000,2991000,12
2.28,2.23,0.09,0.00,5.52,180649552,176654000,3992000,12
2.01,1.96,0.09,0.00,4.90,165363885,158247000,7010000,12
4.18,4.05,0.19,0.00,10.68,348371234,340263000,7982000,12
10.40,10.07,0.49,0.00,25.51,894285928,882246000,12003000,12
1.82,1.77,0.08,0.00,4.38,146261318,143156000,3003000,12
3.34,3.24,0.15,0.00,8.61,283014441,277989000,4999000,12
5.45,5.28,0.24,0.00,13.28,459968045,454941000,4999000,12
2.84,2.77,0.11,0.00,6.78,221209768,218187000,3002000,12
2.80,2.72,0.12,0.00,6.84,225741574,221707000,4012000,12
1.97,1.91,0.08,0.00,4.82,160923924,156908000,3997000,12
1.94,1.89,0.08,0.00,4.78,160667777,153637000,6983000,12
1.99,1.92,0.08,0.00,4.85,161530042,157379000,4009000,12
1.38,1.34,0.06,0.00,3.41,117794883,113855000,3960000,12
13.33,12.91,0.59,0.00,34.66,1136170180,1128826000,6998000,12
5.01,4.86,0.22,0.00,12.71,411436846,403378000,8007000,12
4.33,4.21,0.20,0.00,11.07,361733178,348637000,12986000,12
2.21,2.14,0.10,0.00,5.52,187885549,183860000,3996000,12
2.05,1.98,0.09,0.00,5.02,166264957,162221000,4005000,12
13.66,13.24,0.65,0.00,34.01,1169874735,1157833000,11998000,12
2.05,1.99,0.09,0.00,5.04,166983757,161933000,4997000,12
2.71,2.64,0.11,0.00,6.61,219198313,214140000,5003000,12
5.17,5.02,0.23,0.00,13.13,425396848,418288000,7004000,12
1.93,1.87,0.09,0.00,4.82,166955842,163847000,2997000,12
1.33,1.28,0.06,0.00,3.20,106522122,103426000,2983000,12
1.86,1.80,0.09,0.00,4.70,165874809,162864000,2997000,12
2.77,2.69,0.11,0.00,6.69,219772692,216749000,2996000,12
0.18,0.17,0.02,0.00,0.90,41452645,36410000,4790000,13
0.43,0.42,0.02,0.00,1.08,34826702,34735000,0,13
0.60,0.57,0.02,0.00,1.44,46310511,44276000,2012000,13
0.48,0.47,0.02,0.00,1.20,41530280,39534000,1976000,13
0.47,0.46,0.02,0.00,1.17,36716207,36702000,0,13
0.47,0.46,0.02,0.00,1.14,36909617,35902000,997000,13
0.27,0.26,0.01,0.00,0.68,21774342,21787000,0,13
0.53,0.52,0.02,0.00,1.32,44300677,44286000,0,13
0.47,0.46,0.02,0.00,1.18,36830929,35731000,992000,13
0.46,0.44,0.02,0.00,1.17,36458227,35442000,1012000,13
0.58,0.57,0.02,0.00,1.43,46453040,46447000,0,13
0.76,0.73,0.03,0.00,1.89,62714366,59616000,2980000,13
0.49,0.47,0.02,0.00,1.23,37669475,34681000,2972000,13
0.29,0.28,0.01,0.00,0.72,23999274,21950000,1995000,13
0.49,0.47,0.02,0.00,1.23,37278205,36155000,1004000,13
0.28,0.28,0.01,0.00,0.72,24352889,23333000,1014000,13
0.92,0.90,0.04,0.00,2.29,76057313,75052000,1000000,13
0.47,0.45,0.02,0.00,1.20,36478149,35415000,1011000,13
0.24,0.22,0.02,0.00,0.74,27155327,25143000,2011000,13
0.41,0.39,0.02,0.00,1.14,40166921,39163000,1004000,13
0.93,0.90,0.04,0.00,2.27,75957321,74830000,997000,13
0.47,0.46,0.02,0.00,1.17,36824257,36684000,0,13
0.93,0.91,0.04,0.00,2.26,75519266,75511000,0,13
0.91,0.88,0.04,0.00,2.26,75886051,74873000,1011000,13
0.28,0.27,0.01,0.00,0.69,23104332,23103000,0,13
0.91,0.88,0.04,0.00,2.24,73808289,72695000,995000,13
0.27,0.26,0.01,0.00,0.73,24041464,24046000,0,13
0.90,0.88,0.04,0.00,2.19,74756267,73743000,1010000,13
0.56,0.54,0.02,0.00,1.39,45717371,44637000,991000,13
0.59,0.57,0.03,0.00,1.47,47387957,45397000,1973000,13
0.19,0.19,0.01,0.00,0.52,17891991,15901000,1987000,13
0.91,0.88,0.04,0.00,2.26,74608433,73605000,994000,13
0.28,0.27,0.01,0.00,0.70,23251009,22243000,1011000,13
0.45,0.43,0.02,0.00,1.15,37576310,35601000,1977000,13
0.35,0.34,0.01,0.00,0.86,28073790,27045000,1001000,13
0.66,0.64,0.04,0.00,1.81,67389656,66390000,1005000,13
0.28,0.27,0.01,0.00,0.70,23034582,23033000,0,13
0.74,0.72,0.03,0.00,1.89,64056104,62073000,1970000,13
0.45,0.44,0.02,0.00,1.12,36708197,36582000,0,13
0.41,0.40,0.02,0.00,1.11,39447817,39466000,0,13
0.60,0.58,0.03,0.00,1.59,50278898,48287000,1970000,13
0.23,0.22,0.01,0.00,0.70,26672250,26676000,0,13
0.46,0.44,0.02,0.00,1.15,37539755,36520000,987000,13
0.40,0.39,0.02,0.00,1.04,35644836,33667000,1980000,13
0.28,0.27,0.01,0.00,0.72,23564937,21599000,1963000,13
0.19,0.19,0.01,0.00,0.49,16171680,15163000,1010000,13
0.92,0.89,0.04,0.00,2.24,74796644,73708000,996000,13
0.47,0.45,0.02,0.00,1.15,36963569,36930000,0,13
0.46,0.44,0.02,0.00,1.13,36427794,35433000,984000,13
0.43,0.43,0.02,0.00,1.14,37438833,36447000,1012000,13
0.46,0.44,0.02,0.00,1.17,36444605,35454000,1012000,13
0.29,0.29,0.01,0.00,0.74,25350494,23177000,2015000,13
0.40,0.39,0.02,0.00,1.01,33752257,29698000,3959000,13
0.58,0.56,0.02,0.00,1.43,46944360,45929000,998000,13
0.46,0.44,0.02,0.00,1.18,36432178,34366000,1963000,13
0.40,0.38,0.02,0.00,1.13,40829227,40835000,0,13
0.40,0.38,0.02,0.00,1.13,40600136,37626000,2970000,13
0.46,0.45,0.02,0.00,1.19,37029890,37014000,0,13
0.47,0.46,0.02,0.00,1.16,37070378,36057000,1001000,13
0.58,0.56,0.02,0.00,1.43,45844224,44839000,996000,13
0.46,0.45,0.02,0.00,1.15,36112592,35113000,1003000,13
0.46,0.44,0.02,0.00,1.15,35356949,33381000,1963000,13
0.46,0.46,0.02,0.00,1.18,37634981,35651000,1980000,13
0.47,0.45,0.02,0.00,1.17,36593815,35485000,985000,13
0.46,0.44,0.02,0.00,1.14,36518121,34542000,1973000,13
0.21,0.21,0.01,0.00,0.51,16039640,15044000,1002000,13
0.19,0.19,0.01,0.00,0.49,16035192,15034000,1002000,13
0.45,0.44,0.02,0.00,1.15,36413729,34327000,1961000,13
0.47,0.46,0.02,0.00,1.18,38115992,36083000,2004000,13
0.27,0.27,0.01,0.00,0.72,23102146,22097000,1004000,13
0.46,0.45,0.02,0.00,1.17,36691867,33712000,2974000,13
0.60,0.57,0.03,0.00,1.44,47402822,45339000,2015000,13
0.91,0.89,0.04,0.00,2.25,74756150,72744000,1992000,13
0.91,0.88,0.04,0.00,2.22,74368301,74347000,0,13
0.27,0.27,0.01,0.00,0.68,23657325,22683000,986000,13
0.29,0.28,0.01,0.00,0.73,23299235,23287000,0,13
0.95,0.92,0.04,0.00,2.32,78227907,76206000,2005000,13
0.46,0.45,0.02,0.00,1.13,37399260,36405000,983000,13
0.47,0.46,0.02,0.00,1.15,36990349,35974000,999000,13
0.94,0.91,0.04,0.00,2.32,76281287,75276000,1003000,13
9.04,8.76,0.40,0.00,21.86,770798574,763492000,7004000,14
11.80,11.46,0.50,0.00,28.27,958879834,950820000,7998000,14
5.61,5.45,0.24,0.00,13.51,461266675,460147000,1000000,14
1.07,1.04,0.05,0.00,2.72,94731473,93729000,997000,14
8.13,7.89,0.35,0.00,19.94,680121038,674910000,4991000,14
12.18,11.80,0.62,0.00,30.31,1057721517,1049574000,7996000,14
5.69,5.52,0.24,0.00,13.76,472937776,471829000,999000,14
18.34,17.78,0.84,0.00,45.17,1576080106,1567012000,9000000,14
16.04,15.54,0.74,0.00,39.98,1405020684,1389004000,16000000,14
11.80,11.43,0.54,0.00,29.48,1025964516,1011833000,13997000,14
5.44,5.28,0.24,0.00,13.29,469167745,468155000,1000000,14
6.20,6.01,0.28,0.00,14.99,522717066,519690000,2998000,14
6.20,6.01,0.29,0.00,15.04,525562453,517424000,8006000,14
16.42,15.92,0.75,0.00,40.35,1405428025,1395400000,9995000,14
16.31,15.81,0.75,0.00,40.46,1409407180,1400136000,9000000,14
2.11,2.05,0.10,0.00,5.30,186575790,169526000,16952000,14
9.16,8.86,0.42,0.00,22.72,801265208,791181000,9989000,14
25.88,25.09,1.19,0.00,63.19,2228153562,2206932000,20999000,14
11.71,11.35,0.54,0.00,29.32,1015069562,1004978000,9999000,14
15.39,14.92,0.69,0.00,38.05,1325853563,1314810000,11006000,14
26.05,25.23,1.23,0.00,64.83,2309441956,2295234000,14001000,14
10.21,9.90,0.46,0.00,25.19,868006716,859961000,7999000,14
0.32,0.31,0.02,0.00,0.82,25749636,22754000,2968000,14
18.79,18.23,0.85,0.00,46.30,1599746255,1582657000,16996000,14
2.37,2.30,0.11,0.00,5.87,205591895,199549000,6016000,14
8.68,8.42,0.39,0.00,21.04,725192140,720068000,5000000,14
17.66,17.12,0.78,0.00,43.92,1513315604,1508163000,5000000,14
4.57,4.44,0.20,0.00,11.19,384594874,380462000,4004000,14
3.00,2.91,0.14,0.00,7.98,261541780,246411000,15025000,14
15.28,14.80,0.71,0.00,38.13,1338185827,1321072000,17000000,14
7.54,7.30,0.35,0.00,18.99,641325180,635251000,6002000,14
8.18,7.93,0.37,0.00,19.81,689797976,683767000,5997000,14
16.67,16.14,0.75,0.00,41.46,1446030129,1434907000,10999000,14
10.16,9.86,0.47,0.00,25.06,858456377,841425000,16988000,14
7.22,7.01,0.32,0.00,17.73,611754803,607620000,3997000,14
31.36,30.43,1.38,0.00,77.92,2626530631,2613998000,11995000,14
5.47,5.31,0.24,0.00,13.29,464031450,462988000,999000,14
20.50,19.87,0.94,0.00,50.72,1774577394,1761205000,12994000,14
20.69,20.04,0.93,0.00,50.79,1807869046,1803705000,3999000,14
3.64,3.50,0.20,0.00,9.21,319087917,259964000,58991000,14
20.42,19.79,0.94,0.00,50.39,1770492479,1757278000,13002000,14
15.22,14.76,0.68,0.00,37.24,1299959915,1288769000,10998000,14
18.56,17.99,0.85,0.00,45.38,1586943170,1573740000,12997000,14
20.02,19.40,0.93,0.00,49.67,1764546781,1752476000,12003000,14
5.39,5.22,0.24,0.00,13.05,457436918,455427000,1997000,14
18.78,18.19,0.86,0.00,46.25,1619172936,1608141000,11000000,14
4.87,4.71,0.21,0.00,11.78,412255776,411154000,1000000,14
18.80,18.22,0.86,0.00,46.40,1622284315,1613111000,9000000,14
3.21,3.11,0.15,0.00,7.96,281231904,280092000,1000000,14
15.53,15.04,0.71,0.00,38.46,1352348435,1333324000,19004000,14
17.99,17.42,0.84,0.00,44.53,1581739199,1563695000,17996000,14
19.18,18.60,0.87,0.00,47.37,1644023318,1632721000,10998000,14
11.67,11.31,0.53,0.00,28.77,1006660255,994636000,11995000,14
9.52,9.23,0.44,0.00,23.09,792892217,780722000,11995000,14
10.21,9.91,0.45,0.00,24.96,864607611,859439000,5002000,14
19.44,18.86,0.87,0.00,47.34,1638258664,1625984000,11999000,14
18.88,18.31,0.85,0.00,46.22,1604213280,1589963000,13999000,14
16.75,16.24,0.77,0.00,40.95,1442288902,1429790000,11998000,14
21.03,20.38,0.97,0.00,51.59,1800640117,1789608000,10997000,14
3.91,3.79,0.17,0.00,9.55,338355872,337347000,1001000,14
19.57,18.97,0.88,0.00,47.54,1651379007,1640268000,11001000,14
4.44,4.28,0.22,0.00,11.00,386491616,355415000,30949000,14
21.75,21.07,1.00,0.00,53.72,1892086765,1875670000,15997000,14
11.10,10.77,0.51,0.00,27.26,933299924,918247000,14987000,14
8.73,8.46,0.39,0.00,21.25,748111634,742895000,4999000,14
15.81,15.33,0.72,0.00,39.02,1362508016,1352116000,9993000,14
26.07,25.26,1.19,0.00,64.55,2258069923,2240834000,16998000,14
13.52,13.11,0.60,0.00,32.62,1143800101,1128767000,14996000,14
18.68,18.11,0.85,0.00,45.86,1593282476,1580246000,12993000,14
11.04,10.68,0.50,0.00,27.27,972075375,970902000,999000,14
10.81,10.48,0.49,0.00,26.39,917027249,899958000,16999000,14
2.02,1.95,0.10,0.00,5.19,186903498,184892000,1998000,14
1.44,1.40,0.07,0.00,3.80,126202880,121146000,5006000,14
6.29,6.11,0.28,0.00,15.30,514795944,503706000,10993000,14
15.50,15.02,0.70,0.00,38.44,1327340238,1311249000,16003000,14
16.56,16.03,0.77,0.00,41.76,1466471455,1450342000,16003000,14
1.59,1.54,0.07,0.00,4.09,144961186,143951000,999000,14
29.20,28.32,1.26,0.00,71.10,2459539622,2458236000,1000000,14
4.63,4.49,0.21,0.00,11.36,389097297,383070000,6001000,14
10.80,10.47,0.50,0.00,26.84,914338896,902209000,12002000,14
1.66,1.60,0.07,0.00,4.00,133062771,130598000,2009000,15
2.88,2.79,0.16,0.00,7.31,244913805,235791000,8992000,15
1.64,1.58,0.07,0.00,3.89,133547678,129516000,3985000,15
1.91,1.85,0.08,0.00,4.61,156769894,151656000,4988000,15
1.68,1.63,0.07,0.00,4.09,138744933,136591000,2008000,15
0.89,0.87,0.04,0.00,2.17,74150276,72133000,2003000,15
1.78,1.72,0.08,0.00,4.31,144616945,141118000,2981000,15
2.63,2.55,0.11,0.00,6.25,208016741,206993000,1004000,15
4.18,4.06,0.19,0.00,10.27,360184771,353155000,7003000,15
2.60,2.53,0.11,0.00,6.18,204066947,202094000,1991000,15
1.31,1.27,0.06,0.00,3.17,106639119,101557000,4978000,15
1.70,1.65,0.07,0.00,4.13,141503116,138500000,2989000,15
1.82,1.76,0.08,0.00,4.46,151801259,144793000,6990000,15
1.56,1.52,0.07,0.00,3.77,129307982,128294000,1002000,15
2.49,2.42,0.10,0.00,5.99,197070522,193039000,4000000,15
1.67,1.62,0.07,0.00,4.12,143313911,141305000,2004000,15
1.56,1.51,0.07,0.00,3.87,137653689,134319000,2984000,15
1.66,1.61,0.08,0.00,4.17,148144130,145020000,3000000,15
1.55,1.50,0.07,0.00,3.80,129435947,125434000,3982000,15
3.41,3.32,0.17,0.00,8.55,280451297,274402000,6008000,15
1.10,1.07,0.05,0.00,2.78,94787179,92773000,1995000,15
1.67,1.62,0.07,0.00,4.09,139473798,136475000,2988000,15
1.54,1.50,0.07,0.00,3.76,129340178,127312000,2004000,15
2.73,2.65,0.11,0.00,6.64,217619276,212596000,4990000,15
1.46,1.42,0.06,0.00,3.55,120505213,117377000,3009000,15
5.15,4.99,0.22,0.00,12.47,433958416,432925000,999000,15
1.71,1.67,0.07,0.00,4.19,142389504,142233000,0,15
1.26,1.22,0.05,0.00,3.09,104819568,100802000,3992000,15
1.58,1.54,0.07,0.00,3.83,130156861,129089000,1000000,15
11.27,10.91,0.51,0.00,27.76,1000163672,998899000,999000,15
1.68,1.63,0.08,0.00,4.21,142724400,141707000,997000,15
1.60,1.55,0.07,0.00,3.84,130993267,128852000,1997000,15
2.95,2.87,0.12,0.00,7.14,233856129,230837000,2997000,15
2.61,2.53,0.11,0.00,6.25,205292691,203265000,2002000,15
18.56,18.01,0.83,0.00,44.77,1540742749,1532498000,8002000,15
1.71,1.66,0.07,0.00,4.15,141138063,140005000,1000000,15
1.28,1.24,0.06,0.00,3.13,106065687,100885000,4994000,15
1.22,1.18,0.05,0.00,3.02,103991120,99973000,3998000,15
2.62,2.56,0.11,0.00,6.38,210836606,205828000,4995000,15
1.72,1.67,0.07,0.00,4.20,143457674,140459000,2988000,15
8.87,8.59,0.40,0.00,21.75,776731558,770697000,5997000,15
1.67,1.62,0.08,0.00,4.13,144166651,142129000,2001000,15
1.57,1.53,0.07,0.00,3.87,131454625,128425000,3009000,15
6.28,6.08,0.33,0.00,15.75,561047608,556937000,3999000,15
2.65,2.57,0.11,0.00,6.46,210838694,204824000,5994000,15
1.26,1.23,0.06,0.00,3.10,107872106,99886000,7990000,15
2.80,2.72,0.12,0.00,6.85,223235901,220215000,3002000,15
1.22,1.19,0.06,0.00,3.08,105431764,103349000,1987000,15
1.59,1.55,0.07,0.00,3.92,131222244,128015000,3000000,15
1.61,1.56,0.07,0.00,3.91,132630007,129620000,2991000,15
1.24,1.20,0.05,0.00,3.12,105001774,103870000,998000,15
1.74,1.69,0.08,0.00,4.31,145635500,137534000,7973000,15
1.77,1.71,0.08,0.00,4.35,144292006,141261000,2984000,15
1.96,1.90,0.09,0.00,4.89,168022392,165004000,3000000,15
2.79,2.71,0.11,0.00,6.66,212106569,209065000,3000000,15
2.68,2.60,0.11,0.00,6.46,210664576,206696000,3994000,15
1.38,1.34,0.06,0.00,3.40,112789109,112636000,0,15
1.41,1.38,0.06,0.00,3.40,113378368,111355000,2006000,15
2.64,2.57,0.11,0.00,6.38,208977427,207936000,999000,15
2.02,1.96,0.09,0.00,4.91,167070674,159695000,6986000,15
1.56,1.51,0.07,0.00,3.86,132553015,130542000,2008000,15
2.62,2.54,0.11,0.00,6.35,209748344,207734000,1997000,15
2.58,2.51,0.11,0.00,6.28,204883744,202698000,1997000,15
1.43,1.40,0.06,0.00,3.50,120609602,119596000,1005000,15
2.63,2.56,0.11,0.00,6.41,208588549,205548000,3008000,15
6.29,6.08,0.33,0.00,15.74,553241997,551089000,2000000,15
2.65,2.57,0.11,0.00,6.36,207344990,206330000,1001000,15
2.54,2.46,0.11,0.00,6.32,212625943,211486000,1002000,15
1.70,1.65,0.07,0.00,4.15,141169513,137055000,4001000,15
1.73,1.68,0.07,0.00,4.26,144865080,141748000,2994000,15
2.83,2.75,0.12,0.00,6.87,224917510,222902000,1999000,15
5.20,5.05,0.22,0.00,12.73,437605415,434478000,2996000,15
7.43,7.19,0.39,0.00,18.32,643563042,621446000,21980000,15
2.65,2.58,0.11,0.00,6.53,208602482,208609000,0,15
4.09,3.95,0.18,0.00,10.06,358056321,354029000,4000000,15
6.11,5.92,0.30,0.00,15.80,522030221,513920000,7998000,15
1.27,1.24,0.06,0.00,3.15,107418066,104409000,3011000,15
1.57,1.52,0.07,0.00,3.85,129970742,124958000,4998000,15
1.75,1.70,0.07,0.00,4.30,142636871,140623000,1994000,15
2.62,2.56,0.11,0.00,6.30,204495023,203446000,1002000,15
12.68,12.33,0.50,0.00,28.86,974619998,971310000,3000000,16
9.03,8.78,0.36,0.00,21.85,696680968,694564000,2001000,16
4.35,4.21,0.22,0.00,11.18,367385600,236763000,6526000,16
1.11,1.08,0.07,0.00,2.72,91243000,6663000,0,16
20.52,19.92,0.86,0.00,48.75,1684926938,1683574000,999000,16
5.44,5.27,0.25,0.00,13.25,472413995,468380000,4003000,16
14.47,14.08,0.57,0.00,33.08,1119511930,1113461000,5997000,16
6.31,6.13,0.26,0.00,14.54,490530835,488499000,2002000,16
5.40,5.25,0.23,0.00,13.03,445597442,441551000,3995000,16
14.23,13.83,0.57,0.00,32.69,1100222603,1097032000,3000000,16
5.70,5.52,0.25,0.00,13.72,479808215,477794000,2003000,16
12.09,11.73,0.50,0.00,28.29,964257145,954228000,10002000,16
8.09,7.86,0.33,0.00,18.70,628876992,625828000,2999000,16
14.07,13.68,0.57,0.00,32.88,1110018366,1106978000,2999000,16
5.28,5.12,0.23,0.00,13.55,442729780,440599000,1998000,16
14.41,14.01,0.56,0.00,32.88,1098249586,1096155000,2000000,16
12.06,11.74,0.46,0.00,27.27,900822835,896694000,3998000,16
7.93,7.71,0.33,0.00,18.52,637482879,634464000,3002000,16
19.35,18.81,0.76,0.00,44.21,1483260288,1479008000,3997000,16
18.35,17.85,0.73,0.00,45.06,1427929256,1415906000,11999000,16
30.16,29.23,1.79,0.00,70.94,2352753069,2343678000,8998000,16
23.13,22.47,0.95,0.00,53.98,1850549859,1845244000,4997000,16
5.67,5.51,0.24,0.00,14.57,475164996,473166000,2000000,16
5.74,5.56,0.24,0.00,14.57,469264149,465177000,3992000,16
6.38,6.20,0.27,0.00,15.25,523815092,519812000,4006000,16
15.90,15.46,0.65,0.00,37.22,1257373176,1252200000,5000000,16
20.87,20.26,0.88,0.00,49.63,1711288182,1707083000,4000000,16
14.32,13.92,0.57,0.00,33.27,1103473550,1096344000,6995000,16
13.74,13.35,0.56,0.00,32.45,1095086794,1089961000,4995000,16
8.71,8.45,0.47,0.00,20.54,672612301,666473000,5995000,16
23.93,23.23,1.01,0.00,57.18,1964195080,1958775000,4996000,16
18.15,17.64,0.73,0.00,42.23,1423841125,1423559000,0,16
6.46,6.27,0.29,0.00,15.90,567599212,562582000,5005000,16
5.83,5.66,0.25,0.00,13.98,482001423,479960000,1999000,16
19.94,19.36,0.84,0.00,47.61,1644348546,1639300000,4997000,16
7.73,7.51,0.31,0.00,18.02,593851001,585738000,8010000,16
23.62,22.90,1.31,0.00,56.02,1878402433,1731262000,146937000,16
5.32,5.16,0.23,0.00,13.68,446622649,443492000,2996000,16
1.06,1.02,0.07,0.00,2.77,93349424,1122000,5050000,16
13.44,13.06,0.71,0.00,31.41,1058360600,1054337000,4001000,16
12.89,12.52,0.52,0.00,30.20,1019612475,1018458000,999000,16
8.56,8.32,0.35,0.00,20.01,683299404,678280000,5002000,16
17.27,16.79,0.71,0.00,40.37,1382388510,1380315000,2000000,16
43.01,41.73,1.84,0.00,102.66,3575612194,3573811000,999000,16
24.17,23.50,0.96,0.00,55.93,1889099936,1885892000,2999000,16
14.93,14.52,0.58,0.00,34.16,1138243477,1137144000,1000000,16
5.28,5.12,0.23,0.00,13.59,442496163,439376000,3002000,16
5.55,5.39,0.24,0.00,13.45,474767167,471748000,2998000,16
13.78,13.40,0.56,0.00,32.04,1088098115,1085964000,1999000,16
13.46,13.04,0.70,0.00,34.58,1111715683,970706000,140957000,16
20.85,20.26,0.86,0.00,49.05,1686709587,1684423000,1999000,16
14.29,13.86,0.61,0.00,34.25,1190055594,1185866000,3999000,16
14.08,13.69,0.55,0.00,32.20,1076332289,1073152000,3000000,16
6.02,5.85,0.25,0.00,14.05,475040151,469017000,6000000,16
8.72,8.47,0.36,0.00,20.55,694325966,693148000,1000000,16
4.56,4.43,0.20,0.00,11.73,380277248,376112000,4001000,16
6.79,6.60,0.28,0.00,15.89,532860720,530818000,2003000,16
12.24,11.90,0.49,0.00,28.53,964071985,958946000,4994000,16
16.14,15.70,0.64,0.00,37.24,1252204690,1246928000,4995000,16
14.33,13.94,0.56,0.00,32.78,1097032277,1094933000,1998000,16
8.55,8.31,0.34,0.00,19.62,661520185,657486000,3996000,16
8.16,7.95,0.32,0.00,18.56,610114893,604115000,6001000,16
17.89,17.37,0.75,0.00,42.56,1471101290,1467893000,2999000,16
19.91,19.37,0.79,0.00,45.43,1527234903,1519826000,6999000,16
10.23,9.94,0.42,0.00,23.87,807435243,804370000,3001000,16
18.12,17.62,0.73,0.00,42.02,1419165393,1415011000,4000000,16
1.14,1.10,0.07,0.00,3.01,96756726,5837000,5623000,16
3.93,3.82,0.16,0.00,9.13,302075046,298052000,3987000,16
16.78,16.33,0.66,0.00,38.37,1281137513,1276024000,5000000,16
18.69,18.18,0.74,0.00,42.95,1440257506,1439209000,1000000,16
5.11,4.96,0.22,0.00,12.21,424168474,422111000,2000000,16
13.58,13.22,0.52,0.00,30.86,1017280636,1011993000,4999000,16
23.31,22.63,0.97,0.00,54.87,1888790254,1881502000,6998000,16
14.05,13.67,0.55,0.00,32.02,1072935485,1068914000,3999000,16
22.37,21.74,0.90,0.00,52.02,1754014854,1750962000,2999000,16
7.94,7.72,0.31,0.00,18.04,599708204,593615000,5996000,16
14.19,13.81,0.56,0.00,32.41,1084439528,1080417000,4001000,16
17.40,16.90,0.71,0.00,40.62,1379662181,1371343000,7996000,16
5.41,5.26,0.22,0.00,12.79,423635521,417606000,5994000,16
23.39,22.70,1.00,0.00,56.44,1935882370,1925849000,9999000,16
5.09,4.94,0.21,0.00,12.59,412858091,406499000,6007000,17
21.33,20.75,0.85,0.00,48.57,1651766931,1645412000,5997000,17
4.45,4.31,0.21,0.00,11.19,411073432,407059000,4000000,17
8.89,8.65,0.35,0.00,20.29,685998444,683980000,1999000,17
12.80,12.45,0.50,0.00,29.40,971204600,968170000,3000000,17
20.71,20.08,0.90,0.00,49.55,1751958223,1747817000,3999000,17
7.87,7.59,0.41,0.00,20.71,789882012,784841000,4998000,17
9.93,9.65,0.42,0.00,23.36,807644583,805601000,1999000,17
10.13,9.86,0.41,0.00,23.23,788985051,786966000,1999000,17
9.69,9.37,0.46,0.00,24.23,886833798,882688000,3998000,17
8.66,8.39,0.38,0.00,22.38,743290798,737273000,6002000,17
15.35,14.94,0.60,0.00,34.94,1178718289,1174612000,3998000,17
5.17,5.02,0.22,0.00,13.00,425947486,420790000,4997000,17
5.61,5.43,0.27,0.00,14.14,515278880,510257000,5002000,17
9.73,9.42,0.45,0.00,24.18,873225907,870174000,3000000,17
5.04,4.86,0.25,0.00,13.19,489910167,483823000,5997000,17
2.08,2.02,0.09,0.00,5.04,173149299,171105000,2001000,17
1.43,1.37,0.10,0.00,3.93,133962533,6144000,7090000,17
4.73,4.58,0.22,0.00,12.67,422637314,417602000,4995000,17
13.55,13.16,0.56,0.00,31.53,1076576998,1071542000,4997000,17
19.98,19.42,0.81,0.00,46.85,1588043213,1585628000,1999000,17
12.29,11.96,0.49,0.00,28.39,957022968,955943000,999000,17
1.15,1.11,0.07,0.00,3.02,97929466,4798000,7628000,17
6.88,6.70,0.27,0.00,15.86,525255137,519207000,6002000,17
20.93,20.32,0.87,0.00,49.13,1697597591,1693513000,3998000,17
5.98,5.78,0.28,0.00,16.13,551193725,546175000,5001000,17
16.91,16.42,0.70,0.00,39.56,1361216328,1359166000,2000000,17
9.10,8.86,0.35,0.00,20.77,691547522,689526000,1998000,17
25.96,25.04,1.32,0.00,68.00,2584994543,2579611000,4999000,17
4.84,4.68,0.22,0.00,12.81,427369260,423242000,4002000,17
19.42,18.84,0.83,0.00,46.88,1634868858,1624762000,9998000,17
8.70,8.46,0.35,0.00,21.67,689474724,684184000,5001000,17
12.85,12.50,0.51,0.00,29.47,984012068,982980000,999000,17
9.45,9.18,0.38,0.00,21.94,735588741,732420000,3001000,17
18.58,18.03,0.79,0.00,44.61,1549871980,1548685000,999000,17
9.00,8.76,0.36,0.00,21.01,699890623,694782000,4998000,17
28.92,28.07,1.22,0.00,69.29,2380615650,2377253000,2999000,17
7.75,7.49,0.37,0.00,19.86,720901968,714874000,5998000,17
13.58,13.20,0.56,0.00,32.00,1101337597,1097105000,4000000,17
6.78,6.58,0.28,0.00,15.78,531265735,525248000,6002000,17
18.40,17.83,0.81,0.00,44.64,1582968501,1581717000,999000,17
5.75,5.56,0.28,0.00,14.54,534534836,529453000,4994000,17
5.75,5.57,0.25,0.00,14.77,480542124,476425000,4003000,17
6.42,6.23,0.27,0.00,16.21,520156981,516136000,4001000,17
3.52,3.38,0.20,0.00,10.01,392246498,386222000,6003000,17
6.43,6.23,0.27,0.00,15.37,522513023,520360000,2001000,17
8.27,8.03,0.33,0.00,19.37,651387692,650217000,1000000,17
4.25,4.10,0.21,0.00,11.02,404809029,401788000,2998000,17
12.27,11.92,0.50,0.00,28.94,984909954,982712000,1999000,17
8.28,8.03,0.35,0.00,21.23,683890823,680718000,2998000,17
8.10,7.87,0.33,0.00,19.04,648162471,644961000,2999000,17
5.67,5.49,0.27,0.00,14.37,511248609,505187000,6002000,17
18.82,18.28,0.77,0.00,44.36,1505890510,1503865000,2001000,17
5.07,4.92,0.22,0.00,13.01,425063284,422935000,1999000,17
5.96,5.79,0.26,0.00,14.41,496352209,493322000,2995000,17
7.74,7.53,0.31,0.00,17.81,592971436,591919000,1001000,17
5.31,5.12,0.26,0.00,14.71,505464984,499328000,6003000,17
5.20,5.02,0.26,0.00,13.57,501742598,499719000,2002000,17
7.70,7.48,0.32,0.00,17.96,608901404,602805000,5998000,17
7.47,7.25,0.32,0.00,17.93,618777103,616647000,1998000,17
11.92,11.59,0.48,0.00,27.96,944521192,941379000,2998000,17
3.64,3.49,0.21,0.00,11.48,417795213,415768000,1998000,17
5.36,5.21,0.23,0.00,13.92,450565903,445541000,5006000,17
12.38,12.03,0.49,0.00,28.76,958501742,954366000,4001000,17
9.30,9.04,0.36,0.00,21.50,710188237,708144000,2000000,17
8.35,8.10,0.35,0.00,21.25,686430916,682335000,4001000,17
4.40,4.24,0.21,0.00,12.17,416746315,410562000,5993000,17
7.17,6.96,0.29,0.00,16.90,573321322,571196000,2000000,17
19.73,19.17,0.80,0.00,46.26,1560559546,1558221000,2000000,17
5.64,5.46,0.26,0.00,15.11,505550448,497538000,7992000,17
9.03,8.77,0.38,0.00,21.26,727940409,722922000,4999000,17
8.10,7.86,0.35,0.00,21.05,688061646,682049000,6000000,17
4.76,4.61,0.22,0.00,11.88,422975509,419957000,2999000,17
4.77,4.61,0.22,0.00,12.69,423898771,418965000,4999000,17
7.38,7.19,0.29,0.00,16.87,554791603,548757000,5997000,17
12.01,11.68,0.49,0.00,28.34,960983018,957966000,2999000,17
13.91,13.50,0.58,0.00,32.78,1124193774,1118143000,6000000,17
25.37,24.63,1.07,0.00,60.68,2085072506,2081009000,4000000,17
19.17,18.63,0.79,0.00,45.51,1536629496,1530501000,5998000,17
18.64,18.10,0.78,0.00,44.62,1529020225,1524824000,3999000,17
8.35,8.10,0.47,0.00,19.53,658904366,655412000,3001000,18
5.54,5.37,0.33,0.00,12.84,422040657,416951000,4999000,18
8.47,8.24,0.33,0.00,19.33,649717845,649630000,0,18
6.05,5.87,0.36,0.00,14.11,466209535,463088000,3000000,18
2.54,2.45,0.20,0.00,6.11,200321830,197287000,3004000,18
27.11,26.28,1.43,0.00,64.22,2148844011,2012761000,135983000,18
5.65,5.46,0.26,0.00,14.09,511387901,509358000,2001000,18
9.22,8.96,0.49,0.00,21.26,704848209,697723000,6997000,18
3.85,3.72,0.18,0.00,9.50,337415399,333274000,3991000,18
12.53,12.19,0.64,0.00,29.03,958621461,955545000,3001000,18
26.71,25.90,1.43,0.00,63.52,2148604849,1997448000,151033000,18
0.50,0.48,0.02,0.00,1.21,38544244,35466000,3039000,18
3.31,3.21,0.13,0.00,7.71,258353547,256341000,2002000,18
20.47,19.90,0.99,0.00,47.74,1604363683,1599932000,3999000,18
12.70,12.17,1.14,0.00,30.90,1007954826,996872000,10998000,18
4.22,4.09,0.28,0.00,10.28,342540394,338509000,4006000,18
8.58,8.32,0.49,0.00,20.79,699669470,696652000,2998000,18
12.52,12.16,0.53,0.00,29.45,1012939498,1010795000,1999000,18
1.21,1.16,0.09,0.00,3.61,131117081,1036000,5183000,18
4.53,4.37,0.32,0.00,11.33,391804338,384748000,7013000,18
28.22,27.34,1.50,0.00,67.59,2280671885,2141614000,138974000,18
8.37,8.12,0.48,0.00,20.08,681378518,676162000,5001000,18
26.17,25.35,1.40,0.00,62.53,2105355818,1965333000,139952000,18
1.09,1.05,0.07,0.00,2.86,91609876,2079000,4158000,18
0.53,0.52,0.03,0.00,1.30,41840695,37801000,3979000,18
15.40,14.91,0.82,0.00,40.86,1359645608,1208649000,150956000,18
10.10,9.78,0.45,0.00,24.60,869510915,865404000,3997000,18
3.21,3.10,0.24,0.00,7.90,266438055,262323000,4004000,18
4.43,4.28,0.31,0.00,11.00,380919784,373810000,6996000,18
18.02,17.53,0.86,0.00,41.48,1388453073,1384667000,2999000,18
6.40,6.22,0.27,0.00,15.03,514827869,510756000,3998000,18
7.72,7.49,0.44,0.00,18.25,610875715,605777000,4998000,18
9.62,9.34,0.41,0.00,22.96,794167788,792134000,2000000,18
1.08,1.05,0.07,0.00,2.83,91351342,1050000,5252000,18
4.00,3.86,0.28,0.00,9.88,338743752,334641000,4007000,18
10.71,10.39,0.56,0.00,26.71,847688989,710523000,137101000,18
8.86,8.60,0.48,0.00,20.59,670833611,662807000,7997000,18
32.26,31.28,1.65,0.00,76.60,2587922133,2441815000,145988000,18
14.94,14.51,0.79,0.00,36.23,1242714320,1235388000,6996000,18
4.66,4.50,0.32,0.00,11.45,386606004,381517000,5006000,18
4.03,3.88,0.29,0.00,9.93,335936507,329764000,5995000,18
5.86,5.68,0.27,0.00,14.30,505159929,503147000,1996000,18
12.96,12.59,0.68,0.00,30.34,1010128721,1007489000,1998000,18
7.74,7.52,0.42,0.00,17.98,579663433,573598000,5995000,18
27.92,27.05,1.46,0.00,66.53,2222761562,2070737000,151980000,18
6.51,6.30,0.39,0.00,15.74,525263498,521228000,4001000,18
1.07,1.04,0.07,0.00,2.83,92150152,6253000,0,18
12.99,12.56,0.71,0.00,34.85,1139639410,1016648000,122957000,18
11.37,11.05,0.58,0.00,26.65,872251106,868234000,4001000,18
12.09,11.65,0.91,0.00,29.47,960248121,956207000,4000000,18
22.19,21.50,1.24,0.00,52.53,1751942538,1605916000,145992000,18
8.65,8.39,0.49,0.00,20.77,699047521,694907000,3999000,18
15.14,14.70,0.80,0.00,36.09,1228045965,1221806000,5999000,18
19.26,18.70,0.81,0.00,45.38,1553093016,1550903000,1999000,18
19.02,18.43,0.98,0.00,46.19,1612739906,1608617000,4001000,18
7.57,7.35,0.42,0.00,17.47,564306145,558280000,6003000,18
6.36,6.18,0.27,0.00,15.03,514249229,514005000,0,18
36.46,35.26,1.92,0.00,92.32,3354447377,3349991000,3999000,18
1.08,1.04,0.07,0.00,2.84,91782615,6132000,0,18
6.48,6.28,0.40,0.00,15.93,548465916,546427000,1997000,18
18.82,18.26,0.96,0.00,45.41,1567207248,1563066000,4000000,18
20.72,20.12,0.86,0.00,48.50,1660300280,1659132000,1000000,18
8.60,8.37,0.34,0.00,19.63,650202672,649150000,1000000,18
4.45,4.30,0.30,0.00,10.87,371668498,362648000,8991000,18
20.99,20.34,1.20,0.00,50.10,1678856588,1535816000,142982000,18
14.77,14.36,0.60,0.00,34.37,1170292866,1165106000,5000000,18
9.76,9.46,0.44,0.00,23.84,843114051,839945000,2999000,18
4.17,4.03,0.29,0.00,10.42,357137835,350910000,5998000,18
8.90,8.64,0.47,0.00,20.73,681816640,677692000,3998000,18
37.23,36.13,1.82,0.00,87.37,2927196596,2783032000,144001000,18
9.57,9.30,0.51,0.00,22.36,732735951,727572000,4997000,18
3.71,3.58,0.27,0.00,9.23,315048549,309028000,6000000,18
11.87,11.54,0.62,0.00,27.76,918320533,914044000,4000000,18
3.67,3.55,0.26,0.00,9.03,304649733,297461000,7010000,18
10.52,10.22,0.55,0.00,24.25,791199770,786099000,5000000,18
13.82,13.40,0.76,0.00,33.84,1169956913,1164826000,4999000,18
11.15,10.85,0.57,0.00,25.76,833548947,830431000,3001000,18
24.96,24.19,1.34,0.00,59.20,1980724994,1841669000,138975000,18
24.32,23.60,1.30,0.00,56.83,1871939846,1734858000,136988000,18
18.96,18.40,0.96,0.00,45.40,1564834446,1559526000,4998000,18
8.58,8.31,0.39,0.00,21.33,696598684,634252000,61927000,19
1.35,1.29,0.09,0.00,3.60,124453959,6248000,0,19
1.11,1.07,0.07,0.00,2.84,91884591,1929000,4390000,19
10.58,10.27,0.48,0.00,24.65,838887327,799289000,39014000,19
13.31,12.92,0.64,0.00,30.78,1037468667,976452000,60965000,19
7.02,6.81,0.32,0.00,17.95,588977197,555943000,32996000,19
1.06,1.02,0.07,0.00,2.84,93808166,3227000,3227000,19
1.05,1.01,0.07,0.00,2.86,93399047,1049000,6297000,19
8.03,7.79,0.45,0.00,20.31,644246405,569139000,75018000,19
1.08,1.05,0.07,0.00,2.79,91782512,1276000,5104000,19
8.78,8.54,0.41,0.00,20.35,673468541,631292000,42019000,19
7.21,7.01,0.35,0.00,16.83,556214657,512143000,44012000,19
12.38,12.03,0.56,0.00,28.98,969782310,934653000,35024000,19
5.01,4.86,0.22,0.00,12.53,398786262,367770000,30980000,19
9.87,9.59,0.47,0.00,23.38,801452526,761311000,40016000,19
1.07,1.04,0.07,0.00,2.82,91372514,1935000,4405000,19
6.86,6.66,0.33,0.00,16.10,541034150,509908000,30994000,19
1.09,1.05,0.07,0.00,2.82,91907481,2034000,4069000,19
9.49,9.21,0.44,0.00,22.29,757132673,722093000,35004000,19
6.32,6.13,0.31,0.00,14.83,500060632,472038000,28002000,19
14.93,14.49,0.73,0.00,35.31,1214092516,1151052000,63002000,19
1.09,1.05,0.07,0.00,2.88,91775835,971000,5436000,19
1.09,1.05,0.07,0.00,2.81,91976330,1133000,5274000,19
6.74,6.53,0.34,0.00,16.11,552689450,513605000,38970000,19
8.82,8.54,0.49,0.00,21.41,733938572,650781000,82972000,19
3.75,3.63,0.21,0.00,9.31,313909581,279897000,33987000,19
8.01,7.76,0.38,0.00,20.53,673930888,613912000,59991000,19
11.66,11.34,0.50,0.00,26.65,893269057,858221000,35009000,19
3.51,3.41,0.15,0.00,8.39,289460932,287397000,1995000,19
11.70,11.37,0.53,0.00,27.34,924546279,890450000,33979000,19
7.97,7.73,0.37,0.00,20.70,687239838,649193000,38011000,19
10.90,10.58,0.51,0.00,25.99,899105926,864074000,35003000,19
11.91,11.56,0.59,0.00,28.26,961460823,895402000,66029000,19
6.51,6.32,0.31,0.00,15.50,521561894,490534000,30970000,19
4.84,4.70,0.22,0.00,12.23,393181905,367138000,25939000,19
11.48,11.16,0.50,0.00,26.37,885674199,857575000,27986000,19
1.10,1.07,0.07,0.00,2.84,91766369,961000,5407000,19
4.62,4.47,0.22,0.00,11.48,368890498,303797000,64956000,19
11.49,11.15,0.57,0.00,27.18,935170172,867124000,68009000,19
12.46,12.09,0.60,0.00,29.29,982831696,922811000,59987000,19
1.08,1.05,0.07,0.00,2.83,91411983,3116000,3116000,19
11.16,10.84,0.51,0.00,26.08,880210064,838061000,42003000,19
11.89,11.53,0.60,0.00,28.68,977232389,905144000,71931000,19
11.82,11.45,0.62,0.00,29.14,1006360758,930903000,74992000,19
3.28,3.18,0.16,0.00,8.47,270720261,237261000,33036000,19
7.44,7.21,0.40,0.00,17.69,596466506,531506000,64939000,19
10.78,10.47,0.53,0.00,25.28,836152216,772041000,64003000,19
8.87,8.61,0.41,0.00,20.63,680302939,639223000,41014000,19
15.61,15.14,0.84,0.00,37.32,1253923878,1191869000,61993000,19
11.90,11.56,0.53,0.00,27.69,936539061,900529000,35981000,19
6.69,6.48,0.32,0.00,15.71,531592903,495592000,35970000,19
11.85,11.51,0.54,0.00,27.73,937076835,902007000,34961000,19
9.94,9.67,0.44,0.00,22.57,742528156,699516000,42970000,19
11.87,11.51,0.59,0.00,28.29,966113869,906069000,60004000,19
11.44,11.11,0.51,0.00,26.37,887417245,858306000,28976000,19
9.67,9.38,0.46,0.00,23.02,786626000,752497000,33977000,19
11.96,11.63,0.53,0.00,27.63,926015920,888943000,36997000,19
16.76,16.26,0.78,0.00,39.99,1377304481,1351192000,26003000,19
6.56,6.37,0.32,0.00,15.53,520839531,486819000,33987000,19
1.09,1.05,0.07,0.00,2.86,91763147,6411000,0,19
6.88,6.68,0.33,0.00,16.10,541232934,510191000,31011000,19
8.12,7.88,0.36,0.00,20.58,665835450,631819000,33990000,19
7.27,7.05,0.41,0.00,17.30,577159929,494101000,83017000,19
8.60,8.33,0.40,0.00,21.98,718714170,638699000,79962000,19
8.38,8.14,0.39,0.00,19.45,642153610,605109000,37006000,19
4.25,4.13,0.17,0.00,9.89,334918461,333914000,999000,19
12.43,12.07,0.55,0.00,28.88,976037672,939835000,36032000,19
14.02,13.61,0.71,0.00,33.28,1124058463,1053018000,71001000,19
3.30,3.21,0.16,0.00,8.36,270547759,242431000,28049000,19
1.15,1.10,0.07,0.00,2.99,92403888,1068000,5342000,19
8.99,8.71,0.46,0.00,21.46,728298646,671237000,57020000,19
8.76,8.50,0.45,0.00,20.74,696656997,637577000,59053000,19
12.81,12.44,0.59,0.00,30.20,1032865624,996821000,35993000,19
4.84,4.69,0.22,0.00,12.15,389988409,348931000,40991000,19
1.09,1.06,0.07,0.00,2.86,91494992,1050000,5254000,19
12.88,12.52,0.58,0.00,29.93,995647082,958635000,36985000,19
7.18,6.96,0.39,0.00,17.28,579574609,518589000,60951000,19
6.30,6.11,0.31,0.00,14.73,490621296,452619000,37968000,19
11.20,10.89,0.57,0.00,26.34,873631558,796615000,76962000,19
1.08,1.05,0.07,0.00,2.83,91540213,1937000,4462000,19
0.54,0.52,0.03,0.00,1.39,48050101,45740000,1988000,20
0.01,0.02,0.00,0.00,0.03,1466905,1470000,0,20
0.02,0.01,0.00,0.00,0.06,1411811,1418000,0,20
0.01,0.02,0.00,0.00,0.03,1464918,1471000,0,20
0.77,0.74,0.03,0.00,1.85,62388348,58255000,4017000,20
1.10,1.07,0.05,0.00,2.72,90053306,89011000,1000000,20
0.58,0.56,0.02,0.00,1.43,47909931,44902000,2993000,20
2.40,2.33,0.11,0.00,6.19,203542897,197415000,5982000,20
0.92,0.89,0.04,0.00,2.29,75886515,71877000,3993000,20
0.45,0.45,0.02,0.00,1.14,37830534,36821000,995000,20
0.01,0.02,0.00,0.00,0.03,1445492,1393000,0,20
0.82,0.80,0.04,0.00,2.08,67897072,65890000,1996000,20
1.09,1.06,0.05,0.00,2.68,90185199,88153000,2003000,20
0.91,0.88,0.04,0.00,2.25,75136213,73184000,1977000,20
0.43,0.41,0.02,0.00,1.07,34640586,32654000,1979000,20
0.02,0.01,0.00,0.00,0.06,1380587,697000,697000,20
0.20,0.19,0.02,0.00,0.82,36357368,33450000,2951000,20
0.95,0.93,0.04,0.00,2.36,79430755,77413000,1984000,20
0.89,0.86,0.04,0.00,2.26,78192974,76136000,2003000,20
0.75,0.73,0.03,0.00,1.87,62748716,58759000,3983000,20
0.88,0.85,0.04,0.00,2.20,74851818,70839000,3990000,20
0.29,0.28,0.01,0.00,0.71,23090772,22092000,1004000,20
0.72,0.69,0.04,0.00,1.97,70846400,69806000,997000,20
0.92,0.89,0.04,0.00,2.28,76740432,72734000,3985000,20
0.34,0.33,0.02,0.00,0.85,28163621,28154000,0,20
0.75,0.73,0.03,0.00,1.87,63036553,62991000,0,20
0.02,0.02,0.00,0.00,0.06,1377334,1379000,0,20
0.93,0.91,0.04,0.00,2.31,77008908,75963000,999000,20
0.02,0.01,0.00,0.00,0.06,1525217,763000,763000,20
0.48,0.46,0.03,0.00,1.38,51589782,49604000,1984000,20
0.96,0.94,0.04,0.00,2.35,77273307,75244000,2006000,20
0.63,0.61,0.03,0.00,1.58,52812996,47815000,4980000,20
0.28,0.27,0.01,0.00,0.72,22997286,20985000,1998000,20
0.35,0.34,0.02,0.00,1.04,38766777,38669000,0,20
0.93,0.91,0.04,0.00,2.29,77234184,76214000,1002000,20
0.01,0.01,0.00,0.00,0.03,1397647,1401000,0,20
0.29,0.27,0.01,0.00,0.75,24376980,23358000,1015000,20
0.93,0.90,0.04,0.00,2.26,75931982,72923000,2996000,20
0.54,0.52,0.02,0.00,1.37,47319380,43361000,3941000,20
0.40,0.39,0.02,0.00,1.01,34228088,33123000,1003000,20
1.09,1.06,0.05,0.00,2.66,87816828,84820000,2993000,20
0.01,0.01,0.00,0.00,0.03,1409089,1412000,0,20
1.08,1.05,0.05,0.00,2.66,89573717,85528000,4024000,20
0.34,0.33,0.01,0.00,0.83,26875101,25885000,995000,20
0.70,0.68,0.03,0.00,1.76,60159643,59184000,986000,20
0.28,0.28,0.01,0.00,0.73,24403268,24407000,0,20
0.77,0.75,0.04,0.00,1.89,63179777,61010000,2000000,20
0.95,0.92,0.05,0.00,2.42,81473384,74496000,6953000,20
0.75,0.72,0.03,0.00,1.88,62713946,61643000,994000,20
0.45,0.43,0.02,0.00,1.26,45004147,41990000,2999000,20
1.08,1.05,0.05,0.00,2.67,88132661,84102000,4004000,20
2.05,1.98,0.10,0.00,5.37,177509145,172494000,4985000,20
1.06,1.02,0.05,0.00,2.60,87379884,85295000,1983000,20
1.75,1.69,0.08,0.00,4.37,150775701,147755000,3015000,20
1.69,1.64,0.08,0.00,4.56,151009974,145955000,5032000,20
0.90,0.88,0.04,0.00,2.30,76905216,73897000,2995000,20
0.92,0.88,0.04,0.00,2.30,76407030,74406000,1984000,20
0.44,0.43,0.02,0.00,1.10,34924897,32907000,1994000,20
0.74,0.71,0.03,0.00,1.85,60627842,58631000,1987000,20
0.01,0.01,0.00,0.00,0.03,1382629,1387000,0,20
0.89,0.86,0.04,0.00,2.29,78985479,75027000,3948000,20
0.71,0.69,0.03,0.00,1.82,61002760,58992000,1999000,20
0.43,0.43,0.02,0.00,1.12,36695239,33677000,2971000,20
0.92,0.90,0.05,0.00,2.40,85472319,76507000,8942000,20
0.42,0.41,0.02,0.00,1.05,35014972,30952000,3993000,20
0.01,0.01,0.00,0.00,0.03,1427191,1420000,0,20
0.01,0.01,0.00,0.00,0.03,1359427,1389000,0,20
0.95,0.93,0.04,0.00,2.34,76269577,74246000,2006000,20
0.55,0.53,0.03,0.00,1.56,57201434,56167000,1002000,20
0.01,0.01,0.00,0.00,0.03,1369871,1376000,0,20
0.71,0.69,0.03,0.00,1.81,60981474,58903000,1996000,20
0.54,0.52,0.03,0.00,1.54,54087213,52072000,2002000,20
3.97,3.85,0.17,0.00,9.74,335745235,335650000,0,20
0.33,0.32,0.01,0.00,0.85,27433882,22524000,4896000,20
0.99,0.96,0.04,0.00,2.43,79972218,76955000,2998000,20
0.79,0.76,0.06,0.00,2.19,71743157,14941000,56779000,20
0.83,0.80,0.04,0.00,2.04,66878371,63865000,2993000,20
0.90,0.88,0.04,0.00,2.28,75503979,71342000,3963000,20
0.01,0.01,0.00,0.00,0.03,1406770,1382000,0,20
1.10,1.07,0.05,0.00,2.71,89251463,86205000,2972000,20
0.71,0.70,0.03,0.00,1.78,62908238,62528000,0,21
1.29,1.24,0.08,0.00,3.46,117174294,2120000,4241000,21
1.51,1.46,0.07,0.00,3.84,133806751,130789000,2995000,21
0.44,0.43,0.02,0.00,1.11,37161140,31105000,6020000,21
29.39,28.60,1.14,0.00,66.67,2245565851,2244296000,999000,21
0.72,0.70,0.03,0.00,1.84,63467606,62375000,1006000,21
8.97,8.70,0.41,0.00,22.57,770389885,762336000,8003000,21
4.36,4.23,0.22,0.00,10.72,382733439,373647000,8991000,21
2.24,2.17,0.11,0.00,5.43,187962867,181888000,5996000,21
12.06,11.69,0.55,0.00,30.29,1045156936,1036025000,9000000,21
31.38,30.52,1.25,0.00,72.82,2457682483,2456514000,999000,21
0.75,0.73,0.03,0.00,1.91,65738207,65772000,0,21
0.02,0.02,0.00,0.00,0.06,1577350,1582000,0,21
0.80,0.78,0.04,0.00,1.99,69404862,67412000,1982000,21
4.33,4.21,0.18,0.00,10.29,357065135,356064000,1000000,21
1.78,1.73,0.08,0.00,4.38,150358013,143325000,7015000,21
18.20,17.68,0.75,0.00,42.52,1463466778,1461325000,1999000,21
1.63,1.57,0.09,0.00,4.25,140654372,125552000,15066000,21
0.80,0.78,0.04,0.00,2.03,70527655,69452000,992000,21
11.78,11.47,0.46,0.00,26.73,897538421,897504000,0,21
2.75,2.66,0.13,0.00,6.75,232382588,222243000,10010000,21
0.81,0.78,0.04,0.00,2.04,70645768,70630000,0,21
0.86,0.83,0.04,0.00,2.17,76279922,75161000,1002000,21
0.83,0.81,0.04,0.00,2.06,71187773,69072000,2002000,21
4.75,4.60,0.22,0.00,11.62,409334874,405136000,4001000,21
5.96,5.79,0.25,0.00,14.26,495438122,493351000,1997000,21
0.84,0.82,0.04,0.00,2.11,72898616,71891000,998000,21
0.62,0.61,0.03,0.00,1.59,55467498,53472000,1980000,21
4.84,4.69,0.22,0.00,11.81,413665038,407557000,5993000,21
16.76,16.31,0.65,0.00,38.02,1272088042,1270953000,999000,21
7.21,6.97,0.33,0.00,18.84,623224236,615089000,8001000,21
1.20,1.16,0.06,0.00,3.19,105995109,99913000,6055000,21
1.02,0.98,0.05,0.00,2.70,87642338,76577000,10939000,21
1.13,1.10,0.05,0.00,3.00,99827681,93736000,5983000,21
30.33,29.47,1.21,0.00,70.12,2382166472,2379722000,1999000,21
1.00,0.97,0.05,0.00,2.66,86164225,78093000,8009000,21
0.92,0.89,0.04,0.00,2.31,79786201,77687000,1991000,21
29.19,28.39,1.15,0.00,66.72,2243813621,2243488000,0,21
0.83,0.80,0.04,0.00,2.08,71492139,70382000,991000,21
23.40,22.78,0.90,0.00,53.97,1773190835,1772048000,1000000,21
40.08,38.88,1.72,0.00,97.22,3371996781,3370400000,999000,21
15.69,15.27,0.61,0.00,36.51,1193486693,1192265000,1000000,21
1.21,1.17,0.06,0.00,3.04,106266918,106155000,0,21
0.77,0.74,0.03,0.00,1.92,64570407,63484000,991000,21
16.10,15.66,0.62,0.00,36.79,1215769970,1214455000,999000,21
1.64,1.60,0.07,0.00,4.13,144428865,143282000,1001000,21
6.63,6.43,0.31,0.00,16.16,562669914,551628000,11012000,21
7.22,6.99,0.34,0.00,18.24,665840905,664825000,999000,21
0.78,0.76,0.03,0.00,1.96,67996866,66989000,999000,21
0.70,0.68,0.04,0.00,1.90,68802499,63803000,4984000,21
76.05,73.75,3.28,0.00,183.09,6449172094,6447274000,999000,21
1.54,1.49,0.07,0.00,3.82,132830992,130734000,1995000,21
16.65,16.19,0.67,0.00,38.72,1305571632,1303448000,1999000,21
0.74,0.72,0.03,0.00,1.88,65034081,62916000,1997000,21
0.03,0.03,0.00,0.00,0.09,2898955,1931000,965000,21
0.78,0.77,0.04,0.00,1.98,69897829,69762000,0,21
1.17,1.13,0.05,0.00,3.10,100974781,91862000,8986000,21
1.03,1.00,0.05,0.00,2.60,91365860,89295000,1984000,21
16.51,16.04,0.67,0.00,38.75,1314679625,1312345000,1999000,21
5.55,5.40,0.23,0.00,13.12,446296269,445123000,1000000,21
1.19,1.17,0.06,0.00,2.92,100664273,97647000,2989000,21
15.65,15.22,0.61,0.00,35.78,1198202812,1198118000,0,21
1.16,1.13,0.06,0.00,3.08,100195141,94163000,6010000,21
0.87,0.83,0.04,0.00,2.30,74541713,74513000,0,21
15.28,14.88,0.59,0.00,34.94,1149368637,1148267000,999000,21
7.45,7.21,0.34,0.00,18.62,672044608,671069000,1000000,21
0.97,0.94,0.05,0.00,2.70,93850950,81854000,11978000,21
1.16,1.13,0.06,0.00,2.87,98500726,93499000,4973000,21
1.08,1.04,0.07,0.00,2.84,91813815,2263000,3966000,21
15.14,14.67,0.74,0.00,37.53,1314981409,1296963000,17985000,21
0.98,0.94,0.05,0.00,2.50,85983657,71964000,13993000,21
0.77,0.74,0.04,0.00,1.97,67741211,66729000,995000,21
0.81,0.80,0.04,0.00,2.05,70647332,68641000,1989000,21
0.83,0.80,0.04,0.00,2.14,74913484,74882000,0,21
0.67,0.66,0.03,0.00,1.72,59455412,59329000,0,21
5.30,5.15,0.23,0.00,12.99,453716897,452624000,999000,21
8.53,8.31,0.33,0.00,19.61,644679742,642608000,1998000,21
8.38,8.16,0.32,0.00,19.26,625034573,624926000,0,21
0.98,0.95,0.05,0.00,2.69,89900725,83876000,5991000,21
0.77,0.74,0.04,0.00,2.01,70954609,68959000,1998000,21
0.13,0.13,0.01,0.00,0.33,10808175,8460000,1880000,22
0.16,0.15,0.01,0.00,0.40,12513854,12516000,0,22
0.17,0.16,0.01,0.00,0.41,12772882,11771000,980000,22
0.31,0.31,0.01,0.00,0.78,24828583,21828000,2976000,22
0.30,0.30,0.01,0.00,0.72,23527052,23399000,0,22
0.36,0.35,0.02,0.00,0.91,27614305,23577000,3929000,22
0.30,0.30,0.01,0.00,0.74,23109919,22989000,0,22
0.43,0.42,0.02,0.00,1.08,35737041,33731000,1984000,22
0.14,0.14,0.01,0.00,0.34,11521945,8643000,2881000,22
0.16,0.16,0.01,0.00,0.41,13520410,10589000,2887000,22
0.14,0.14,0.01,0.00,0.37,11915443,9931000,1986000,22
0.17,0.17,0.01,0.00,0.42,14861358,13864000,990000,22
0.13,0.13,0.01,0.00,0.35,11912920,9888000,1977000,22
0.16,0.15,0.01,0.00,0.37,12572134,9410000,3136000,22
0.39,0.38,0.02,0.00,0.97,31989833,30976000,999000,22
0.32,0.31,0.01,0.00,0.79,25423666,22365000,3049000,22
0.13,0.14,0.01,0.00,0.34,11710305,10734000,975000,22
0.32,0.31,0.01,0.00,0.81,26521477,25387000,1015000,22
0.16,0.15,0.01,0.00,0.45,15473868,10656000,4843000,22
0.13,0.13,0.01,0.00,0.34,11072320,10069000,1006000,22
0.14,0.14,0.01,0.00,0.37,11760898,9719000,1943000,22
0.15,0.14,0.01,0.00,0.40,12739892,10781000,1960000,22
0.12,0.12,0.01,0.00,0.31,10373319,9334000,1037000,22
0.11,0.12,0.01,0.00,0.28,9755689,9728000,0,22
0.15,0.15,0.01,0.00,0.37,12073576,12069000,0,22
0.29,0.29,0.01,0.00,0.74,23435622,21476000,1952000,22
0.64,0.63,0.03,0.00,1.66,53830122,49812000,3984000,22
0.29,0.29,0.01,0.00,0.74,23706856,21720000,1974000,22
0.28,0.27,0.01,0.00,0.76,27182738,27184000,0,22
0.30,0.29,0.01,0.00,0.78,24891645,22027000,2873000,22
0.15,0.15,0.01,0.00,0.39,12217654,11203000,1018000,22
1.52,1.46,0.10,0.00,4.17,139975023,88968000,50982000,22
0.14,0.14,0.01,0.00,0.34,11701458,10724000,974000,22
0.32,0.32,0.01,0.00,0.80,26409186,26378000,0,22
0.28,0.26,0.02,0.00,0.77,26307276,25240000,1009000,22
0.16,0.15,0.01,0.00,0.40,12446884,11401000,1036000,22
0.13,0.13,0.01,0.00,0.31,10648942,8709000,1935000,22
0.36,0.35,0.02,0.00,0.90,27426033,27308000,0,22
0.30,0.29,0.01,0.00,0.76,24350679,23340000,1014000,22
0.15,0.15,0.01,0.00,0.37,12021988,9895000,1979000,22
0.31,0.30,0.01,0.00,0.78,24140397,22128000,2011000,22
0.15,0.14,0.01,0.00,0.38,11697223,10724000,974000,22
0.33,0.33,0.01,0.00,0.83,26779270,24782000,1982000,22
0.31,0.30,0.01,0.00,0.77,24240048,22215000,2019000,22
0.15,0.15,0.01,0.00,0.37,12170648,11156000,1014000,22
0.31,0.29,0.01,0.00,0.74,23539175,23541000,0,22
0.12,0.12,0.01,0.00,0.31,10092825,8978000,997000,22
0.13,0.13,0.01,0.00,0.34,10704206,10705000,0,22
0.15,0.15,0.01,0.00,0.36,12797339,12798000,0,22
0.14,0.14,0.01,0.00,0.34,11056586,9040000,2008000,22
0.30,0.30,0.01,0.00,0.73,23859406,22822000,992000,22
0.13,0.13,0.01,0.00,0.34,11096170,10067000,1006000,22
0.15,0.15,0.01,0.00,0.43,15064468,11002000,4000000,22
0.15,0.14,0.01,0.00,0.37,11816773,8865000,2955000,22
0.33,0.32,0.01,0.00,0.79,25110559,22082000,3011000,22
0.30,0.30,0.01,0.00,0.74,23718949,22720000,987000,22
0.86,0.84,0.04,0.00,2.15,71202111,65162000,6015000,22
0.12,0.12,0.01,0.00,0.32,10340163,9306000,1034000,22
0.15,0.15,0.01,0.00,0.38,12899811,10911000,1983000,22
0.14,0.14,0.01,0.00,0.35,11394940,9489000,1897000,22
0.16,0.16,0.01,0.00,0.40,13161917,11139000,2025000,22
0.15,0.14,0.01,0.00,0.40,12517629,9656000,2897000,22
0.34,0.34,0.01,0.00,0.86,26044895,25032000,1001000,22
0.29,0.29,0.01,0.00,0.72,23492691,21526000,1956000,22
0.25,0.24,0.02,0.00,0.79,30231207,27203000,3022000,22
0.20,0.19,0.01,0.00,0.49,16119341,15112000,1007000,22
0.34,0.34,0.02,0.00,0.90,26619705,23639000,2954000,22
0.30,0.29,0.01,0.00,0.74,22956982,21952000,997000,22
0.14,0.14,0.01,0.00,0.37,11755380,9786000,1957000,22
0.34,0.34,0.02,0.00,0.88,28211798,25171000,3020000,22
0.16,0.17,0.01,0.00,0.41,13670081,12684000,975000,22
0.34,0.33,0.02,0.00,0.85,26826465,26820000,0,22
0.19,0.19,0.01,0.00,0.59,22862092,19882000,2982000,22
0.33,0.32,0.01,0.00,0.84,26046585,25032000,1001000,22
0.13,0.13,0.01,0.00,0.35,11903826,9913000,1982000,22
0.16,0.15,0.01,0.00,0.41,12320832,11269000,1024000,22
0.31,0.30,0.01,0.00,0.80,23102072,21089000,2008000,22
0.13,0.13,0.01,0.00,0.35,12109081,10087000,2017000,22
0.15,0.15,0.01,0.00,0.38,12684821,10721000,1949000,22
0.18,0.17,0.01,0.00,0.46,14356192,13333000,1025000,22
0.88,0.85,0.04,0.00,2.28,71758878,69317000,2009000,23
2.37,2.30,0.12,0.00,5.98,193123110,185984000,6999000,23
2.40,2.32,0.11,0.00,5.96,193733529,186717000,6989000,23
2.02,1.96,0.10,0.00,5.37,164141764,155974000,7998000,23
1.60,1.54,0.10,0.00,4.27,147857119,130975000,16867000,23
1.29,1.26,0.07,0.00,3.35,111146766,103124000,8009000,23
1.59,1.53,0.09,0.00,4.12,135225629,130173000,4968000,23
1.38,1.35,0.08,0.00,3.75,126514415,118369000,8025000,23
10.67,10.33,0.66,0.00,28.58,962916110,948890000,13998000,23
0.52,0.51,0.02,0.00,1.35,43023378,41997000,999000,23
2.26,2.19,0.11,0.00,5.72,185933343,179906000,5996000,23
1.96,1.91,0.10,0.00,5.00,162621550,160585000,2007000,23
1.33,1.29,0.08,0.00,3.54,115483352,113448000,2007000,23
0.48,0.47,0.02,0.00,1.25,38775170,37768000,993000,23
2.05,1.99,0.10,0.00,5.21,166935075,159767000,7033000,23
0.97,0.95,0.04,0.00,2.49,83666971,82623000,1007000,23
1.61,1.56,0.09,0.00,4.25,138971237,133795000,4992000,23
1.24,1.21,0.07,0.00,3.24,106453784,98392000,8032000,23
1.68,1.61,0.10,0.00,4.42,145110654,132073000,13007000,23
2.07,2.01,0.10,0.00,5.27,169836374,163817000,5993000,23
2.18,2.12,0.11,0.00,5.55,178874207,171851000,6993000,23
2.03,1.98,0.10,0.00,5.10,164688930,158458000,6017000,23
1.56,1.52,0.09,0.00,4.09,135022117,130970000,3999000,23
2.25,2.18,0.11,0.00,5.68,183872741,176759000,6990000,23
0.65,0.64,0.03,0.00,1.69,54380524,54338000,0,23
1.33,1.29,0.07,0.00,3.48,113841257,106822000,6988000,23
1.67,1.62,0.10,0.00,4.38,144231678,139199000,5007000,23
2.28,2.21,0.13,0.00,6.00,202234028,199202000,3003000,23
1.46,1.41,0.09,0.00,3.98,138274476,134252000,4007000,23
1.61,1.56,0.09,0.00,4.19,139077583,133005000,6000000,23
1.32,1.28,0.08,0.00,3.50,114624054,109568000,5026000,23
1.53,1.48,0.09,0.00,4.01,131386400,122203000,9015000,23
2.04,1.98,0.10,0.00,5.16,165862409,156843000,8991000,23
1.32,1.28,0.07,0.00,3.42,111313391,103269000,8020000,23
2.16,2.09,0.11,0.00,5.48,176476933,171440000,5012000,23
1.25,1.20,0.07,0.00,3.25,106311906,100321000,5959000,23
1.48,1.44,0.08,0.00,3.84,126291654,121177000,5007000,23
1.64,1.59,0.09,0.00,4.33,141123034,136041000,5001000,23
1.49,1.44,0.06,0.00,3.79,118494887,116351000,2006000,23
4.42,4.29,0.23,0.00,11.57,387959292,382825000,4997000,23
1.34,1.29,0.08,0.00,3.53,114780634,106655000,7974000,23
1.32,1.28,0.08,0.00,3.51,114506535,107504000,6967000,23
2.03,1.96,0.10,0.00,5.11,163577765,158559000,4986000,23
1.27,1.23,0.07,0.00,3.35,108411010,104368000,4014000,23
2.33,2.26,0.12,0.00,5.95,192742473,186540000,5985000,23
2.08,2.02,0.10,0.00,5.26,169100253,163062000,6002000,23
2.26,2.19,0.11,0.00,5.69,183763960,178782000,4993000,23
2.07,2.01,0.10,0.00,5.26,167587342,159489000,7974000,23
1.46,1.41,0.08,0.00,3.86,123674307,118574000,4982000,23
2.20,2.13,0.12,0.00,5.65,180489307,172388000,7971000,23
2.25,2.19,0.11,0.00,5.69,184491100,178478000,5982000,23
1.70,1.65,0.10,0.00,4.53,148821247,135759000,12977000,23
2.08,2.02,0.11,0.00,5.48,179603174,172567000,6982000,23
1.17,1.14,0.07,0.00,3.26,111663921,107558000,4020000,23
1.66,1.61,0.10,0.00,4.39,144394545,138339000,6014000,23
1.58,1.53,0.08,0.00,4.13,133368340,130314000,3007000,23
1.23,1.20,0.07,0.00,3.30,105006935,100981000,3999000,23
1.56,1.51,0.09,0.00,4.15,132480652,125417000,7023000,23
1.29,1.25,0.07,0.00,3.37,107978234,100955000,6996000,23
1.62,1.56,0.08,0.00,4.21,136359160,133333000,3007000,23
1.33,1.29,0.07,0.00,3.53,114875223,110772000,3991000,23
1.38,1.34,0.09,0.00,3.72,120659459,113541000,7033000,23
2.10,2.04,0.10,0.00,5.43,173163859,165131000,8006000,23
3.21,3.11,0.17,0.00,8.27,276981932,267944000,8998000,23
1.49,1.45,0.08,0.00,3.87,128419890,120434000,7962000,23
2.34,2.27,0.11,0.00,5.97,191816843,185800000,5993000,23
2.86,2.77,0.14,0.00,7.35,238780794,225688000,13039000,23
1.51,1.46,0.08,0.00,3.92,127889012,120802000,6988000,23
1.57,1.51,0.09,0.00,4.10,135538976,129411000,5972000,23
1.26,1.21,0.07,0.00,3.29,106109845,103052000,3001000,23
2.16,2.10,0.11,0.00,5.52,178131427,170106000,8005000,23
1.49,1.44,0.08,0.00,3.91,127348621,124311000,3007000,23
1.22,1.18,0.05,0.00,3.05,95052423,94022000,1000000,23
1.30,1.26,0.07,0.00,3.42,111598410,106439000,5020000,23
2.07,2.00,0.10,0.00,5.30,167358440,165322000,2003000,23
1.61,1.56,0.07,0.00,4.08,128917170,126912000,1998000,23
2.01,1.95,0.10,0.00,5.12,163441242,157409000,6015000,23
2.40,2.33,0.11,0.00,6.11,196062459,193037000,3000000,23
1.38,1.33,0.09,0.00,3.65,119618551,114571000,5025000,23
0.90,0.87,0.04,0.00,2.28,76126234,75110000,1001000,23
3.31,3.21,0.15,0.00,8.34,267559542,264209000,3002000,24
1.39,1.35,0.07,0.00,3.51,113902808,108880000,4994000,24
1.35,1.30,0.07,0.00,3.45,112120777,107090000,5004000,24
1.33,1.28,0.07,0.00,3.36,108744295,103421000,4972000,24
2.04,1.99,0.09,0.00,5.10,163043981,157871000,5027000,24
2.17,2.11,0.11,0.00,5.44,173599842,166589000,6982000,24
2.33,2.26,0.11,0.00,5.82,187206648,185182000,2001000,24
1.41,1.37,0.08,0.00,3.62,118025789,109998000,7999000,24
2.18,2.12,0.11,0.00,5.47,175885232,170763000,4993000,24
2.09,2.02,0.10,0.00,5.24,168798010,162764000,5954000,24
1.60,1.56,0.09,0.00,4.10,133047859,127928000,4997000,24
2.37,2.29,0.13,0.00,6.06,203538466,185552000,17956000,24
2.27,2.19,0.12,0.00,5.77,193349973,188331000,4982000,24
2.25,2.17,0.12,0.00,5.73,190482974,184468000,5982000,24
2.67,2.60,0.12,0.00,6.58,216490657,213414000,3005000,24
2.05,1.99,0.09,0.00,5.15,164756066,159614000,4987000,24
1.33,1.29,0.07,0.00,3.54,121105437,116079000,5003000,24
2.00,1.94,0.11,0.00,5.17,172780707,156806000,15879000,24
1.43,1.38,0.08,0.00,3.70,120743538,116661000,3988000,24
2.19,2.13,0.10,0.00,5.48,173686664,169599000,3990000,24
1.33,1.28,0.07,0.00,3.39,109341368,104253000,4964000,24
2.09,2.02,0.09,0.00,5.15,164569912,161476000,2990000,24
1.45,1.40,0.08,0.00,3.72,122698802,116684000,5983000,24
1.36,1.32,0.07,0.00,3.48,113025350,111877000,998000,24
1.29,1.25,0.07,0.00,3.33,110996878,106943000,3997000,24
1.58,1.53,0.08,0.00,3.95,132456684,131400000,1003000,24
5.67,5.50,0.31,0.00,14.58,496196307,488950000,6999000,24
2.19,2.13,0.10,0.00,5.43,174395695,168205000,6007000,24
5.95,5.75,0.37,0.00,15.19,531107281,442918000,87983000,24
2.24,2.17,0.11,0.00,5.64,182253261,178103000,4002000,24
1.38,1.34,0.08,0.00,3.62,116948350,110803000,5989000,24
1.31,1.27,0.07,0.00,3.40,110198539,108064000,2001000,24
2.26,2.19,0.10,0.00,5.65,181958732,177925000,3998000,24
1.30,1.26,0.07,0.00,3.35,111639582,106628000,4982000,24
1.45,1.40,0.08,0.00,3.75,123720224,114711000,8977000,24
2.03,1.97,0.09,0.00,5.10,164488358,159478000,4983000,24
5.03,4.88,0.31,0.00,12.62,436406273,428358000,8006000,24
2.27,2.21,0.12,0.00,5.88,198299069,193289000,5007000,24
2.07,2.01,0.10,0.00,5.20,167152392,159057000,8002000,24
1.58,1.52,0.08,0.00,4.11,131729227,126704000,4988000,24
1.55,1.50,0.08,0.00,3.96,129786172,123741000,5987000,24
2.07,2.01,0.10,0.00,5.20,165009474,158987000,5999000,24
1.40,1.36,0.07,0.00,3.56,117144926,111110000,6005000,24
2.30,2.24,0.11,0.00,5.70,186571443,183461000,2991000,24
1.32,1.29,0.07,0.00,3.35,111466626,105473000,5970000,24
1.56,1.52,0.09,0.00,4.05,132467293,127431000,5016000,24
2.10,2.04,0.10,0.00,5.23,169049877,165018000,4000000,24
1.30,1.26,0.07,0.00,3.37,109022553,104866000,3994000,24
2.42,2.35,0.12,0.00,6.07,195650426,189608000,5987000,24
1.62,1.57,0.08,0.00,4.08,135942294,132917000,2998000,24
1.32,1.28,0.07,0.00,3.39,108626022,103625000,4982000,24
1.33,1.30,0.07,0.00,3.42,114511428,110514000,3982000,24
2.33,2.26,0.11,0.00,5.94,194918205,189894000,4997000,24
1.43,1.39,0.08,0.00,3.75,120358866,118331000,2005000,24
6.65,6.45,0.30,0.00,16.28,555835705,555827000,0,24
1.48,1.43,0.08,0.00,3.78,124872293,120843000,3994000,24
1.41,1.37,0.08,0.00,3.67,119943955,112833000,6989000,24
1.31,1.28,0.07,0.00,3.33,110689380,106654000,3987000,24
2.03,1.97,0.09,0.00,5.10,163373570,161238000,2002000,24
1.40,1.37,0.07,0.00,3.65,118661440,113424000,4974000,24
1.38,1.34,0.07,0.00,3.57,118057732,113036000,5001000,24
1.69,1.63,0.08,0.00,4.30,142702552,138507000,3985000,24
1.27,1.23,0.06,0.00,3.34,108205860,103151000,5007000,24
1.33,1.29,0.07,0.00,3.46,110579633,103501000,6966000,24
1.51,1.47,0.07,0.00,3.85,128267683,125236000,3005000,24
2.12,2.05,0.10,0.00,5.38,169389195,166360000,3006000,24
1.81,1.75,0.11,0.00,4.80,164013715,154996000,8999000,24
2.59,2.52,0.13,0.00,6.56,216929370,212890000,4016000,24
2.34,2.27,0.11,0.00,5.84,196850974,191829000,4995000,24
2.22,2.15,0.10,0.00,5.55,176409271,167363000,9019000,24
1.55,1.49,0.09,0.00,4.03,130571910,127463000,2987000,24
1.64,1.60,0.09,0.00,4.16,138736845,131625000,6980000,24
2.30,2.23,0.11,0.00,5.72,188372951,182315000,5977000,24
2.85,2.77,0.14,0.00,7.12,232909152,223691000,9027000,24
2.16,2.10,0.11,0.00,5.48,181220840,176066000,5001000,24
2.33,2.25,0.10,0.00,5.75,183599948,178466000,4985000,24
2.03,1.97,0.09,0.00,5.13,164379422,157334000,6970000,24
8.53,8.26,0.47,0.00,22.56,743862260,725691000,17992000,24
2.27,2.20,0.11,0.00,5.69,186352466,180318000,6010000,24
1.30,1.26,0.07,0.00,3.32,107774992,104673000,2990000,24
5.80,5.62,0.28,0.00,14.11,474886965,469477000,5005000,25
1.80,1.74,0.10,0.00,4.50,151240246,143133000,8007000,25
1.36,1.32,0.07,0.00,3.45,113863382,107829000,5990000,25
1.48,1.44,0.08,0.00,3.77,125693902,118631000,7037000,25
2.04,1.98,0.10,0.00,5.08,169756546,166539000,2991000,25
1.42,1.37,0.08,0.00,3.60,118670711,111661000,6978000,25
1.73,1.68,0.09,0.00,4.40,144422710,138368000,5972000,25
1.60,1.55,0.09,0.00,4.04,134882329,125864000,8990000,25
13.24,12.84,0.73,0.00,34.19,1157605467,1148085000,8992000,25
1.32,1.28,0.07,0.00,3.46,111908858,105898000,5938000,25
2.07,2.01,0.10,0.00,5.26,169096142,162066000,7002000,25
5.16,4.99,0.32,0.00,13.72,458772423,445751000,12992000,25
1.49,1.45,0.08,0.00,3.94,129364557,127309000,2004000,25
1.34,1.29,0.09,0.00,3.70,128239172,119218000,8941000,25
2.16,2.10,0.12,0.00,5.54,184321942,176297000,8013000,25
1.34,1.30,0.07,0.00,3.43,112105682,105044000,7002000,25
1.35,1.31,0.07,0.00,3.50,113836135,106814000,6987000,25
1.42,1.37,0.08,0.00,3.64,118064959,109037000,9003000,25
1.38,1.34,0.07,0.00,3.50,115860949,106841000,8986000,25
1.42,1.38,0.08,0.00,3.62,119126166,113089000,6004000,25
1.37,1.33,0.08,0.00,3.54,118172231,105110000,13013000,25
2.13,2.07,0.10,0.00,5.33,172272095,167236000,5007000,25
2.18,2.11,0.10,0.00,5.47,176820552,172813000,3995000,25
2.41,2.31,0.15,0.00,6.58,217571392,91233000,5925000,25
1.70,1.65,0.10,0.00,4.41,146924664,132937000,13888000,25
2.08,2.00,0.12,0.00,5.37,173341261,86257000,1515000,25
1.74,1.68,0.10,0.00,4.51,150019848,142987000,6999000,25
2.17,2.10,0.11,0.00,5.56,182423258,178268000,4006000,25
2.28,2.22,0.12,0.00,5.72,186464067,177412000,9020000,25
1.43,1.39,0.08,0.00,3.71,121424995,116424000,4975000,25
2.12,2.06,0.10,0.00,5.30,172447828,168394000,4009000,25
1.49,1.44,0.09,0.00,3.88,126035831,119008000,7000000,25
1.39,1.34,0.07,0.00,3.56,116965738,109839000,6989000,25
2.21,2.15,0.11,0.00,5.58,179268627,170114000,9006000,25
2.09,2.04,0.10,0.00,5.30,170667619,166555000,3989000,25
2.15,2.08,0.10,0.00,5.44,173926933,167802000,5992000,25
1.34,1.31,0.07,0.00,3.45,114807532,111787000,2994000,25
2.10,2.04,0.10,0.00,5.27,170032944,165949000,3998000,25
1.79,1.73,0.10,0.00,4.62,153997741,143949000,9996000,25
2.13,2.07,0.10,0.00,5.35,172027189,166973000,4999000,25
1.33,1.30,0.07,0.00,3.47,115604480,112463000,2985000,25
1.34,1.30,0.08,0.00,3.54,114557415,110427000,4015000,25
1.39,1.35,0.08,0.00,3.62,118609865,110509000,7964000,25
2.12,2.05,0.10,0.00,5.31,169788288,163756000,5991000,25
1.33,1.29,0.07,0.00,3.44,114089016,107051000,7003000,25
2.12,2.07,0.10,0.00,5.35,171671328,165558000,5984000,25
1.46,1.42,0.08,0.00,3.77,123582610,115402000,7958000,25
1.35,1.31,0.07,0.00,3.54,115737908,110733000,4988000,25
1.76,1.70,0.10,0.00,4.61,151367996,138156000,13014000,25
2.27,2.21,0.11,0.00,5.75,184600735,177461000,6978000,25
1.37,1.33,0.08,0.00,3.69,121117092,114083000,7005000,25
2.47,2.39,0.13,0.00,6.26,202854834,198755000,3995000,25
3.72,3.60,0.22,0.00,9.70,321199581,308151000,13006000,25
1.37,1.32,0.07,0.00,3.55,114616276,108509000,5972000,25
1.54,1.49,0.09,0.00,4.03,130966054,124940000,5997000,25
1.50,1.45,0.09,0.00,3.98,128152516,122118000,6005000,25
1.48,1.42,0.07,0.00,3.81,121009070,117976000,2999000,25
2.21,2.16,0.11,0.00,5.53,177724922,171701000,5989000,25
1.38,1.34,0.09,0.00,3.80,132593736,126601000,5981000,25
4.96,4.81,0.28,0.00,13.06,439052549,429997000,8999000,25
2.88,2.79,0.14,0.00,7.32,237409725,229368000,8012000,25
1.42,1.37,0.08,0.00,3.61,117277099,110119000,7007000,25
2.00,1.93,0.13,0.00,5.16,172161688,159116000,13009000,25
2.19,2.12,0.11,0.00,5.50,175594141,172545000,3009000,25
2.25,2.18,0.11,0.00,5.64,181808356,173695000,8032000,25
0.98,0.94,0.06,0.00,2.55,82757888,78745000,3987000,25
2.12,2.05,0.10,0.00,5.32,171533187,166339000,5010000,25
3.01,2.92,0.16,0.00,7.73,253989769,232955000,20996000,25
2.22,2.15,0.10,0.00,5.52,177086367,174060000,3001000,25
2.26,2.19,0.12,0.00,5.71,184525278,177486000,6979000,25
1.42,1.38,0.08,0.00,3.64,117917525,112898000,4995000,25
5.16,4.99,0.31,0.00,13.62,453981635,443951000,9998000,25
1.69,1.64,0.10,0.00,4.41,143651262,134521000,8968000,25
1.63,1.57,0.10,0.00,4.23,138758034,129746000,8982000,25
1.51,1.46,0.09,0.00,3.91,127399529,119197000,7946000,25
3.57,3.45,0.18,0.00,9.08,300493272,291460000,8983000,25
1.42,1.37,0.07,0.00,3.63,120880120,112863000,7990000,25
2.05,1.99,0.11,0.00,5.24,172914933,166874000,5995000,25
8.23,7.97,0.39,0.00,20.72,710297519,704264000,5993000,25
3.04,2.95,0.16,0.00,7.63,259775746,253749000,5994000,25
1.92,1.86,0.09,0.00,4.78,147923284,141496000,5978000,26
1.92,1.87,0.08,0.00,4.66,150918218,149815000,998000,26
1.94,1.88,0.09,0.00,4.70,149839588,145820000,3995000,26
1.89,1.83,0.08,0.00,4.61,145386708,141355000,4010000,26
1.09,1.06,0.05,0.00,2.76,90809427,83708000,6975000,26
1.14,1.10,0.05,0.00,2.86,92656026,88596000,4027000,26
1.23,1.19,0.07,0.00,3.12,101697287,99518000,2010000,26
1.11,1.08,0.05,0.00,2.79,89841836,85804000,3990000,26
1.83,1.79,0.08,0.00,4.61,146287881,143116000,3002000,26
1.94,1.88,0.09,0.00,4.91,155842738,152821000,2996000,26
1.15,1.12,0.06,0.00,2.93,96199224,91160000,5008000,26
2.40,2.32,0.19,0.00,6.15,215881860,205853000,9992000,26
2.09,2.03,0.10,0.00,5.22,167700595,158476000,9027000,26
1.17,1.14,0.07,0.00,2.99,100908410,95899000,4994000,26
1.09,1.07,0.05,0.00,2.76,90549332,87496000,3017000,26
1.15,1.12,0.05,0.00,2.91,93786997,89743000,3988000,26
1.26,1.22,0.07,0.00,3.34,114683101,107682000,6979000,26
1.16,1.13,0.06,0.00,3.00,97990469,93972000,3998000,26
1.86,1.81,0.08,0.00,4.64,149944630,145915000,3997000,26
1.94,1.89,0.09,0.00,4.77,153036283,146010000,7000000,26
2.06,2.01,0.10,0.00,5.13,165585052,156583000,8976000,26
1.15,1.12,0.06,0.00,3.07,104708812,98713000,5982000,26
1.32,1.27,0.08,0.00,3.47,116214561,108132000,8009000,26
1.15,1.12,0.06,0.00,2.92,95405186,91363000,4015000,26
1.88,1.82,0.09,0.00,4.70,148568144,141419000,7020000,26
2.02,1.96,0.10,0.00,5.07,162671490,155650000,6984000,26
1.17,1.13,0.06,0.00,2.99,96917097,91879000,4993000,26
1.15,1.12,0.06,0.00,3.00,96331109,90339000,5956000,26
0.23,0.23,0.01,0.00,0.58,19429396,17461000,1940000,26
1.20,1.17,0.07,0.00,3.12,99757723,91749000,7978000,26
1.30,1.25,0.07,0.00,3.34,109103491,107070000,2001000,26
1.20,1.16,0.06,0.00,3.09,99016884,93993000,4999000,26
1.19,1.16,0.06,0.00,3.08,100074330,92042000,8003000,26
1.03,1.00,0.06,0.00,2.79,96396335,91397000,4967000,26
1.11,1.08,0.06,0.00,2.87,91839202,85820000,5987000,26
1.13,1.10,0.05,0.00,2.90,93281912,86209000,7017000,26
1.89,1.84,0.09,0.00,4.70,149831776,145790000,3994000,26
1.25,1.22,0.06,0.00,3.18,102480281,94385000,7948000,26
1.91,1.86,0.08,0.00,4.68,147763563,142719000,4990000,26
0.56,0.55,0.03,0.00,1.55,55587856,50616000,4962000,26
1.11,1.07,0.05,0.00,2.81,91153863,89088000,2001000,26
1.12,1.09,0.05,0.00,2.82,91443547,86439000,4967000,26
2.85,2.76,0.15,0.00,7.27,236332334,230302000,6007000,26
0.13,0.13,0.01,0.00,0.34,10430753,6622000,3784000,26
0.83,0.81,0.05,0.00,2.11,69352057,67315000,2009000,26
1.11,1.08,0.06,0.00,2.81,92179608,88139000,4006000,26
1.18,1.13,0.06,0.00,2.98,97455396,91460000,5964000,26
2.00,1.94,0.10,0.00,5.01,163866437,159846000,3996000,26
1.51,1.46,0.09,0.00,3.88,128551018,122540000,5977000,26
2.71,2.63,0.12,0.00,6.74,216756686,204639000,11978000,26
1.15,1.12,0.06,0.00,2.90,95040347,92015000,3000000,26
2.20,2.14,0.11,0.00,5.55,177939943,172906000,4997000,26
1.21,1.18,0.07,0.00,3.11,100808842,93788000,6984000,26
1.14,1.10,0.06,0.00,2.94,94350629,89318000,5017000,26
1.18,1.14,0.06,0.00,3.04,97783804,89773000,7979000,26
2.82,2.73,0.15,0.00,7.08,231582834,223566000,7984000,26
1.22,1.19,0.06,0.00,3.16,101434184,98322000,3009000,26
1.96,1.91,0.09,0.00,4.99,155990339,151729000,4019000,26
1.89,1.84,0.08,0.00,4.69,147737996,143715000,3992000,26
1.14,1.12,0.05,0.00,2.91,93565066,90469000,2982000,26
1.19,1.15,0.07,0.00,3.09,99536974,93541000,5970000,26
1.87,1.82,0.08,0.00,4.62,149262834,146220000,3004000,26
1.94,1.89,0.09,0.00,4.78,153579515,153557000,0,26
1.05,1.02,0.06,0.00,2.77,95076949,91056000,4002000,26
1.17,1.14,0.07,0.00,3.03,99316262,97286000,2005000,26
1.82,1.77,0.09,0.00,4.67,151324333,148275000,2985000,26
1.20,1.18,0.06,0.00,3.08,99589720,94510000,4974000,26
1.21,1.17,0.07,0.00,3.14,101795147,99735000,1994000,26
1.87,1.82,0.08,0.00,4.62,149379080,142325000,7016000,26
1.18,1.14,0.06,0.00,3.05,98585689,93564000,4976000,26
1.50,1.46,0.09,0.00,3.92,128213520,120166000,8011000,26
1.35,1.31,0.07,0.00,3.50,112973506,104947000,7996000,26
1.92,1.87,0.09,0.00,4.74,151147433,148118000,3002000,26
1.18,1.14,0.06,0.00,3.07,99101537,95157000,3964000,26
2.76,2.67,0.15,0.00,7.13,229916518,225713000,4012000,26
1.19,1.15,0.07,0.00,3.15,99455683,96458000,2983000,26
1.57,1.53,0.08,0.00,4.07,132940858,123917000,8993000,26
1.86,1.80,0.09,0.00,4.66,148494284,142451000,6019000,26
1.30,1.26,0.07,0.00,3.37,108377111,99220000,9020000,26
1.03,1.00,0.07,0.00,2.67,86351306,74306000,11889000,26
2.15,2.07,0.10,0.00,5.31,176287487,172945000,2981000,27
3.34,3.24,0.14,0.00,7.76,264802265,259779000,4995000,27
2.05,1.99,0.10,0.00,5.16,175008193,169978000,4999000,27
2.11,2.04,0.10,0.00,5.13,175679067,167611000,7981000,27
1.66,1.61,0.08,0.00,4.12,139584393,137561000,2008000,27
2.98,2.89,0.14,0.00,7.35,252211347,249066000,3000000,27
2.00,1.94,0.10,0.00,5.03,168934384,163963000,4968000,27
1.52,1.47,0.08,0.00,3.86,126873463,121853000,4993000,27
2.10,2.04,0.10,0.00,5.25,177653805,174638000,2993000,27
2.23,2.16,0.11,0.00,5.44,185962056,178824000,6993000,27
2.15,2.08,0.10,0.00,5.39,178299340,170130000,8006000,27
2.11,2.05,0.10,0.00,5.24,176431815,169297000,7012000,27
1.95,1.89,0.10,0.00,5.09,179568241,169573000,9974000,27
2.03,1.98,0.09,0.00,5.02,167295768,163056000,4001000,27
2.11,2.05,0.10,0.00,5.21,176213382,170177000,6006000,27
3.50,3.41,0.15,0.00,8.23,279367255,275249000,4003000,27
5.60,5.44,0.28,0.00,13.89,462300638,456255000,6003000,27
2.14,2.07,0.10,0.00,5.28,177969595,173902000,3997000,27
2.15,2.09,0.10,0.00,5.32,178766383,172746000,5991000,27
2.06,2.01,0.10,0.00,5.21,176849423,167751000,8986000,27
2.11,2.05,0.11,0.00,5.32,182860247,178737000,3994000,27
2.07,2.01,0.10,0.00,5.20,173567377,169531000,4012000,27
3.40,3.30,0.15,0.00,8.36,272349874,266291000,6006000,27
2.30,2.23,0.11,0.00,5.73,193842473,187825000,5994000,27
2.26,2.18,0.11,0.00,5.74,200369761,198389000,1993000,27
2.71,2.62,0.13,0.00,6.68,226677593,223650000,2995000,27
2.13,2.07,0.10,0.00,5.30,179521934,174499000,4985000,27
2.04,1.97,0.10,0.00,5.14,172612856,170599000,2007000,27
3.65,3.54,0.17,0.00,9.08,294990617,289975000,4999000,27
2.07,2.01,0.10,0.00,5.16,174207317,168175000,6006000,27
7.48,7.26,0.37,0.00,19.31,642226940,634184000,8002000,27
2.05,1.98,0.10,0.00,5.30,175854802,169777000,6027000,27
3.95,3.83,0.19,0.00,9.57,332920703,328805000,3997000,27
3.22,3.12,0.18,0.00,8.15,277031585,254886000,21990000,27
2.08,2.02,0.10,0.00,5.35,173080848,165969000,6998000,27
2.52,2.44,0.12,0.00,6.25,210344869,206233000,4004000,27
1.80,1.75,0.08,0.00,4.43,147719713,144603000,2991000,27
5.79,5.60,0.30,0.00,14.41,504118664,493092000,11002000,27
2.48,2.40,0.12,0.00,6.10,205634715,202512000,2992000,27
2.02,1.97,0.09,0.00,5.01,169309636,167273000,2003000,27
2.11,2.06,0.10,0.00,5.26,176386188,173172000,2985000,27
2.11,2.05,0.10,0.00,5.21,176267167,170240000,6008000,27
2.20,2.13,0.10,0.00,5.40,180963885,175791000,5022000,27
3.42,3.31,0.16,0.00,8.49,284559508,274588000,9985000,27
2.00,1.95,0.10,0.00,4.98,164058074,158916000,4997000,27
3.44,3.35,0.15,0.00,8.44,274637871,265541000,8984000,27
2.13,2.07,0.10,0.00,5.12,175831000,167714000,7986000,27
2.09,2.03,0.11,0.00,5.36,182177779,175159000,7006000,27
2.06,2.00,0.10,0.00,5.16,170912686,165803000,5024000,27
2.10,2.04,0.09,0.00,5.14,170342125,167161000,3002000,27
3.33,3.22,0.15,0.00,8.32,275244927,268229000,7005000,27
2.07,2.01,0.10,0.00,5.23,177549259,171461000,5981000,27
2.00,1.93,0.10,0.00,5.05,166562420,163435000,2989000,27
3.79,3.68,0.17,0.00,9.34,305063861,301756000,3007000,27
2.30,2.23,0.11,0.00,5.74,189982556,183957000,5998000,27
3.45,3.34,0.15,0.00,8.15,273491813,266463000,6985000,27
2.21,2.14,0.11,0.00,5.47,180612585,171603000,8979000,27
2.09,2.04,0.10,0.00,5.13,172653840,166634000,5986000,27
5.07,4.92,0.27,0.00,12.82,439865948,425813000,14026000,27
2.06,2.00,0.10,0.00,5.34,173768507,168702000,5020000,27
3.43,3.33,0.15,0.00,8.43,273586774,268459000,4989000,27
1.88,1.82,0.09,0.00,4.68,155027922,149991000,4999000,27
1.94,1.88,0.09,0.00,4.90,169518815,167495000,2005000,27
3.33,3.24,0.14,0.00,8.14,263231331,256201000,7005000,27
3.61,3.51,0.16,0.00,8.89,289500280,289466000,0,27
2.12,2.06,0.11,0.00,5.50,182898273,174854000,7993000,27
2.21,2.14,0.11,0.00,5.50,184739771,178578000,5985000,27
3.50,3.40,0.15,0.00,8.64,278993473,273975000,4999000,27
2.27,2.21,0.11,0.00,5.60,187851041,185785000,2008000,27
2.29,2.22,0.12,0.00,5.94,202451640,193459000,8974000,27
3.31,3.21,0.14,0.00,8.09,262467215,256452000,5987000,27
2.09,2.03,0.10,0.00,5.23,175388945,171360000,4008000,27
3.34,3.25,0.14,0.00,8.19,268427484,263391000,5007000,27
2.05,1.99,0.10,0.00,5.07,169980650,165840000,3996000,27
2.51,2.43,0.12,0.00,6.20,209610043,202426000,6980000,27
1.96,1.90,0.10,0.00,5.06,173669391,167656000,5987000,27
2.18,2.12,0.11,0.00,5.53,186020087,180898000,4997000,27
3.40,3.31,0.15,0.00,8.37,272371223,269214000,3002000,27
2.05,1.99,0.10,0.00,5.22,174079726,171046000,3000000,27
3.48,3.39,0.15,0.00,8.53,275550830,270523000,5009000,27
4.41,4.29,0.19,0.00,10.55,363542568,339211000,23944000,28
8.20,7.96,0.34,0.00,19.04,654566616,651462000,2997000,28
9.48,9.21,0.40,0.00,22.34,779954607,725839000,53988000,28
25.33,24.64,0.99,0.00,57.50,1943161114,1940111000,3000000,28
27.70,26.94,1.08,0.00,63.46,2120446987,2088826000,30997000,28
8.02,7.80,0.32,0.00,18.50,624159273,620080000,4000000,28
25.57,24.87,1.00,0.00,58.26,1962869387,1960604000,1999000,28
7.36,7.16,0.30,0.00,17.17,583556805,582559000,999000,28
5.76,5.59,0.25,0.00,13.94,486387898,484353000,2001000,28
21.94,21.32,0.88,0.00,50.72,1734039622,1733001000,1000000,28
2.92,2.83,0.13,0.00,7.55,250058607,247997000,1999000,28
10.18,9.89,0.41,0.00,23.93,810844011,779782000,30991000,28
7.58,7.37,0.30,0.00,17.60,581762000,551720000,29984000,28
26.30,25.58,1.04,0.00,60.28,2034998447,2032922000,1999000,28
26.27,25.56,1.02,0.00,60.20,2000270905,1998036000,2000000,28
25.19,24.47,1.02,0.00,58.80,1999867841,1997837000,1999000,28
19.10,18.58,0.76,0.00,44.20,1484710818,1457682000,27012000,28
7.00,6.80,0.28,0.00,16.26,546935458,543686000,2992000,28
18.20,17.70,0.73,0.00,42.22,1424261623,1387149000,36977000,28
4.80,4.67,0.20,0.00,11.41,393509973,391497000,2002000,28
29.28,28.42,1.23,0.00,69.38,2417492893,2415139000,2000000,28
27.68,26.91,1.11,0.00,64.14,2178948091,2146801000,32011000,28
4.05,3.94,0.16,0.00,9.38,315027835,314007000,1000000,28
7.71,7.51,0.30,0.00,17.38,579357419,576105000,3000000,28
26.97,26.22,1.09,0.00,62.64,2134323359,2107055000,27000000,28
25.21,24.49,1.03,0.00,58.83,2018353836,1983934000,33998000,28
4.87,4.72,0.21,0.00,12.03,414743234,384645000,30050000,28
27.26,26.51,1.07,0.00,62.43,2099808076,2069565000,29993000,28
25.30,24.59,1.02,0.00,58.73,1996969658,1961774000,34995000,28
20.12,19.57,0.78,0.00,46.12,1534005818,1502766000,30995000,28
8.53,8.29,0.36,0.00,20.17,689979473,657857000,31993000,28
5.10,4.95,0.22,0.00,12.43,428535191,401515000,27034000,28
26.11,25.41,1.01,0.00,59.48,1976332552,1974153000,2000000,28
22.04,21.41,0.90,0.00,51.91,1764413120,1723070000,41001000,28
9.66,9.38,0.40,0.00,22.91,779269399,748241000,31009000,28
19.52,19.00,0.76,0.00,44.70,1486386081,1458264000,28005000,28
27.77,27.01,1.09,0.00,63.68,2132639353,2102421000,30006000,28
6.55,6.36,0.26,0.00,15.40,512210385,479053000,33003000,28
29.45,28.62,1.19,0.00,68.88,2336146778,2303782000,31996000,28
18.49,17.97,0.74,0.00,43.18,1447000337,1421726000,24995000,28
21.14,20.52,0.88,0.00,50.35,1719412381,1691999000,26999000,28
18.42,17.91,0.72,0.00,42.03,1403582065,1401407000,1999000,28
8.16,7.93,0.33,0.00,19.18,653813713,652808000,999000,28
11.05,10.71,0.48,0.00,26.62,930701816,928570000,1999000,28
24.51,23.83,0.97,0.00,56.38,1888855107,1861633000,27009000,28
26.01,25.32,1.01,0.00,59.25,1971376157,1967016000,3998000,28
8.13,7.89,0.33,0.00,19.11,650148375,648051000,2000000,28
5.76,5.60,0.23,0.00,13.60,452628529,425507000,26968000,28
19.31,18.78,0.76,0.00,44.64,1487964949,1458841000,28996000,28
8.20,7.97,0.32,0.00,18.78,629577525,627564000,2001000,28
6.01,5.83,0.25,0.00,14.49,488774700,461667000,26980000,28
26.81,26.05,1.08,0.00,62.35,2109463594,2077349000,31989000,28
8.48,8.24,0.35,0.00,20.02,688245661,687059000,1000000,28
5.39,5.24,0.21,0.00,12.47,419140286,418119000,1000000,28
15.41,14.99,0.62,0.00,35.69,1202877860,1167811000,35024000,28
26.09,25.38,1.03,0.00,59.66,2013472062,2010174000,2998000,28
14.63,14.21,0.60,0.00,34.30,1183343529,1182308000,1000000,28
10.51,10.22,0.44,0.00,24.06,805503960,801489000,3997000,28
9.18,8.94,0.36,0.00,20.97,700992576,699907000,999000,28
16.50,16.05,0.64,0.00,37.76,1253966798,1251844000,1999000,28
7.33,7.14,0.29,0.00,16.97,574676713,571656000,2998000,28
17.39,16.91,0.69,0.00,40.27,1360623746,1357392000,2998000,28
26.11,25.38,1.04,0.00,60.30,2033871902,1997711000,35994000,28
9.97,9.69,0.40,0.00,23.60,792296487,759168000,33007000,28
8.87,8.63,0.34,0.00,20.32,670172141,668049000,2000000,28
25.59,24.89,1.00,0.00,58.75,1963442904,1961253000,2000000,28
7.85,7.63,0.32,0.00,18.79,632833033,608823000,23993000,28
9.06,8.81,0.37,0.00,21.36,718033407,687029000,31001000,28
19.13,18.61,0.76,0.00,44.63,1487210543,1451012000,36000000,28
6.23,6.07,0.24,0.00,14.23,462839850,460812000,1999000,28
4.84,4.70,0.20,0.00,11.50,392931705,390835000,1999000,28
18.94,18.41,0.75,0.00,43.99,1463314499,1426284000,37007000,28
4.97,4.82,0.22,0.00,12.16,415253994,380150000,34921000,28
12.69,12.33,0.52,0.00,30.23,1010388375,977156000,33005000,28
8.31,8.09,0.32,0.00,19.02,617208267,614792000,1999000,28
16.49,16.03,0.67,0.00,38.72,1313666400,1311539000,1999000,28
8.59,8.34,0.36,0.00,20.57,697815827,677671000,19990000,28
8.90,8.66,0.35,0.00,20.60,690159618,687011000,3000000,28
14.48,14.09,0.57,0.00,33.68,1100920969,1098591000,1999000,28
17.55,17.05,0.71,0.00,40.89,1387832465,1351629000,35990000,28
0.53,0.51,0.02,0.00,1.30,42384456,35867000,6148000,29
1.35,1.32,0.07,0.00,3.37,113204350,109190000,4007000,29
0.85,0.83,0.04,0.00,2.09,69610576,63623000,5964000,29
0.99,0.97,0.05,0.00,2.42,80411079,77368000,3014000,29
1.14,1.11,0.06,0.00,2.84,91509065,85372000,6026000,29
1.07,1.04,0.06,0.00,2.71,88585641,84501000,3976000,29
0.48,0.47,0.02,0.00,1.23,38650117,33673000,4951000,29
0.71,0.68,0.03,0.00,1.75,58370768,54295000,3948000,29
0.43,0.41,0.02,0.00,1.10,34749010,30749000,3967000,29
0.68,0.65,0.03,0.00,1.71,54694414,49704000,4970000,29
0.93,0.91,0.05,0.00,2.37,74975315,69855000,4989000,29
1.47,1.43,0.09,0.00,3.86,134168077,116130000,18020000,29
0.78,0.75,0.04,0.00,1.96,62647421,55662000,6957000,29
1.05,1.02,0.06,0.00,2.64,84049931,74052000,10007000,29
0.53,0.51,0.03,0.00,1.33,43224672,36165000,7032000,29
0.42,0.41,0.02,0.00,1.14,40421158,35503000,4931000,29
0.66,0.65,0.03,0.00,1.65,52410447,50367000,2014000,29
0.91,0.88,0.05,0.00,2.31,73606840,64634000,8949000,29
0.48,0.47,0.02,0.00,1.22,39731970,32759000,6948000,29
0.47,0.46,0.02,0.00,1.19,38079199,34939000,2994000,29
0.93,0.90,0.05,0.00,2.31,75482648,72483000,2978000,29
0.88,0.85,0.04,0.00,2.23,71560153,67511000,4030000,29
0.58,0.57,0.03,0.00,1.53,50018741,47959000,2040000,29
0.52,0.50,0.03,0.00,1.41,48657194,46577000,2025000,29
0.33,0.32,0.02,0.00,1.04,41385570,37333000,4036000,29
0.68,0.66,0.03,0.00,1.68,54162256,51138000,3008000,29
0.52,0.51,0.03,0.00,1.31,42885640,38016000,4873000,29
0.52,0.51,0.02,0.00,1.33,43118312,41996000,999000,29
0.93,0.90,0.05,0.00,2.38,76591761,70569000,5963000,29
0.97,0.94,0.06,0.00,2.60,90489547,82523000,7954000,29
0.53,0.52,0.03,0.00,1.35,43529041,36423000,7082000,29
0.95,0.92,0.05,0.00,2.43,76933871,70812000,5984000,29
1.58,1.53,0.08,0.00,4.04,130735170,116673000,14081000,29
0.67,0.64,0.03,0.00,1.70,54599907,51435000,3025000,29
0.53,0.52,0.03,0.00,1.35,43687014,38696000,4961000,29
0.67,0.65,0.03,0.00,1.72,53716945,47583000,5947000,29
0.52,0.52,0.03,0.00,1.33,43812379,39695000,3969000,29
1.05,1.02,0.06,0.00,2.68,87821078,78816000,8979000,29
1.05,1.02,0.05,0.00,2.65,84181631,80105000,4005000,29
1.16,1.12,0.06,0.00,2.89,90551166,84498000,6035000,29
0.88,0.87,0.05,0.00,2.27,71735707,66723000,4979000,29
0.72,0.69,0.03,0.00,1.80,59589338,56535000,3028000,29
0.72,0.70,0.03,0.00,1.79,58038919,53013000,5001000,29
0.70,0.68,0.03,0.00,1.75,57007152,50915000,5990000,29
0.79,0.77,0.04,0.00,2.08,73232868,69234000,4013000,29
1.14,1.10,0.06,0.00,2.93,97835058,89918000,7904000,29
5.31,5.14,0.27,0.00,13.72,456752287,393735000,62957000,29
0.51,0.49,0.03,0.00,1.27,41713220,38622000,3049000,29
0.68,0.66,0.03,0.00,1.76,59101454,56064000,3003000,29
0.67,0.65,0.03,0.00,1.71,53895136,48886000,4988000,29
2.70,2.63,0.13,0.00,6.69,229868570,218760000,10987000,29
0.46,0.45,0.02,0.00,1.17,38600772,33627000,4945000,29
2.59,2.51,0.13,0.00,6.80,228815905,146482000,82270000,29
1.05,1.02,0.06,0.00,2.68,87151386,79125000,8012000,29
0.95,0.93,0.05,0.00,2.38,76585515,70596000,5965000,29
0.93,0.90,0.04,0.00,2.38,78264487,75221000,3008000,29
0.48,0.46,0.02,0.00,1.21,40236951,38176000,2009000,29
0.76,0.74,0.04,0.00,1.94,61741121,54759000,6969000,29
0.91,0.88,0.05,0.00,2.41,81775516,71785000,9970000,29
0.50,0.48,0.02,0.00,1.25,40959306,37877000,3071000,29
0.65,0.62,0.03,0.00,1.64,51199827,46169000,5018000,29
2.34,2.26,0.11,0.00,6.30,214242147,164151000,50046000,29
0.53,0.52,0.03,0.00,1.36,44306128,37169000,7031000,29
0.88,0.86,0.05,0.00,2.27,71966900,65895000,5990000,29
1.22,1.19,0.07,0.00,3.11,106461357,89506000,16906000,29
0.67,0.64,0.03,0.00,1.71,54184548,45139000,9027000,29
0.68,0.66,0.03,0.00,1.74,54386382,51291000,3017000,29
1.18,1.14,0.06,0.00,2.96,93602887,89589000,3981000,29
0.45,0.44,0.02,0.00,1.13,37110271,29068000,8018000,29
0.67,0.65,0.03,0.00,1.69,54701633,50625000,3970000,29
0.70,0.67,0.03,0.00,1.76,55468947,51397000,3953000,29
0.68,0.65,0.03,0.00,1.76,56423064,48490000,7916000,29
1.11,1.07,0.06,0.00,2.77,87821763,79607000,8061000,29
0.45,0.44,0.02,0.00,1.17,37249658,36216000,1006000,29
0.89,0.87,0.05,0.00,2.25,73131835,65912000,6990000,29
0.70,0.67,0.04,0.00,1.89,65669910,59691000,5969000,29
0.33,0.32,0.02,0.00,0.83,27391625,22278000,5063000,29
0.36,0.34,0.02,0.00,1.00,34184439,28136000,6029000,29
0.66,0.64,0.03,0.00,1.70,54807535,49811000,4981000,29
1.02,0.99,0.05,0.00,2.60,82743658,75739000,6975000,29
3.27,3.15,0.19,0.00,8.69,278569726,262011000,15000000,30
3.83,3.70,0.21,0.00,9.86,326492828,313484000,12978000,30
8.54,8.27,0.43,0.00,20.96,742895144,728812000,13996000,30
8.36,8.11,0.39,0.00,21.25,695264785,663123000,32005000,30
8.26,8.01,0.39,0.00,21.17,694697133,645557000,48966000,30
5.14,4.99,0.26,0.00,13.18,432928502,422783000,9994000,30
3.04,2.95,0.15,0.00,7.88,257438161,249294000,8009000,30
2.70,2.62,0.13,0.00,6.97,223473149,218313000,4984000,30
5.22,5.08,0.23,0.00,13.19,427354316,401304000,26019000,30
3.53,3.42,0.18,0.00,8.54,296425134,287391000,8980000,30
2.55,2.47,0.12,0.00,6.69,213013076,206979000,5999000,30
3.39,3.29,0.16,0.00,8.61,277624365,275574000,2004000,30
5.20,5.03,0.31,0.00,12.94,448532074,436503000,12013000,30
3.63,3.52,0.17,0.00,9.25,296443522,286439000,9980000,30
4.85,4.71,0.24,0.00,11.72,402146981,394116000,8002000,30
2.05,1.99,0.10,0.00,5.23,167467117,159321000,7966000,30
2.62,2.54,0.13,0.00,6.69,216094399,205035000,11001000,30
3.32,3.21,0.16,0.00,8.56,276170553,271143000,5002000,30
2.87,2.77,0.14,0.00,7.58,247507338,210558000,36922000,30
3.34,3.24,0.17,0.00,8.54,275077888,268050000,7001000,30
2.34,2.26,0.11,0.00,6.05,194527211,190415000,3987000,30
5.48,5.32,0.32,0.00,14.09,459285457,422188000,37016000,30
2.93,2.84,0.17,0.00,7.46,241380639,233341000,8011000,30
3.00,2.91,0.15,0.00,7.70,251874451,246848000,4996000,30
5.00,4.85,0.23,0.00,12.59,407013083,394984000,11999000,30
2.10,2.04,0.10,0.00,5.34,173056703,165031000,8001000,30
3.46,3.34,0.18,0.00,9.02,299257253,258328000,40893000,30
5.60,5.43,0.28,0.00,14.26,463810976,430791000,32984000,30
6.93,6.73,0.32,0.00,16.71,590556335,583527000,7006000,30
5.20,5.04,0.26,0.00,13.33,436709911,396695000,39969000,30
6.36,6.16,0.35,0.00,15.41,532325432,522214000,9984000,30
5.40,5.24,0.27,0.00,14.13,469351753,431303000,38026000,30
2.49,2.42,0.12,0.00,6.22,204804099,196791000,7991000,30
2.85,2.77,0.13,0.00,7.18,234030929,227988000,5999000,30
3.82,3.71,0.17,0.00,9.72,312487617,268267000,44043000,30
3.84,3.72,0.19,0.00,9.94,327771050,300612000,27055000,30
3.09,3.01,0.15,0.00,7.90,258269086,250163000,8005000,30
2.24,2.17,0.13,0.00,5.89,192874116,183833000,8991000,30
2.57,2.50,0.12,0.00,6.61,213234713,211219000,2002000,30
2.55,2.48,0.12,0.00,6.53,211914779,200893000,10994000,30
4.18,4.03,0.34,0.00,10.72,368369587,358329000,10009000,30
8.12,7.87,0.37,0.00,21.07,689554403,683419000,5994000,30
3.06,2.96,0.15,0.00,7.96,257787320,249819000,7962000,30
7.67,7.42,0.47,0.00,20.14,652479063,615375000,37022000,30
2.66,2.58,0.13,0.00,6.91,226070654,220946000,4998000,30
6.05,5.87,0.30,0.00,15.86,518142265,482087000,36006000,30
12.10,11.75,0.57,0.00,29.92,985697481,973643000,12007000,30
3.89,3.77,0.19,0.00,10.15,327905573,317889000,9996000,30
3.73,3.61,0.20,0.00,9.70,310421241,307292000,3002000,30
2.06,2.00,0.10,0.00,5.38,171645524,164635000,6984000,30
4.11,3.98,0.23,0.00,10.13,340584457,329558000,10985000,30
2.10,2.04,0.11,0.00,5.76,195248238,172205000,23027000,30
6.80,6.60,0.32,0.00,17.64,570741008,544669000,25984000,30
8.34,8.09,0.40,0.00,21.85,712506626,676398000,36021000,30
5.36,5.20,0.25,0.00,13.70,440685340,405687000,34973000,30
8.27,8.02,0.39,0.00,21.39,694023016,647904000,45993000,30
5.35,5.18,0.26,0.00,12.96,444463437,439445000,4993000,30
6.42,6.23,0.32,0.00,16.87,546052590,511904000,33993000,30
4.02,3.90,0.22,0.00,10.17,334007759,327864000,5997000,30
8.35,8.08,0.41,0.00,22.14,739870626,731815000,8008000,30
2.19,2.13,0.11,0.00,5.64,181052211,173017000,8000000,30
4.65,4.51,0.24,0.00,12.20,402097626,396039000,6000000,30
4.55,4.41,0.21,0.00,11.51,370102535,343000000,27000000,30
0.95,0.92,0.05,0.00,2.40,80482040,74492000,5959000,30
6.41,6.21,0.32,0.00,16.47,535164057,490108000,45009000,30
5.26,5.10,0.24,0.00,13.37,432186352,392137000,40014000,30
2.77,2.68,0.14,0.00,7.23,236279366,194198000,42042000,30
2.69,2.61,0.14,0.00,6.92,221495486,208441000,12965000,30
3.13,3.03,0.16,0.00,8.26,269940478,240922000,28990000,30
2.94,2.85,0.13,0.00,7.39,236564813,235541000,1002000,30
3.92,3.80,0.21,0.00,10.19,329297205,316266000,13010000,30
2.90,2.80,0.17,0.00,7.51,241650610,236514000,5010000,30
4.91,4.77,0.23,0.00,12.54,406431104,377270000,29020000,30
3.34,3.24,0.16,0.00,8.55,275342589,268353000,6983000,30
5.14,4.98,0.27,0.00,12.62,435006044,427978000,7016000,30
2.56,2.48,0.15,0.00,6.61,212812299,205659000,7022000,30
3.40,3.29,0.20,0.00,8.90,286239591,272200000,14010000,30
7.86,7.64,0.32,0.00,19.40,621572633,586480000,35028000,30
6.83,6.62,0.30,0.00,17.26,561870463,525638000,35975000,30
4.51,4.38,0.21,0.00,11.60,379245908,350194000,29016000,30
6.04,5.87,0.25,0.00,14.02,485051912,483750000,1001000,31
2.12,2.05,0.10,0.00,5.18,187869604,186859000,999000,31
2.32,2.26,0.11,0.00,5.75,208243980,208234000,0,31
1.98,1.92,0.09,0.00,4.78,171888070,171886000,0,31
1.36,1.32,0.08,0.00,3.55,132875052,126861000,5993000,31
1.18,1.15,0.06,0.00,2.94,106298549,105314000,993000,31
1.76,1.71,0.09,0.00,4.56,170425651,170419000,0,31
18.89,18.33,0.88,0.00,47.15,1545406466,1498181000,47005000,31
2.33,2.25,0.11,0.00,5.83,209867229,208861000,999000,31
1.78,1.72,0.09,0.00,4.57,168819587,166777000,1997000,31
2.06,1.99,0.10,0.00,5.24,191823460,189731000,1997000,31
1.74,1.68,0.08,0.00,4.38,157736105,156736000,998000,31
2.47,2.39,0.11,0.00,6.17,221767418,221762000,0,31
0.92,0.89,0.05,0.00,2.39,85221845,77291000,7927000,31
2.41,2.34,0.11,0.00,6.02,216120770,215102000,1000000,31
1.22,1.16,0.09,0.00,3.58,127542298,2488000,3733000,31
0.17,0.17,0.01,0.00,0.57,23566444,22615000,983000,31
2.24,2.17,0.10,0.00,5.66,203725191,202712000,998000,31
2.48,2.40,0.11,0.00,6.20,218680214,216648000,1996000,31
18.94,18.36,0.92,0.00,48.32,1590070229,1527025000,63001000,31
17.25,16.72,0.83,0.00,43.73,1445632581,1398405000,46980000,31
2.09,2.01,0.10,0.00,5.28,190347129,188208000,1991000,31
1.30,1.25,0.07,0.00,3.51,130859141,127908000,2974000,31
1.71,1.65,0.08,0.00,4.50,167069751,167050000,0,31
0.23,0.22,0.01,0.00,0.64,23050304,20021000,3003000,31
0.93,0.90,0.04,0.00,2.41,86535204,84537000,1989000,31
2.03,1.96,0.10,0.00,5.16,185753192,184658000,998000,31
2.91,2.83,0.13,0.00,7.01,244674912,243651000,1002000,31
2.02,1.96,0.09,0.00,5.03,180049914,178931000,999000,31
2.31,2.25,0.11,0.00,5.81,208721835,208620000,0,31
1.85,1.80,0.08,0.00,4.44,155931471,154926000,999000,31
3.39,3.28,0.16,0.00,8.48,306749983,304738000,1998000,31
1.30,1.26,0.06,0.00,3.19,110731994,109723000,997000,31
0.46,0.44,0.02,0.00,1.24,45011855,44003000,1000000,31
2.06,2.00,0.10,0.00,5.20,187317553,186308000,1001000,31
1.47,1.42,0.07,0.00,3.76,137983244,137871000,0,31
1.83,1.77,0.09,0.00,4.75,176318744,170259000,6009000,31
1.74,1.68,0.09,0.00,4.52,166746557,166735000,0,31
1.72,1.67,0.08,0.00,4.47,165300024,165290000,0,31
1.90,1.84,0.09,0.00,4.87,179324858,178225000,1001000,31
1.46,1.42,0.07,0.00,3.73,136612523,134595000,1994000,31
1.20,1.16,0.06,0.00,3.10,113358306,113234000,0,31
1.93,1.87,0.09,0.00,4.94,182264536,181263000,995000,31
1.75,1.69,0.08,0.00,4.47,163875492,162741000,998000,31
5.90,5.72,0.26,0.00,14.41,517603221,517359000,0,31
5.36,5.20,0.23,0.00,12.85,453212324,452117000,1000000,31
12.95,12.56,0.56,0.00,33.14,1086153794,1085037000,1000000,31
1.95,1.87,0.10,0.00,5.09,182844669,180868000,1987000,31
3.02,2.93,0.13,0.00,7.31,256789147,255688000,998000,31
1.82,1.76,0.09,0.00,4.71,173441787,172438000,1002000,31
2.31,2.25,0.10,0.00,5.52,189182813,186145000,2986000,31
2.40,2.33,0.10,0.00,5.73,195919116,195745000,0,31
1.82,1.75,0.09,0.00,4.70,172927109,171835000,999000,31
2.28,2.23,0.09,0.00,5.39,185943357,184931000,999000,31
2.34,2.28,0.10,0.00,5.59,191491619,190375000,996000,31
2.36,2.29,0.10,0.00,5.74,193931159,193902000,0,31
2.49,2.43,0.10,0.00,5.91,196489616,194457000,1994000,31
1.58,1.54,0.07,0.00,3.83,131499142,129407000,1990000,31
1.83,1.79,0.08,0.00,4.33,147407038,146387000,1002000,31
16.02,15.54,0.68,0.00,38.09,1324977669,1323607000,999000,31
1.35,1.31,0.06,0.00,3.38,118952741,117944000,999000,31
2.73,2.65,0.12,0.00,6.73,238100044,238081000,0,31
1.94,1.88,0.09,0.00,4.94,176775395,175765000,998000,31
2.40,2.34,0.10,0.00,5.72,195440809,194344000,996000,31
0.11,0.10,0.01,0.00,0.29,9725155,9647000,0,31
2.46,2.38,0.11,0.00,6.10,218861570,217666000,998000,31
0.43,0.41,0.02,0.00,1.15,40343924,39328000,1008000,31
4.90,4.75,0.20,0.00,11.46,385213790,383717000,999000,31
2.04,1.98,0.09,0.00,5.16,184977534,182871000,1998000,31
1.91,1.85,0.09,0.00,4.96,180359484,178269000,1991000,31
2.41,2.33,0.11,0.00,5.96,213889597,212764000,998000,31
1.78,1.71,0.09,0.00,4.67,172769000,171764000,998000,31
2.88,2.79,0.13,0.00,7.07,251038967,249881000,999000,31
0.61,0.60,0.03,0.00,1.51,51726955,50644000,993000,31
2.00,1.94,0.10,0.00,5.10,185224560,185137000,0,31
2.15,2.09,0.11,0.00,5.68,188978027,176957000,11997000,31
1.95,1.87,0.09,0.00,4.91,176175789,175145000,1000000,31
1.81,1.76,0.09,0.00,4.69,172833891,171731000,998000,31
1.94,1.87,0.09,0.00,4.94,177513918,176421000,996000,31
2.54,2.46,0.11,0.00,6.25,222590684,220561000,1996000,31
