@relation problema
@attribute 'pkg' real
@attribute 'cores' real
@attribute 'ram' real
@attribute 'gpu' real
@attribute 'psys' real
@attribute 'duration_time' real
@attribute 'user_time' real
@attribute 'system_time' real
@attribute 'class' {0,1,2,3,4,5,6,7,8,9,10,11,12,13,14,15,16,17,18,19,20,21,22,23,24,25,26,27,28,29,30,31}
@data
1.57,1.52,0.07,0.00,3.89,131136866,97548000,33186000,0
1.54,1.49,0.07,0.00,3.96,130971644,97971000,32990000,0
1.53,1.48,0.07,0.00,3.77,128099634,96021000,32007000,0
1.56,1.50,0.07,0.00,3.75,129119699,100288000,28795000,0
1.54,1.49,0.07,0.00,4.04,131199340,97120000,34042000,0
1.53,1.49,0.07,0.00,3.97,130673040,99679000,30900000,0
1.50,1.46,0.07,0.00,3.93,130507974,106254000,24057000,0
0.24,0.24,0.02,0.00,0.74,28444939,27423000,1015000,0
0.95,0.91,0.05,0.00,2.66,91234050,59516000,31742000,0
1.55,1.50,0.07,0.00,3.98,130377994,104242000,26060000,0
1.48,1.44,0.07,0.00,3.88,130529365,113575000,16936000,0
1.50,1.46,0.07,0.00,4.05,130494883,99368000,31115000,0
0.07,0.07,0.01,0.00,0.21,8078462,5051000,3030000,0
0.31,0.30,0.02,0.00,0.75,24687347,20728000,3948000,0
0.30,0.29,0.01,0.00,0.77,24847034,23812000,1035000,0
0.31,0.30,0.01,0.00,0.77,24746959,24751000,0,0
1.44,1.40,0.07,0.00,4.02,134490387,97623000,36857000,0
0.34,0.33,0.01,0.00,0.89,27457832,25423000,2033000,0
1.46,1.41,0.07,0.00,4.09,135892105,102871000,32958000,0
0.95,0.92,0.05,0.00,2.44,86135023,59057000,27026000,0
1.55,1.51,0.07,0.00,3.80,130297498,93447000,36782000,0
1.47,1.43,0.07,0.00,3.91,129903204,99838000,29951000,0
1.52,1.47,0.07,0.00,4.12,130398553,106319000,24072000,0
1.51,1.46,0.07,0.00,3.97,130216479,98327000,31782000,0
1.47,1.43,0.07,0.00,3.91,130548802,107617000,22918000,0
0.31,0.30,0.01,0.00,0.80,25254512,25230000,0,0
1.48,1.43,0.07,0.00,3.91,130860325,103870000,26966000,0
1.02,0.98,0.05,0.00,2.63,93555564,66671000,26867000,0
1.55,1.50,0.07,0.00,3.81,130479680,96613000,33864000,0
1.54,1.49,0.07,0.00,3.91,130595125,100673000,29902000,0
1.47,1.43,0.07,0.00,4.04,130367038,102495000,27862000,0
0.31,0.30,0.01,0.00,0.76,24876062,23883000,995000,0
1.53,1.48,0.07,0.00,4.07,130501397,108405000,22082000,0
1.50,1.46,0.07,0.00,3.89,130109053,105058000,25013000,0
0.30,0.30,0.01,0.00,0.75,25138270,24130000,1005000,0
1.50,1.45,0.07,0.00,3.93,130979513,99985000,30995000,0
1.47,1.42,0.07,0.00,4.01,130924054,102924000,27979000,0
0.29,0.28,0.01,0.00,0.74,25301881,23365000,1947000,0
1.51,1.45,0.07,0.00,4.04,131319683,105250000,26062000,0
0.94,0.91,0.05,0.00,2.46,86540966,53707000,32820000,0
0.33,0.31,0.01,0.00,0.79,25111314,24106000,1004000,0
0.31,0.30,0.01,0.00,0.79,24949574,23907000,996000,0
0.30,0.28,0.01,0.00,0.81,25311757,22275000,3037000,0
1.47,1.43,0.07,0.00,3.96,130216321,96063000,34022000,0
1.49,1.45,0.07,0.00,3.87,130428713,102264000,28072000,0
1.49,1.44,0.07,0.00,3.92,130604717,106593000,23908000,0
1.47,1.42,0.07,0.00,3.92,132840380,101645000,31198000,0
1.51,1.46,0.07,0.00,4.07,131287210,102216000,29061000,0
1.37,1.33,0.07,0.00,3.97,135629348,110326000,25074000,0
1.51,1.46,0.07,0.00,3.93,129685073,100757000,28930000,0
0.31,0.30,0.01,0.00,0.80,24514748,22471000,2042000,0
1.45,1.41,0.06,0.00,3.86,127577774,96355000,31114000,0
1.49,1.44,0.07,0.00,3.92,129862332,105881000,23973000,0
0.86,0.84,0.04,0.00,2.16,67886951,63895000,3932000,0
0.31,0.29,0.01,0.00,0.78,24559972,23570000,982000,0
0.31,0.30,0.01,0.00,0.81,24963725,24862000,0,0
1.49,1.44,0.07,0.00,3.99,130651431,99732000,30916000,0
1.52,1.47,0.07,0.00,3.97,131418767,102538000,28870000,0
1.47,1.43,0.07,0.00,3.92,128276760,86159000,42077000,0
0.29,0.28,0.01,0.00,0.79,27948090,26943000,997000,0
1.49,1.45,0.07,0.00,3.95,130580571,97408000,33139000,0
0.29,0.29,0.01,0.00,0.81,25164302,22147000,3020000,0
0.30,0.30,0.01,0.00,0.76,25083109,24075000,1003000,0
1.48,1.44,0.07,0.00,4.01,128227725,104174000,24040000,0
0.93,0.91,0.05,0.00,2.69,89474550,60316000,29152000,0
1.51,1.46,0.07,0.00,4.03,130674138,102737000,27928000,0
1.48,1.43,0.07,0.00,4.02,129963511,104883000,24972000,0
1.45,1.40,0.07,0.00,3.88,128017120,103981000,23995000,0
1.48,1.44,0.07,0.00,3.97,128961769,99935000,28981000,0
0.98,0.95,0.05,0.00,2.53,88670379,63469000,25186000,0
1.49,1.45,0.07,0.00,3.90,128810710,98844000,29952000,0
0.98,0.94,0.05,0.00,2.50,88445444,52620000,35742000,0
1.44,1.40,0.07,0.00,4.11,138227915,102143000,36050000,0
1.50,1.46,0.07,0.00,4.04,130605061,111654000,18941000,0
0.95,0.91,0.05,0.00,2.65,88779312,55856000,32915000,0
0.29,0.29,0.01,0.00,0.80,24724185,24617000,0,0
1.50,1.45,0.07,0.00,3.95,130345693,101457000,28845000,0
0.30,0.29,0.01,0.00,0.79,25841240,24844000,993000,0
1.45,1.41,0.07,0.00,4.01,128280089,103221000,25053000,0
1.48,1.44,0.07,0.00,4.03,130919927,92917000,37966000,0
2.46,2.37,0.14,0.00,7.34,262966825,254062000,1000000,1
0.40,0.39,0.02,0.00,1.19,39664919,38598000,989000,1
0.24,0.23,0.01,0.00,0.70,25620414,24594000,1024000,1
0.57,0.55,0.03,0.00,1.73,65006418,63011000,2000000,1
1.27,1.23,0.07,0.00,3.55,127493447,126396000,1003000,1
0.14,0.14,0.01,0.00,0.41,14190431,13182000,1014000,1
1.23,1.18,0.07,0.00,3.59,135113999,134130000,1000000,1
0.37,0.36,0.02,0.00,1.07,39085664,37099000,1972000,1
1.24,1.19,0.07,0.00,3.61,132804684,131778000,998000,1
1.56,1.50,0.08,0.00,4.43,153378736,153278000,0,1
0.45,0.44,0.03,0.00,1.29,46616727,46599000,0,1
1.01,0.96,0.06,0.00,3.13,114019137,112914000,999000,1
3.34,3.20,0.19,0.00,9.99,373346173,373338000,0,1
0.31,0.30,0.02,0.00,0.98,35270389,34273000,1008000,1
0.39,0.37,0.03,0.00,1.39,50627681,49565000,991000,1
0.26,0.25,0.01,0.00,0.79,27260701,25867000,994000,1
0.17,0.16,0.01,0.00,0.50,18322504,17352000,964000,1
1.12,1.08,0.06,0.00,3.13,113135742,112146000,1001000,1
2.72,2.60,0.16,0.00,8.11,307061127,306964000,0,1
3.30,3.17,0.19,0.00,10.02,373021531,372010000,1000000,1
0.12,0.12,0.01,0.00,0.39,13526687,12555000,965000,1
0.46,0.45,0.02,0.00,1.35,46106009,46103000,0,1
1.01,0.97,0.06,0.00,3.07,117744802,117752000,0,1
0.27,0.27,0.01,0.00,0.79,28442562,28411000,0,1
0.20,0.20,0.01,0.00,0.57,20582938,18624000,1960000,1
0.36,0.35,0.03,0.00,1.29,51737119,50759000,995000,1
1.59,1.52,0.09,0.00,5.00,183823494,181749000,1986000,1
0.59,0.57,0.03,0.00,1.65,58041322,57036000,1000000,1
3.18,3.07,0.16,0.00,9.40,312687673,309658000,3006000,1
3.45,3.30,0.20,0.00,10.48,398111086,397958000,0,1
0.46,0.43,0.02,0.00,1.36,46395191,45378000,1008000,1
0.48,0.46,0.03,0.00,1.43,48525824,47518000,1011000,1
1.79,1.72,0.10,0.00,5.41,202940567,202818000,0,1
0.28,0.27,0.01,0.00,0.80,28652960,27663000,987000,1
0.15,0.15,0.01,0.00,0.44,16363665,14394000,1919000,1
0.55,0.53,0.03,0.00,1.51,54470051,53413000,989000,1
2.93,2.83,0.15,0.00,8.28,295213120,294223000,1000000,1
0.30,0.30,0.02,0.00,0.86,29614687,29613000,0,1
0.68,0.66,0.03,0.00,1.88,67737028,66593000,993000,1
0.23,0.22,0.01,0.00,0.67,22902445,21904000,995000,1
1.84,1.76,0.11,0.00,5.51,205180733,204166000,1000000,1
0.24,0.23,0.01,0.00,0.70,23204252,22196000,1008000,1
1.00,0.95,0.06,0.00,3.14,112446874,111449000,1004000,1
0.15,0.14,0.01,0.00,0.44,14777647,14780000,0,1
0.22,0.22,0.01,0.00,0.62,22671666,22696000,0,1
2.69,2.58,0.15,0.00,8.20,302808043,301803000,999000,1
0.43,0.42,0.02,0.00,1.34,48508325,47540000,990000,1
0.16,0.15,0.01,0.00,0.44,15208019,14196000,1014000,1
0.13,0.13,0.01,0.00,0.39,14373395,13302000,1023000,1
0.25,0.24,0.01,0.00,0.71,24609898,23555000,981000,1
0.50,0.49,0.03,0.00,1.42,51436499,51280000,0,1
0.20,0.19,0.02,0.00,0.72,28818694,27828000,993000,1
0.49,0.47,0.03,0.00,1.38,48543715,47530000,990000,1
0.21,0.20,0.01,0.00,0.62,23244204,23246000,0,1
1.67,1.61,0.09,0.00,4.92,169144807,160051000,9002000,1
0.12,0.12,0.01,0.00,0.38,14032886,13036000,1002000,1
0.49,0.47,0.03,0.00,1.38,48815262,46804000,1991000,1
0.90,0.86,0.05,0.00,2.59,94659003,92656000,1992000,1
2.29,2.20,0.13,0.00,6.83,255637500,254543000,998000,1
0.23,0.21,0.01,0.00,0.72,26096555,25065000,1002000,1
0.47,0.45,0.03,0.00,1.43,48876569,48872000,0,1
0.46,0.45,0.02,0.00,1.34,47084354,46948000,0,1
0.98,0.95,0.05,0.00,2.70,95145371,95141000,0,1
0.22,0.21,0.01,0.00,0.68,26160710,24225000,1938000,1
3.37,3.24,0.19,0.00,10.05,368580956,367514000,1001000,1
0.47,0.45,0.02,0.00,1.29,45565372,43583000,1981000,1
1.08,1.04,0.06,0.00,3.06,110918697,109777000,997000,1
0.69,0.67,0.04,0.00,1.95,70177555,70167000,0,1
3.69,3.55,0.21,0.00,11.05,405067543,403970000,999000,1
0.46,0.44,0.02,0.00,1.29,46380451,45360000,1008000,1
0.20,0.19,0.01,0.00,0.56,18796191,17817000,989000,1
0.47,0.44,0.02,0.00,1.32,46643959,45616000,1013000,1
0.43,0.40,0.03,0.00,1.25,45065326,45045000,0,1
0.12,0.12,0.01,0.00,0.34,12694253,10742000,1953000,1
0.28,0.26,0.02,0.00,0.87,31484897,24360000,7105000,1
1.84,1.77,0.10,0.00,5.32,189530270,189537000,0,1
0.43,0.41,0.02,0.00,1.33,46292050,45281000,1006000,1
3.41,3.27,0.20,0.00,10.47,396017661,395780000,0,1
1.71,1.64,0.09,0.00,4.82,172179121,172162000,0,1
0.28,0.26,0.01,0.00,0.79,27736936,27654000,0,1
0.81,0.78,0.03,0.00,2.00,63792209,60329000,3016000,2
0.80,0.78,0.03,0.00,1.99,65186326,64098000,1001000,2
0.96,0.92,0.06,0.00,2.63,86470364,81392000,4962000,2
0.82,0.80,0.03,0.00,2.04,65991922,63003000,3000000,2
0.49,0.48,0.02,0.00,1.26,40969635,38852000,1992000,2
0.79,0.76,0.03,0.00,1.98,63807891,61810000,1993000,2
0.85,0.82,0.04,0.00,2.09,68114957,65053000,3002000,2
0.75,0.72,0.04,0.00,1.98,68543438,67541000,993000,2
0.41,0.39,0.02,0.00,1.07,34656816,32654000,1979000,2
0.41,0.40,0.02,0.00,1.13,35102896,34083000,1002000,2
0.75,0.73,0.04,0.00,1.97,65383794,60312000,5026000,2
0.78,0.76,0.03,0.00,1.99,64016802,61825000,1994000,2
0.83,0.80,0.03,0.00,2.09,65857672,64749000,996000,2
0.81,0.79,0.03,0.00,2.04,64918160,62905000,1997000,2
0.37,0.37,0.02,0.00,0.97,33269255,32163000,1005000,2
0.39,0.39,0.02,0.00,1.02,33381575,30336000,3033000,2
0.41,0.40,0.02,0.00,1.08,34893847,33857000,995000,2
0.76,0.74,0.03,0.00,1.95,62519628,61512000,1008000,2
0.38,0.37,0.02,0.00,0.99,32585047,27644000,4936000,2
0.37,0.36,0.02,0.00,0.97,32116356,32106000,0,2
0.83,0.80,0.04,0.00,2.21,68002964,65979000,1999000,2
0.77,0.75,0.03,0.00,2.04,63406599,61315000,2010000,2
0.71,0.68,0.04,0.00,2.03,67854548,65854000,1995000,2
0.77,0.75,0.03,0.00,2.05,63188575,61132000,2004000,2
0.43,0.41,0.02,0.00,1.11,36683132,32614000,3953000,2
0.77,0.76,0.03,0.00,1.96,63726768,61753000,1992000,2
0.76,0.73,0.04,0.00,2.01,65203662,65182000,0,2
0.83,0.81,0.04,0.00,2.05,67829481,64836000,2992000,2
0.82,0.80,0.03,0.00,2.06,65141402,65177000,0,2
1.44,1.40,0.06,0.00,3.74,116769805,113663000,2991000,2
0.81,0.79,0.03,0.00,2.06,65308301,63040000,2001000,2
0.92,0.89,0.06,0.00,2.43,85502508,80456000,5028000,2
0.75,0.73,0.04,0.00,2.01,68504472,66500000,1985000,2
0.37,0.36,0.02,0.00,0.97,32241936,30205000,2013000,2
0.37,0.36,0.02,0.00,0.96,32191903,30064000,2004000,2
0.39,0.38,0.02,0.00,1.01,32977748,30798000,1987000,2
0.40,0.38,0.02,0.00,1.04,33746080,28742000,4955000,2
0.82,0.79,0.04,0.00,2.04,64970918,63954000,999000,2
0.85,0.83,0.04,0.00,2.13,69049020,66041000,3001000,2
0.81,0.79,0.03,0.00,2.04,64950076,63940000,999000,2
0.40,0.39,0.02,0.00,1.04,33843751,31838000,1989000,2
0.79,0.77,0.03,0.00,1.99,63451055,59405000,4027000,2
0.45,0.43,0.02,0.00,1.17,37693046,34689000,2973000,2
0.35,0.33,0.02,0.00,0.98,35927346,32833000,2984000,2
0.79,0.76,0.03,0.00,1.99,64314630,62323000,1978000,2
0.39,0.38,0.02,0.00,1.02,33096985,31083000,2005000,2
0.38,0.37,0.02,0.00,1.02,32386050,31360000,1011000,2
0.40,0.39,0.02,0.00,1.11,35029045,34014000,1000000,2
1.45,1.41,0.09,0.00,3.85,128254199,124109000,4003000,2
0.79,0.77,0.03,0.00,2.01,62719468,61703000,995000,2
0.40,0.39,0.02,0.00,1.02,34234251,32143000,2008000,2
0.78,0.76,0.03,0.00,1.97,63212105,60185000,3009000,2
0.79,0.77,0.03,0.00,2.05,63805483,59794000,3986000,2
0.72,0.70,0.04,0.00,2.01,68828779,66811000,2024000,2
0.38,0.36,0.02,0.00,0.98,32734907,30666000,2044000,2
0.39,0.38,0.02,0.00,1.03,34694755,33651000,989000,2
1.39,1.34,0.08,0.00,3.62,122850603,114836000,7988000,2
0.80,0.78,0.04,0.00,1.98,64554469,60482000,4032000,2
0.79,0.77,0.03,0.00,1.99,63861511,62843000,997000,2
0.80,0.78,0.03,0.00,2.14,63040545,61937000,998000,2
0.47,0.45,0.02,0.00,1.27,41303865,38295000,3023000,2
0.39,0.37,0.02,0.00,1.01,32770961,31662000,989000,2
0.79,0.77,0.03,0.00,1.97,63501702,62476000,1007000,2
0.78,0.76,0.03,0.00,2.00,63421112,61330000,1978000,2
0.49,0.48,0.02,0.00,1.28,42145773,40136000,2006000,2
0.41,0.40,0.02,0.00,1.05,34352083,32317000,2019000,2
0.33,0.32,0.02,0.00,0.99,36860450,33869000,2988000,2
0.84,0.82,0.04,0.00,2.14,67220020,63863000,2993000,2
0.38,0.37,0.02,0.00,0.99,33323757,32250000,1007000,2
0.81,0.78,0.03,0.00,2.12,65270464,64246000,1003000,2
0.93,0.90,0.06,0.00,2.54,85333850,79284000,6021000,2
0.99,0.96,0.06,0.00,2.69,92329494,83275000,9029000,2
0.77,0.76,0.03,0.00,2.02,63185110,61187000,2006000,2
0.83,0.80,0.03,0.00,2.07,64598241,61595000,2980000,2
0.44,0.42,0.02,0.00,1.15,36942690,31837000,4974000,2
0.38,0.37,0.02,0.00,1.01,33186189,31168000,2010000,2
0.77,0.76,0.03,0.00,1.95,64238956,62222000,2007000,2
0.36,0.36,0.02,0.00,1.01,36742631,35741000,992000,2
0.65,0.63,0.03,0.00,1.66,54663371,51669000,2980000,2
0.52,0.50,0.02,0.00,1.32,42745925,40739000,1987000,2
1.08,1.04,0.07,0.00,3.01,99516434,90178000,8918000,3
1.16,1.12,0.07,0.00,3.15,104753240,101731000,2992000,3
1.21,1.17,0.07,0.00,3.35,108909968,101800000,6986000,3
0.96,0.93,0.06,0.00,2.56,90170828,87071000,3002000,3
2.44,2.36,0.14,0.00,6.93,239155764,184010000,55003000,3
1.76,1.70,0.10,0.00,4.84,151554976,144457000,6973000,3
3.06,2.96,0.16,0.00,8.36,283446874,221218000,62061000,3
3.06,2.97,0.16,0.00,8.43,285598663,227590000,57895000,3
1.76,1.70,0.09,0.00,4.75,150735865,145563000,5019000,3
1.05,1.01,0.06,0.00,2.83,96109303,91993000,3999000,3
1.02,0.99,0.06,0.00,2.71,94424151,87376000,6950000,3
3.15,3.05,0.16,0.00,8.33,288610668,220655000,67893000,3
1.25,1.20,0.08,0.00,3.33,113303286,106258000,7017000,3
2.36,2.28,0.13,0.00,6.28,227123058,169042000,58014000,3
3.10,3.01,0.16,0.00,8.27,281745682,226579000,55141000,3
2.40,2.32,0.13,0.00,6.30,226997101,173834000,52949000,3
2.30,2.23,0.13,0.00,6.71,227403630,163262000,64103000,3
2.30,2.22,0.14,0.00,6.75,242204391,179397000,62789000,3
0.96,0.92,0.06,0.00,2.70,90961590,86934000,3996000,3
1.06,1.01,0.07,0.00,3.01,96280338,88227000,8020000,3
1.04,1.00,0.06,0.00,2.79,96297506,92303000,3970000,3
1.05,1.01,0.07,0.00,2.87,97187049,94122000,3003000,3
2.26,2.17,0.13,0.00,6.51,224302913,155160000,69071000,3
1.67,1.62,0.09,0.00,4.55,145114300,139083000,6003000,3
3.03,2.93,0.16,0.00,8.60,284796380,198825000,85924000,3
3.54,3.41,0.23,0.00,10.29,341804291,271699000,69922000,3
1.01,0.98,0.06,0.00,2.67,92021201,86996000,4999000,3
1.67,1.62,0.09,0.00,4.50,147216244,141179000,6007000,3
3.09,2.97,0.16,0.00,8.30,283178052,226114000,57028000,3
3.06,2.96,0.16,0.00,8.56,283228500,219071000,64020000,3
1.05,1.01,0.07,0.00,2.77,96066169,94037000,2000000,3
1.07,1.03,0.07,0.00,2.83,96893765,90878000,5991000,3
1.82,1.76,0.10,0.00,5.02,160365088,154328000,6012000,3
3.31,3.21,0.17,0.00,8.66,298373844,243274000,55062000,3
1.04,1.01,0.07,0.00,2.77,96466137,90420000,6028000,3
3.12,3.02,0.16,0.00,8.37,287108850,232067000,55016000,3
2.30,2.22,0.13,0.00,6.67,223589406,170566000,52865000,3
1.17,1.13,0.07,0.00,3.30,109587036,105572000,3983000,3
1.03,0.99,0.07,0.00,2.87,95777629,88742000,6979000,3
3.23,3.12,0.17,0.00,9.21,306184621,232129000,74041000,3
3.28,3.17,0.17,0.00,8.94,300166740,234104000,66029000,3
1.18,1.14,0.07,0.00,3.15,108071472,102041000,6002000,3
2.92,2.82,0.16,0.00,8.34,274574152,213645000,60899000,3
1.02,0.99,0.07,0.00,2.89,96177126,92046000,4002000,3
1.06,1.02,0.07,0.00,2.80,95825797,92802000,2993000,3
3.07,2.97,0.17,0.00,8.49,287170737,230069000,57017000,3
1.14,1.10,0.07,0.00,3.15,104679002,96680000,7973000,3
3.97,3.83,0.26,0.00,11.05,376380015,299478000,76866000,3
3.01,2.92,0.16,0.00,8.53,284416031,218296000,66089000,3
2.29,2.21,0.14,0.00,6.63,228834726,174733000,53917000,3
1.02,0.98,0.07,0.00,2.87,95945559,91915000,3996000,3
2.03,1.97,0.12,0.00,5.53,179357286,174229000,4977000,3
1.03,0.99,0.07,0.00,2.87,96000844,88977000,6998000,3
2.30,2.22,0.14,0.00,6.71,231004906,163966000,66986000,3
3.08,2.98,0.17,0.00,8.81,288822779,233820000,54957000,3
2.39,2.30,0.14,0.00,6.74,232522163,190476000,41884000,3
0.93,0.90,0.06,0.00,2.66,90329470,87288000,3009000,3
0.95,0.92,0.06,0.00,2.72,91630277,87574000,4026000,3
1.00,0.97,0.07,0.00,2.99,94842115,92807000,2017000,3
2.29,2.21,0.13,0.00,6.65,227779428,158821000,68922000,3
3.01,2.91,0.16,0.00,8.47,284451687,221340000,63097000,3
1.01,0.98,0.07,0.00,3.02,95969900,89832000,5988000,3
1.32,1.28,0.09,0.00,3.75,124316817,121124000,3003000,3
0.99,0.95,0.07,0.00,2.84,98647863,90562000,8050000,3
2.35,2.26,0.14,0.00,6.78,227802478,179741000,47931000,3
3.04,2.93,0.16,0.00,8.69,284665497,223610000,60893000,3
1.01,0.97,0.06,0.00,2.84,95106037,91989000,2999000,3
3.03,2.93,0.16,0.00,8.36,280936853,229835000,50963000,3
1.04,1.00,0.07,0.00,3.05,96513883,87433000,8942000,3
1.04,1.01,0.07,0.00,2.99,98528891,96492000,2010000,3
2.33,2.24,0.13,0.00,6.66,228545281,168550000,59840000,3
2.21,2.13,0.13,0.00,6.39,215814812,152840000,62934000,3
1.79,1.73,0.10,0.00,4.96,154418941,146363000,7965000,3
3.07,2.96,0.16,0.00,8.41,282437764,204258000,78098000,3
3.28,3.18,0.17,0.00,9.17,299504020,234500000,64861000,3
1.04,1.00,0.07,0.00,2.93,96828773,91807000,4989000,3
2.32,2.24,0.13,0.00,6.75,230629207,167651000,62869000,3
0.96,0.94,0.06,0.00,2.60,90646504,84528000,6037000,3
3.13,3.02,0.16,0.00,8.80,290178719,243091000,47017000,3
1.05,1.02,0.07,0.00,2.84,96148395,92004000,4000000,3
2.11,2.00,0.18,0.00,6.42,225422767,77928000,10989000,4
1.21,1.16,0.11,0.00,3.31,115825142,108806000,6987000,4
2.73,2.64,0.17,0.00,7.02,228477523,132115000,12010000,4
2.88,2.79,0.18,0.00,7.35,230882912,131905000,8993000,4
1.91,1.85,0.14,0.00,5.11,168150555,72503000,10925000,4
1.08,1.04,0.10,0.00,3.01,104962364,99927000,4996000,4
1.89,1.83,0.14,0.00,5.06,168295156,73459000,10062000,4
2.94,2.85,0.20,0.00,7.61,251842987,157203000,9011000,4
1.32,1.27,0.12,0.00,3.70,124967657,115954000,8996000,4
2.86,2.77,0.20,0.00,7.59,251074135,158766000,7033000,4
2.64,2.55,0.17,0.00,6.98,226678388,132436000,9029000,4
2.65,2.56,0.16,0.00,6.96,221950095,129352000,8119000,4
1.85,1.79,0.14,0.00,5.01,167077983,73604000,9074000,4
2.70,2.62,0.17,0.00,7.21,231253803,135249000,11020000,4
1.99,1.91,0.15,0.00,5.32,178597157,82839000,10240000,4
1.86,1.80,0.14,0.00,5.09,170178174,70395000,14872000,4
1.86,1.79,0.14,0.00,5.06,167145673,71781000,10110000,4
1.86,1.79,0.14,0.00,5.13,170061106,73875000,11253000,4
1.94,1.88,0.14,0.00,5.16,173202844,77257000,11036000,4
2.63,2.54,0.17,0.00,7.11,224538788,129360000,10027000,4
2.09,2.01,0.17,0.00,5.92,198014743,104781000,8060000,4
3.15,3.03,0.22,0.00,8.20,279414696,178529000,15044000,4
1.89,1.83,0.14,0.00,5.26,170345538,71975000,13199000,4
2.66,2.58,0.18,0.00,7.13,240117401,144317000,11024000,4
2.64,2.55,0.17,0.00,7.33,229970318,131324000,13032000,4
1.87,1.79,0.14,0.00,5.11,169274904,72849000,10977000,4
1.09,1.06,0.10,0.00,3.15,109409013,102235000,7016000,4
2.00,1.93,0.15,0.00,5.66,181850646,164744000,16973000,4
1.87,1.80,0.14,0.00,5.13,166156376,68924000,11986000,4
2.02,1.95,0.16,0.00,5.59,189381075,96109000,8009000,4
1.84,1.77,0.14,0.00,5.13,166035983,69215000,11034000,4
1.86,1.79,0.14,0.00,5.11,169984261,72709000,12118000,4
1.88,1.81,0.14,0.00,5.20,171910605,168876000,2997000,4
1.85,1.79,0.13,0.00,5.16,165926744,160898000,4996000,4
3.55,3.41,0.30,0.00,10.18,345498579,244381000,16012000,4
1.80,1.74,0.14,0.00,5.02,165565500,73494000,6952000,4
1.81,1.75,0.13,0.00,4.95,163298595,68898000,8986000,4
2.63,2.54,0.17,0.00,7.17,226906092,128776000,12977000,4
1.83,1.77,0.14,0.00,5.13,172397682,74451000,12280000,4
1.99,1.92,0.15,0.00,5.40,176445194,78544000,13090000,4
1.85,1.79,0.13,0.00,5.02,163069041,156021000,7000000,4
1.84,1.78,0.13,0.00,4.98,163363791,65770000,12954000,4
1.02,0.98,0.09,0.00,2.93,99826892,95802000,3991000,4
1.91,1.85,0.14,0.00,5.25,172001247,75998000,11366000,4
2.59,2.50,0.17,0.00,6.94,222785240,128959000,8997000,4
1.83,1.77,0.13,0.00,4.92,160949658,153901000,6995000,4
1.33,1.27,0.13,0.00,3.81,129559667,120564000,8967000,4
1.92,1.85,0.14,0.00,5.40,172927873,81246000,7021000,4
1.85,1.79,0.14,0.00,5.08,165445358,73285000,7027000,4
1.87,1.80,0.14,0.00,5.07,167857760,71331000,11260000,4
2.13,2.05,0.17,0.00,6.10,197197022,98669000,12956000,4
1.79,1.72,0.13,0.00,4.93,160600824,65912000,9920000,4
1.08,1.03,0.11,0.00,3.43,116643239,105602000,10958000,4
2.07,2.00,0.17,0.00,5.79,192970751,99725000,8227000,4
2.52,2.44,0.16,0.00,6.65,213551582,119852000,8882000,4
2.59,2.50,0.17,0.00,7.00,227765556,130618000,11965000,4
1.12,1.08,0.11,0.00,3.27,112207784,104041000,8003000,4
2.21,2.12,0.19,0.00,6.14,209161372,113216000,10108000,4
1.93,1.87,0.14,0.00,5.21,169842804,74783000,9275000,4
2.66,2.58,0.17,0.00,7.14,224896893,130490000,9033000,4
4.44,4.28,0.34,0.00,12.53,418228072,315339000,17744000,4
1.76,1.70,0.12,0.00,4.71,151970236,54882000,11974000,4
3.22,3.12,0.21,0.00,8.74,286356064,184493000,16704000,4
1.20,1.15,0.12,0.00,3.36,115464982,108443000,6964000,4
1.89,1.82,0.14,0.00,5.19,167475412,72464000,10064000,4
1.80,1.73,0.13,0.00,5.05,159376380,64248000,9826000,4
1.25,1.20,0.13,0.00,3.62,123429426,118362000,5015000,4
1.83,1.77,0.14,0.00,5.07,167377650,71940000,10122000,4
1.88,1.80,0.14,0.00,5.32,167508556,74929000,6993000,4
2.61,2.53,0.17,0.00,7.08,222915205,124497000,13304000,4
1.84,1.78,0.14,0.00,5.06,168058948,70115000,13021000,4
1.86,1.79,0.14,0.00,5.27,168833203,73821000,10112000,4
1.01,0.97,0.10,0.00,3.05,110467200,100494000,9949000,4
2.67,2.58,0.17,0.00,7.05,229253540,132292000,12026000,4
2.61,2.53,0.17,0.00,6.90,227705243,133346000,9023000,4
1.79,1.74,0.13,0.00,4.98,160516666,154505000,5980000,4
1.24,1.19,0.12,0.00,3.57,121068705,111038000,10003000,4
1.11,1.06,0.10,0.00,3.20,108200594,99159000,9014000,4
2.62,2.54,0.17,0.00,7.10,224465533,127713000,11329000,4
1.89,1.82,0.14,0.00,5.13,170980153,78444000,7039000,4
2.13,2.05,0.16,0.00,6.04,202269862,75158000,7911000,5
2.67,2.58,0.17,0.00,6.91,225315138,125743000,14969000,5
2.00,1.94,0.15,0.00,5.39,179429654,74878000,19967000,5
2.84,2.76,0.18,0.00,7.38,229211030,135291000,8953000,5
2.70,2.61,0.17,0.00,7.12,232223940,138629000,9041000,5
1.91,1.84,0.14,0.00,5.16,170549696,77646000,8067000,5
1.53,1.47,0.15,0.00,4.39,151968512,143934000,7996000,5
2.61,2.52,0.17,0.00,6.93,225090098,134124000,6005000,5
1.97,1.90,0.14,0.00,5.25,174754704,78644000,11380000,5
1.88,1.82,0.14,0.00,5.24,169434850,72410000,12068000,5
1.89,1.82,0.14,0.00,5.07,167154560,72783000,10039000,5
2.70,2.61,0.17,0.00,7.03,228808411,132521000,11466000,5
1.52,1.46,0.15,0.00,4.33,147762174,135655000,11969000,5
2.15,2.08,0.16,0.00,5.86,195374340,93398000,16891000,5
1.84,1.78,0.14,0.00,5.10,167446208,69536000,13101000,5
1.89,1.83,0.14,0.00,5.19,167714526,72615000,10085000,5
1.97,1.90,0.16,0.00,5.41,179448211,82544000,12079000,5
1.87,1.80,0.14,0.00,5.21,166945230,72218000,9167000,5
2.46,2.36,0.19,0.00,6.94,229179914,226150000,3002000,5
2.24,2.16,0.17,0.00,6.10,203892337,195841000,7993000,5
1.91,1.85,0.14,0.00,5.11,169733810,76443000,8249000,5
2.19,2.11,0.18,0.00,6.41,216376978,207279000,9012000,5
1.88,1.82,0.14,0.00,5.04,167189734,74550000,8059000,5
1.48,1.42,0.14,0.00,4.14,144723260,135664000,9044000,5
1.88,1.81,0.14,0.00,5.02,167177537,77607000,4974000,5
2.68,2.60,0.17,0.00,7.25,229506733,127931000,17124000,5
2.10,2.03,0.17,0.00,5.78,194413363,101054000,8004000,5
2.42,2.32,0.21,0.00,6.67,222783460,125319000,12399000,5
1.91,1.86,0.14,0.00,5.09,169727609,74963000,10130000,5
2.21,2.14,0.16,0.00,6.09,202033333,195974000,5999000,5
2.34,2.26,0.18,0.00,6.37,216238326,212119000,4002000,5
2.68,2.59,0.17,0.00,7.06,228861954,130255000,13025000,5
2.12,2.05,0.16,0.00,5.82,195185480,101698000,7976000,5
1.88,1.82,0.14,0.00,5.13,168196674,71406000,11062000,5
2.05,1.97,0.16,0.00,5.60,182303276,85309000,11864000,5
1.89,1.83,0.14,0.00,5.08,167234144,70647000,11101000,5
1.88,1.82,0.14,0.00,5.26,166890195,77015000,5309000,5
1.44,1.38,0.13,0.00,4.12,141018890,130844000,9988000,5
2.64,2.56,0.17,0.00,6.86,222684913,126924000,10993000,5
1.92,1.85,0.14,0.00,5.35,172163656,78036000,9004000,5
1.93,1.87,0.14,0.00,5.21,171835652,72260000,14209000,5
1.85,1.79,0.14,0.00,5.14,167353929,73045000,9005000,5
1.92,1.85,0.14,0.00,5.23,173472229,80194000,8019000,5
1.92,1.86,0.14,0.00,5.25,170862741,71754000,14479000,5
2.77,2.67,0.24,0.00,8.05,266722512,169335000,12581000,5
2.26,2.18,0.17,0.00,6.10,206002730,198959000,6998000,5
1.39,1.33,0.14,0.00,4.02,136633963,119447000,17063000,5
1.92,1.86,0.15,0.00,5.39,173143507,77983000,10324000,5
2.14,2.08,0.17,0.00,5.86,197863410,101034000,12004000,5
1.54,1.48,0.16,0.00,4.63,155954603,145916000,9994000,5
1.89,1.83,0.14,0.00,5.17,171250697,76207000,9897000,5
3.64,3.49,0.31,0.00,10.53,354543824,255033000,14701000,5
1.61,1.54,0.16,0.00,4.63,160069362,150016000,10001000,5
2.56,2.47,0.16,0.00,6.84,215333906,125141000,4914000,5
2.34,2.26,0.18,0.00,6.59,211815198,201467000,10023000,5
2.17,2.09,0.18,0.00,5.98,199913483,103728000,11077000,5
1.89,1.83,0.14,0.00,5.08,167543556,76851000,5988000,5
2.15,2.06,0.24,0.00,6.47,226225897,208130000,18011000,5
2.93,2.84,0.20,0.00,7.78,250518424,146311000,19585000,5
2.13,2.06,0.17,0.00,5.93,198631539,105433000,8274000,5
2.56,2.48,0.17,0.00,7.02,228294062,133557000,10041000,5
3.67,3.53,0.32,0.00,10.35,336478595,318484000,17970000,5
2.13,2.05,0.17,0.00,6.07,196024536,100558000,10055000,5
1.93,1.86,0.14,0.00,5.44,173745621,82688000,6050000,5
2.43,2.35,0.19,0.00,6.77,225367099,218309000,7009000,5
2.65,2.56,0.17,0.00,7.28,227802277,135609000,7209000,5
2.68,2.59,0.17,0.00,7.29,230611192,135674000,9976000,5
2.64,2.56,0.17,0.00,7.05,226985982,133295000,8017000,5
2.66,2.57,0.17,0.00,7.20,227125642,131594000,10586000,5
1.87,1.80,0.14,0.00,5.23,167397985,71532000,11082000,5
1.79,1.72,0.12,0.00,4.79,155886711,62194000,8884000,5
1.90,1.83,0.14,0.00,5.15,169747512,77739000,7181000,5
1.88,1.81,0.14,0.00,5.30,170949354,77584000,8060000,5
1.52,1.47,0.15,0.00,4.52,153514820,142364000,11028000,5
2.66,2.57,0.17,0.00,7.01,226863708,130051000,12004000,5
2.60,2.52,0.16,0.00,6.85,219879244,122085000,13009000,5
2.64,2.56,0.17,0.00,7.10,222874849,127079000,11006000,5
1.79,1.73,0.12,0.00,4.78,155835194,62553000,8071000,5
1.78,1.72,0.13,0.00,4.97,165791963,71784000,8973000,5
1.95,1.87,0.15,0.00,5.38,174190861,78948000,9993000,5
3.11,3.02,0.14,0.00,7.94,244587389,236206000,8006000,6
2.46,2.39,0.10,0.00,6.05,192170930,189139000,3002000,6
0.96,0.93,0.04,0.00,2.42,77615054,71621000,5968000,6
3.34,3.22,0.29,0.00,9.25,326676691,310607000,16031000,6
3.46,3.32,0.29,0.00,9.84,337145221,323978000,12999000,6
3.04,2.95,0.13,0.00,7.49,246642055,238544000,7984000,6
2.75,2.67,0.12,0.00,6.90,217860263,211799000,5994000,6
2.50,2.40,0.19,0.00,7.27,254724088,105852000,10984000,6
2.85,2.75,0.18,0.00,7.39,246678816,180321000,66117000,6
1.45,1.41,0.08,0.00,3.79,132226699,124160000,8010000,6
3.00,2.91,0.13,0.00,7.47,245483977,235438000,10018000,6
1.69,1.64,0.11,0.00,4.63,154199952,143018000,11001000,6
1.42,1.37,0.08,0.00,3.72,130639733,123628000,6979000,6
0.95,0.92,0.05,0.00,2.44,80881623,74865000,5989000,6
2.44,2.38,0.10,0.00,6.10,189708930,185678000,3993000,6
3.15,3.06,0.15,0.00,8.18,282245159,274223000,8006000,6
0.99,0.96,0.05,0.00,2.53,84762657,73770000,10965000,6
3.08,2.97,0.20,0.00,8.25,293475940,279436000,14021000,6
3.17,3.06,0.17,0.00,8.25,268453593,260387000,8011000,6
0.87,0.85,0.04,0.00,2.25,73091977,69070000,4004000,6
3.39,3.26,0.30,0.00,9.67,332738976,311695000,20979000,6
1.24,1.18,0.09,0.00,3.21,104337468,100305000,4012000,6
0.82,0.80,0.04,0.00,2.13,68660776,63652000,4972000,6
4.97,4.79,0.36,0.00,13.29,448711629,429551000,18980000,6
1.47,1.42,0.08,0.00,4.02,143238776,134120000,9008000,6
3.05,2.96,0.14,0.00,7.74,253932561,244917000,8996000,6
3.82,3.71,0.20,0.00,9.61,302555696,200030000,17672000,6
4.94,4.76,0.36,0.00,13.45,448149432,433096000,15003000,6
4.90,4.73,0.36,0.00,13.50,449219189,432104000,16964000,6
5.00,4.83,0.36,0.00,13.63,454985853,430884000,23993000,6
0.90,0.87,0.04,0.00,2.30,75841833,72817000,2992000,6
3.45,3.31,0.32,0.00,9.91,345031047,324998000,19999000,6
2.95,2.84,0.21,0.00,8.26,273295287,172764000,15955000,6
4.83,4.68,0.24,0.00,11.67,372229006,364737000,6994000,6
0.80,0.79,0.04,0.00,2.15,67508358,64478000,2975000,6
1.91,1.85,0.11,0.00,5.24,182223763,175238000,6969000,6
1.99,1.92,0.11,0.00,5.18,168490104,75211000,7898000,6
4.89,4.73,0.32,0.00,13.13,434285374,422249000,12007000,6
1.07,1.03,0.05,0.00,2.82,96668006,89484000,7038000,6
3.50,3.35,0.32,0.00,9.67,347752689,323736000,23980000,6
1.03,1.00,0.05,0.00,2.75,84858723,78714000,5978000,6
0.86,0.83,0.04,0.00,2.24,73895312,71875000,1996000,6
3.47,3.33,0.32,0.00,9.92,347898265,325873000,21991000,6
1.00,0.97,0.05,0.00,2.58,85264712,76213000,9025000,6
0.81,0.78,0.04,0.00,2.08,68147994,66094000,2002000,6
4.99,4.82,0.36,0.00,13.49,451221217,433054000,18002000,6
0.95,0.92,0.04,0.00,2.42,79042721,73952000,5065000,6
2.99,2.89,0.16,0.00,7.51,239234146,224127000,15008000,6
2.91,2.83,0.15,0.00,7.35,230004912,223877000,5996000,6
3.83,3.70,0.25,0.00,10.57,363469411,344385000,18966000,6
0.98,0.95,0.05,0.00,2.44,79195308,74148000,5010000,6
3.62,3.47,0.31,0.00,10.33,354224089,318146000,36016000,6
3.02,2.93,0.14,0.00,7.81,250953491,241935000,8997000,6
1.02,0.99,0.05,0.00,2.60,84897393,75803000,8976000,6
2.57,2.51,0.11,0.00,6.46,202623932,195560000,7020000,6
1.15,1.11,0.06,0.00,2.91,96978907,92897000,3995000,6
2.51,2.44,0.11,0.00,6.24,199135386,188101000,11005000,6
3.48,3.37,0.17,0.00,8.89,279726812,188471000,6015000,6
4.91,4.73,0.36,0.00,13.50,448020685,430850000,16994000,6
3.37,3.24,0.30,0.00,9.34,329642199,311550000,17974000,6
1.38,1.34,0.07,0.00,3.69,129861977,124751000,4990000,6
1.34,1.31,0.09,0.00,3.56,114628493,108595000,6033000,6
1.77,1.71,0.12,0.00,4.66,160717786,142697000,17961000,6
2.98,2.90,0.13,0.00,7.52,248806218,243783000,4995000,6
2.90,2.82,0.16,0.00,7.28,231376031,222247000,9010000,6
2.61,2.54,0.11,0.00,6.53,202859035,191699000,10982000,6
3.83,3.68,0.31,0.00,10.84,362118145,243023000,33735000,6
0.88,0.85,0.04,0.00,2.27,74240973,72204000,2005000,6
2.43,2.36,0.10,0.00,6.04,194634193,190585000,4012000,6
3.48,3.35,0.32,0.00,10.13,349512051,326409000,22958000,6
0.92,0.90,0.04,0.00,2.38,78934371,72836000,5986000,6
1.80,1.74,0.09,0.00,4.65,159943067,149833000,9988000,6
2.46,2.39,0.10,0.00,6.12,193523368,186355000,7013000,6
0.90,0.86,0.04,0.00,2.29,74371589,70327000,4018000,6
0.90,0.87,0.04,0.00,2.36,76958537,71938000,4995000,6
2.07,2.00,0.12,0.00,5.33,172773026,78684000,8894000,6
2.57,2.48,0.15,0.00,6.92,248952088,238889000,10037000,6
0.92,0.90,0.04,0.00,2.36,78622039,74611000,3979000,6
2.48,2.40,0.11,0.00,6.31,194930766,188760000,5992000,6
1.45,1.40,0.08,0.00,3.92,129923794,123901000,5995000,6
4.13,3.97,0.33,0.00,10.13,339469729,173419000,165445000,7
1.73,1.69,0.07,0.00,4.08,138420286,137408000,1002000,7
2.99,2.88,0.19,0.00,7.83,255918446,123873000,131865000,7
3.53,3.36,0.31,0.00,9.25,309962989,153869000,155867000,7
1.13,1.07,0.10,0.00,3.65,138832296,2108000,4216000,7
0.64,0.63,0.03,0.00,1.66,58823146,57824000,996000,7
1.09,1.06,0.07,0.00,2.94,92151073,2835000,3780000,7
1.34,1.30,0.06,0.00,3.36,108507541,108344000,0,7
1.09,1.05,0.07,0.00,2.87,92888848,6544000,0,7
1.10,1.06,0.07,0.00,2.85,92358864,1052000,5260000,7
1.27,1.24,0.05,0.00,3.18,103538198,101546000,1991000,7
1.35,1.31,0.05,0.00,3.13,101083424,97979000,2999000,7
1.04,1.01,0.07,0.00,2.82,94123578,989000,5521000,7
4.01,3.84,0.33,0.00,10.51,338967516,180808000,157832000,7
0.71,0.68,0.03,0.00,1.73,56268205,55136000,1002000,7
3.52,3.35,0.31,0.00,9.33,303296110,151041000,152042000,7
1.05,1.02,0.07,0.00,2.94,91654570,1903000,4377000,7
4.10,3.95,0.25,0.00,10.94,359781930,220848000,138904000,7
1.15,1.12,0.05,0.00,2.82,96820616,94679000,1993000,7
3.50,3.34,0.31,0.00,9.25,303562598,139680000,163625000,7
1.08,1.04,0.07,0.00,2.77,90878711,2011000,4549000,7
1.63,1.58,0.07,0.00,3.96,135011151,134006000,1000000,7
2.46,2.39,0.11,0.00,6.29,214634853,212629000,1996000,7
4.04,3.86,0.34,0.00,10.31,339535792,199200000,140140000,7
1.07,1.03,0.07,0.00,2.81,91954897,2110000,4220000,7
1.43,1.39,0.06,0.00,3.57,124495407,124479000,0,7
3.54,3.37,0.31,0.00,9.58,304238727,157971000,145973000,7
1.23,1.19,0.05,0.00,2.95,95703103,93592000,1991000,7
1.16,1.12,0.09,0.00,3.36,119651086,9176000,20392000,7
0.94,0.91,0.04,0.00,2.37,71839687,70754000,996000,7
3.31,3.15,0.30,0.00,8.61,286042778,134977000,150974000,7
1.08,1.05,0.07,0.00,2.89,91697196,6267000,0,7
3.79,3.62,0.33,0.00,10.41,338702996,173715000,164730000,7
0.98,0.95,0.04,0.00,2.59,81963475,80949000,999000,7
3.33,3.19,0.22,0.00,8.93,290288964,156138000,134119000,7
3.53,3.36,0.31,0.00,9.60,306654193,152711000,153709000,7
3.80,3.63,0.34,0.00,10.12,336140054,181971000,153975000,7
3.57,3.41,0.31,0.00,9.41,305483165,147054000,158059000,7
1.06,1.03,0.07,0.00,2.83,91911907,2186000,4373000,7
1.05,1.02,0.07,0.00,2.86,90866520,1257000,5029000,7
0.69,0.67,0.03,0.00,1.82,56730282,55688000,994000,7
3.73,3.55,0.32,0.00,9.59,317428394,174662000,142724000,7
3.16,3.04,0.21,0.00,8.53,277339635,144161000,133149000,7
0.69,0.67,0.03,0.00,1.73,56350985,55258000,1004000,7
3.59,3.43,0.31,0.00,9.35,306057804,155877000,149881000,7
1.70,1.65,0.07,0.00,4.32,137817525,135739000,1996000,7
1.07,1.03,0.07,0.00,2.87,92261287,2128000,4257000,7
4.05,3.86,0.34,0.00,10.80,344758518,178737000,165756000,7
1.40,1.37,0.06,0.00,3.48,109568347,108554000,1005000,7
3.59,3.43,0.31,0.00,9.37,303717856,154690000,148702000,7
1.04,1.01,0.07,0.00,2.82,92324026,1962000,4494000,7
4.06,3.87,0.38,0.00,10.68,340104852,184925000,154937000,7
3.85,3.67,0.33,0.00,10.27,332244096,174586000,157626000,7
4.12,3.94,0.35,0.00,10.97,355992722,200917000,154936000,7
0.68,0.66,0.03,0.00,1.72,56244248,53244000,2958000,7
0.82,0.80,0.03,0.00,1.99,65542782,61372000,4024000,7
1.67,1.62,0.07,0.00,4.06,135085911,134091000,1000000,7
4.24,4.05,0.35,0.00,11.51,367375018,207503000,159617000,7
4.58,4.38,0.38,0.00,12.22,395373193,223488000,171607000,7
1.05,1.02,0.07,0.00,2.95,91568234,1040000,5200000,7
0.94,0.92,0.04,0.00,2.25,72227059,71207000,1002000,7
4.04,3.87,0.33,0.00,10.50,340307251,182015000,158013000,7
3.96,3.79,0.33,0.00,10.37,338438368,190088000,148068000,7
3.52,3.36,0.31,0.00,9.36,302080803,151890000,149891000,7
1.01,0.99,0.04,0.00,2.52,82568684,80532000,2013000,7
0.78,0.75,0.03,0.00,1.96,60192973,59155000,985000,7
3.55,3.39,0.31,0.00,9.53,304469261,139110000,165131000,7
1.21,1.18,0.05,0.00,3.08,94669674,92659000,1992000,7
3.13,3.01,0.21,0.00,8.51,276320150,125090000,151109000,7
1.36,1.32,0.05,0.00,3.44,100139998,99069000,1000000,7
3.00,2.89,0.21,0.00,8.23,263501100,127709000,135691000,7
3.57,3.42,0.31,0.00,10.07,307701053,153686000,153686000,7
1.08,1.05,0.07,0.00,2.87,92407827,2189000,4378000,7
1.04,1.00,0.04,0.00,2.57,78148965,78144000,0,7
1.34,1.31,0.05,0.00,3.30,99175453,98128000,1001000,7
4.21,4.06,0.26,0.00,11.30,362897949,228913000,133949000,7
0.80,0.79,0.03,0.00,1.93,62670576,60673000,1989000,7
3.15,3.02,0.22,0.00,8.82,283846833,140890000,142888000,7
3.67,3.50,0.32,0.00,9.81,315417258,169081000,146070000,7
3.45,3.29,0.31,0.00,9.37,300367464,149073000,151074000,7
2.29,2.21,0.14,0.00,6.09,193058253,181588000,11035000,8
1.89,1.82,0.11,0.00,4.97,164671591,159617000,5019000,8
2.11,2.04,0.12,0.00,5.50,179804040,173785000,5992000,8
2.98,2.87,0.18,0.00,8.18,264416213,197536000,66843000,8
1.47,1.42,0.10,0.00,3.90,124806655,113895000,10894000,8
1.53,1.47,0.10,0.00,4.01,126466227,123440000,3010000,8
4.61,4.45,0.28,0.00,12.24,398022067,332958000,64991000,8
1.73,1.66,0.15,0.00,4.57,143494335,135449000,8026000,8
6.01,5.79,0.43,0.00,16.57,541004332,407957000,132985000,8
1.54,1.48,0.11,0.00,4.25,131571373,116597000,14948000,8
1.77,1.72,0.12,0.00,4.75,150279802,136325000,13931000,8
1.43,1.37,0.10,0.00,3.78,120278486,112236000,8016000,8
4.22,4.09,0.22,0.00,11.23,362934422,297898000,64977000,8
1.33,1.29,0.09,0.00,3.59,116344713,107302000,8941000,8
1.62,1.56,0.11,0.00,4.41,153688015,145690000,7983000,8
1.45,1.39,0.10,0.00,3.99,122384987,114341000,8023000,8
4.71,4.56,0.27,0.00,12.71,409024194,338996000,69999000,8
1.22,1.17,0.09,0.00,3.35,103544329,91575000,11944000,8
4.22,4.08,0.22,0.00,11.34,367046436,308953000,57991000,8
2.99,2.88,0.19,0.00,8.34,280769602,199812000,80924000,8
1.62,1.56,0.11,0.00,4.37,139863295,130817000,8987000,8
2.44,2.35,0.14,0.00,6.38,207546747,203512000,3990000,8
1.70,1.64,0.11,0.00,4.59,148166996,142116000,6004000,8
2.93,2.83,0.18,0.00,8.14,269100611,198054000,71019000,8
1.14,1.10,0.09,0.00,3.17,106841232,101794000,5039000,8
1.96,1.90,0.13,0.00,5.32,166261943,157113000,9006000,8
4.17,4.03,0.24,0.00,10.99,356887281,295843000,60967000,8
4.17,4.03,0.22,0.00,11.18,363801797,313805000,49969000,8
4.50,4.35,0.24,0.00,12.09,391150800,326098000,65019000,8
1.81,1.74,0.14,0.00,4.82,151073376,137948000,12995000,8
4.15,4.01,0.22,0.00,11.25,363116352,303892000,58979000,8
1.47,1.42,0.11,0.00,3.96,127629127,113646000,13956000,8
1.38,1.34,0.09,0.00,3.73,120323846,111273000,9022000,8
1.56,1.50,0.11,0.00,4.19,135735560,119746000,15966000,8
1.91,1.84,0.12,0.00,5.20,166915303,158844000,8042000,8
2.66,2.53,0.28,0.00,7.91,261356477,247314000,14017000,8
1.39,1.33,0.10,0.00,3.73,118560776,101603000,16933000,8
1.88,1.80,0.15,0.00,4.98,157730553,143637000,14062000,8
1.57,1.51,0.10,0.00,4.25,136744543,128588000,7974000,8
2.37,2.29,0.16,0.00,6.35,194058545,182965000,11058000,8
1.49,1.44,0.11,0.00,4.07,130300193,118341000,11933000,8
1.83,1.77,0.12,0.00,4.90,156662728,148662000,7981000,8
2.65,2.54,0.19,0.00,7.28,238155714,147072000,91044000,8
5.09,4.92,0.31,0.00,13.68,441980234,363934000,77985000,8
1.71,1.66,0.11,0.00,4.60,145548622,140413000,4979000,8
2.01,1.94,0.13,0.00,5.24,164666515,152667000,11973000,8
1.63,1.58,0.10,0.00,4.39,142555233,135541000,6976000,8
1.64,1.57,0.14,0.00,4.47,141036180,135004000,6000000,8
1.40,1.35,0.09,0.00,3.93,120787705,111779000,8982000,8
1.56,1.51,0.10,0.00,4.18,131204335,118142000,13015000,8
1.39,1.34,0.12,0.00,3.73,117129245,108092000,9007000,8
1.54,1.48,0.14,0.00,4.15,130973382,121917000,8993000,8
2.39,2.31,0.14,0.00,6.31,201514785,190537000,10973000,8
1.87,1.81,0.12,0.00,5.15,159441980,149273000,9951000,8
1.59,1.54,0.11,0.00,4.28,136054354,123024000,13002000,8
1.39,1.35,0.09,0.00,3.69,118214445,109185000,9015000,8
1.43,1.38,0.10,0.00,3.84,124308103,120286000,3976000,8
4.97,4.82,0.24,0.00,11.88,400152061,397131000,3000000,8
1.86,1.80,0.13,0.00,4.89,156463021,145474000,10960000,8
5.60,5.42,0.30,0.00,14.71,472911443,407891000,64982000,8
1.68,1.63,0.11,0.00,4.54,151354371,137301000,14030000,8
1.52,1.47,0.10,0.00,4.06,130726576,125677000,5027000,8
4.26,4.11,0.24,0.00,11.32,358161803,307088000,51014000,8
1.44,1.38,0.13,0.00,3.80,117770609,107777000,9979000,8
4.27,4.13,0.22,0.00,11.27,364632162,297493000,67111000,8
5.03,4.86,0.28,0.00,13.31,422964095,367816000,54972000,8
1.21,1.16,0.09,0.00,3.20,101244635,95079000,6005000,8
2.77,2.65,0.27,0.00,7.62,231622391,215618000,15971000,8
1.81,1.75,0.12,0.00,4.79,151799511,137753000,13974000,8
4.29,4.16,0.22,0.00,11.24,366846644,307819000,58965000,8
1.70,1.65,0.11,0.00,4.51,144911004,136846000,7991000,8
1.40,1.35,0.10,0.00,3.90,119734587,109722000,9974000,8
4.44,4.29,0.24,0.00,11.67,383060861,323986000,58997000,8
4.49,4.35,0.24,0.00,11.93,382857722,310673000,72156000,8
3.24,3.12,0.24,0.00,8.77,284055342,272988000,10999000,8
4.81,4.67,0.25,0.00,12.98,415580760,357610000,57936000,8
5.21,5.03,0.32,0.00,14.14,452532002,382433000,70079000,8
1.97,1.91,0.13,0.00,5.22,170439317,165375000,4981000,8
4.14,4.00,0.22,0.00,11.23,365083055,318032000,47004000,8
1.36,1.31,0.09,0.00,3.59,115839653,108824000,6988000,8
0.51,0.49,0.02,0.00,1.26,41371495,40027000,1026000,9
0.52,0.50,0.02,0.00,1.26,41197489,40210000,980000,9
0.21,0.21,0.01,0.00,0.50,16417456,13442000,2880000,9
0.48,0.47,0.02,0.00,1.20,38911322,36782000,1988000,9
0.50,0.48,0.02,0.00,1.24,40372211,38344000,2018000,9
0.15,0.14,0.01,0.00,0.38,11268303,8186000,3069000,9
0.05,0.04,0.00,0.00,0.12,3881369,1940000,1940000,9
0.56,0.54,0.02,0.00,1.37,44938899,41920000,2994000,9
0.49,0.47,0.02,0.00,1.30,41247443,40240000,1006000,9
0.48,0.48,0.02,0.00,1.25,39596844,37603000,1979000,9
0.12,0.12,0.01,0.00,0.33,12289738,10417000,1894000,9
0.38,0.37,0.02,0.00,0.97,31614283,19370000,12233000,9
0.21,0.21,0.01,0.00,0.50,16864559,14882000,1984000,9
0.48,0.47,0.02,0.00,1.20,38014398,35892000,1994000,9
0.03,0.04,0.00,0.00,0.09,3427204,3416000,0,9
0.25,0.24,0.01,0.00,0.62,18382196,14204000,4058000,9
0.50,0.49,0.02,0.00,1.26,40113605,38102000,2005000,9
0.50,0.49,0.02,0.00,1.24,39786420,37699000,1984000,9
0.16,0.16,0.01,0.00,0.39,13387155,8604000,4780000,9
1.35,1.29,0.09,0.00,3.68,125583666,2062000,4125000,9
0.18,0.17,0.01,0.00,0.46,14475047,11361000,3098000,9
0.21,0.20,0.01,0.00,0.53,17072053,7962000,8957000,9
0.51,0.51,0.02,0.00,1.32,42572794,39583000,2968000,9
0.04,0.04,0.00,0.00,0.11,4516729,3381000,1127000,9
0.15,0.15,0.01,0.00,0.37,12262868,9126000,3042000,9
0.14,0.14,0.01,0.00,0.36,11055784,10043000,1004000,9
0.03,0.03,0.00,0.00,0.11,3817252,2864000,954000,9
0.50,0.48,0.02,0.00,1.24,39897262,36971000,2918000,9
0.51,0.50,0.02,0.00,1.31,41710668,38566000,3044000,9
0.54,0.53,0.03,0.00,1.42,46821500,45749000,994000,9
0.51,0.49,0.02,0.00,1.27,39381194,37365000,2019000,9
0.22,0.21,0.01,0.00,0.55,17063182,16044000,1002000,9
0.24,0.24,0.01,0.00,0.57,18840060,12865000,5938000,9
0.50,0.47,0.02,0.00,1.26,39208616,37122000,2006000,9
1.20,1.15,0.07,0.00,3.09,99575341,8132000,5656000,9
0.52,0.51,0.02,0.00,1.32,41010100,37962000,2997000,9
0.23,0.22,0.01,0.00,0.54,17303199,16275000,1017000,9
0.05,0.04,0.00,0.00,0.12,3435848,3435000,0,9
0.43,0.41,0.02,0.00,1.21,44115274,43124000,1002000,9
0.19,0.18,0.01,0.00,0.47,14692014,9777000,4888000,9
0.23,0.22,0.02,0.00,0.60,18595222,11718000,6835000,9
0.15,0.15,0.01,0.00,0.37,12264772,12259000,0,9
0.16,0.15,0.01,0.00,0.40,12534782,7697000,4810000,9
0.28,0.27,0.01,0.00,0.72,21633617,15722000,5895000,9
0.05,0.05,0.00,0.00,0.12,4471381,2220000,2220000,9
0.09,0.08,0.01,0.00,0.25,7118579,3521000,3521000,9
0.48,0.46,0.02,0.00,1.24,39544538,36536000,2962000,9
0.50,0.48,0.02,0.00,1.25,39747816,36626000,2969000,9
0.03,0.04,0.00,0.00,0.09,3576564,3582000,0,9
0.15,0.15,0.01,0.00,0.38,12180763,12129000,0,9
0.04,0.04,0.00,0.00,0.12,3358348,1680000,1680000,9
0.21,0.20,0.01,0.00,0.52,16083120,13067000,3015000,9
0.22,0.21,0.01,0.00,0.53,16849472,13797000,2956000,9
0.14,0.14,0.01,0.00,0.35,11338598,10311000,1031000,9
0.15,0.14,0.01,0.00,0.38,11564643,9563000,1912000,9
0.18,0.18,0.01,0.00,0.47,14752373,11580000,3158000,9
0.14,0.13,0.01,0.00,0.45,17460210,6124000,11228000,9
0.03,0.04,0.00,0.00,0.09,3337091,3299000,0,9
0.52,0.51,0.02,0.00,1.33,41219924,39047000,2002000,9
0.51,0.49,0.02,0.00,1.28,39569543,36523000,2961000,9
0.05,0.04,0.00,0.00,0.12,3619688,3532000,0,9
0.03,0.04,0.00,0.00,0.09,3451372,1727000,1727000,9
0.52,0.51,0.02,0.00,1.31,41660453,39660000,1983000,9
0.15,0.15,0.01,0.00,0.38,11854903,10784000,980000,9
0.15,0.16,0.01,0.00,0.39,12540611,10442000,2088000,9
0.12,0.12,0.01,0.00,0.35,12717438,8817000,3919000,9
0.14,0.14,0.01,0.00,0.36,11479643,11451000,0,9
0.50,0.48,0.02,0.00,1.23,39520216,37552000,1976000,9
0.21,0.21,0.01,0.00,0.51,16090537,16056000,0,9
0.54,0.53,0.02,0.00,1.38,41746138,39751000,1987000,9
0.51,0.50,0.02,0.00,1.28,42119237,41100000,1002000,9
0.06,0.05,0.00,0.00,0.15,4625489,3468000,1156000,9
0.63,0.61,0.03,0.00,1.62,52196886,42146000,10034000,9
0.03,0.03,0.00,0.00,0.09,3012570,2009000,1004000,9
0.51,0.49,0.02,0.00,1.31,39681874,38683000,991000,9
0.16,0.16,0.01,0.00,0.41,13309124,9505000,3802000,9
0.09,0.10,0.01,0.00,0.25,8548477,4250000,4250000,9
0.04,0.04,0.00,0.00,0.09,3667253,1835000,1835000,9
0.48,0.47,0.02,0.00,1.25,39622256,38561000,988000,9
0.03,0.04,0.00,0.00,0.09,3338129,3314000,0,9
0.75,0.72,0.06,0.00,1.94,63438945,59069000,3937000,10
0.77,0.74,0.06,0.00,2.04,68854097,58828000,9970000,10
0.73,0.70,0.06,0.00,2.01,66161115,59120000,7014000,10
0.59,0.56,0.04,0.00,1.55,51405440,45338000,6045000,10
0.74,0.71,0.06,0.00,2.06,67125572,59075000,8010000,10
0.70,0.68,0.06,0.00,1.92,64468521,60418000,4027000,10
0.90,0.87,0.08,0.00,2.51,80531530,70421000,10060000,10
0.77,0.75,0.06,0.00,2.11,68752087,62669000,5968000,10
0.75,0.73,0.07,0.00,2.15,71683032,64588000,7064000,10
1.13,1.12,0.05,0.00,2.85,88415852,83366000,5022000,10
1.44,1.40,0.09,0.00,3.70,119169538,114131000,5005000,10
1.46,1.41,0.09,0.00,3.84,123955773,113940000,9994000,10
0.57,0.56,0.03,0.00,1.48,48539249,45465000,3031000,10
1.61,1.55,0.14,0.00,4.27,143911736,128897000,14988000,10
0.49,0.47,0.03,0.00,1.28,39746124,34731000,4961000,10
1.37,1.33,0.09,0.00,3.63,117661675,106644000,10963000,10
1.33,1.29,0.08,0.00,3.46,110977467,104961000,5997000,10
0.78,0.75,0.06,0.00,2.10,68362447,60193000,8025000,10
0.76,0.73,0.07,0.00,2.11,69886573,59793000,9965000,10
0.55,0.53,0.03,0.00,1.38,44998415,39950000,4993000,10
0.54,0.53,0.03,0.00,1.38,45575715,40486000,5060000,10
0.51,0.50,0.03,0.00,1.32,43074069,38032000,5004000,10
0.70,0.68,0.06,0.00,1.97,64204502,58134000,6013000,10
0.52,0.50,0.03,0.00,1.37,42904154,37762000,4968000,10
0.70,0.68,0.06,0.00,1.95,63294134,59218000,4014000,10
1.34,1.30,0.09,0.00,3.50,113032642,103908000,8992000,10
1.31,1.26,0.07,0.00,3.28,105644590,101590000,3983000,10
0.79,0.76,0.06,0.00,2.14,70654037,66523000,4031000,10
0.70,0.67,0.06,0.00,1.92,61753329,56577000,5051000,10
1.31,1.27,0.08,0.00,3.42,108385020,102302000,6017000,10
1.22,1.17,0.08,0.00,3.38,111756160,102641000,8968000,10
1.19,1.15,0.10,0.00,3.22,107036936,98003000,9000000,10
1.28,1.24,0.07,0.00,3.26,104054121,99047000,5002000,10
0.86,0.83,0.07,0.00,2.42,83852879,71857000,11976000,10
0.72,0.70,0.06,0.00,2.06,67559897,54621000,12910000,10
0.47,0.46,0.03,0.00,1.34,48555729,45509000,2968000,10
1.38,1.33,0.09,0.00,3.61,117222647,110173000,7011000,10
0.75,0.72,0.07,0.00,2.15,71934552,62926000,8989000,10
1.21,1.18,0.06,0.00,2.99,95551103,89456000,5963000,10
1.09,1.07,0.05,0.00,2.80,88386487,85391000,2978000,10
0.52,0.50,0.03,0.00,1.31,42759317,36772000,5963000,10
0.98,0.94,0.09,0.00,2.73,93544592,68653000,24874000,10
0.55,0.53,0.03,0.00,1.41,45009640,40893000,3989000,10
0.53,0.52,0.03,0.00,1.38,43822428,38817000,4976000,10
0.58,0.57,0.04,0.00,1.50,49695132,40610000,8914000,10
1.35,1.32,0.08,0.00,3.52,112686727,103685000,8972000,10
1.33,1.28,0.08,0.00,3.46,110421642,106297000,4011000,10
1.14,1.11,0.05,0.00,2.89,90066141,85039000,5002000,10
1.17,1.13,0.05,0.00,2.91,90156621,84978000,4998000,10
1.15,1.11,0.06,0.00,2.96,97855908,91788000,6052000,10
1.45,1.40,0.09,0.00,3.82,121867107,111850000,9986000,10
1.96,1.91,0.15,0.00,5.26,172949730,160930000,11994000,10
1.91,1.83,0.18,0.00,5.30,182550662,172412000,10023000,10
0.84,0.80,0.07,0.00,2.31,74702601,66708000,7965000,10
0.97,0.93,0.09,0.00,2.69,88866985,75866000,12977000,10
0.74,0.72,0.07,0.00,2.15,73172357,68134000,5009000,10
0.53,0.52,0.03,0.00,1.39,44067827,40031000,4003000,10
0.79,0.76,0.07,0.00,2.24,71192470,61144000,10023000,10
0.79,0.76,0.06,0.00,2.17,69464795,62417000,6935000,10
0.78,0.75,0.07,0.00,2.19,71780999,60724000,10950000,10
1.34,1.30,0.08,0.00,3.54,112020877,108971000,3026000,10
1.48,1.44,0.09,0.00,3.80,120752974,110662000,9969000,10
0.66,0.64,0.06,0.00,1.93,67834261,60834000,6980000,10
0.79,0.76,0.07,0.00,2.17,70907241,60884000,9981000,10
0.52,0.51,0.03,0.00,1.34,43837697,37822000,5971000,10
0.71,0.68,0.06,0.00,1.96,64083290,57048000,7005000,10
0.72,0.69,0.06,0.00,1.98,64042500,61016000,3000000,10
1.51,1.45,0.14,0.00,4.30,147861006,138805000,9052000,10
1.37,1.31,0.10,0.00,3.66,123416941,111395000,11935000,10
1.14,1.10,0.05,0.00,2.87,89778297,86718000,2990000,10
0.84,0.82,0.07,0.00,2.28,75434834,64226000,11038000,10
0.80,0.78,0.06,0.00,2.18,70538005,61594000,8941000,10
1.21,1.17,0.06,0.00,3.03,94649540,89537000,4974000,10
1.12,1.10,0.05,0.00,2.82,88266920,83228000,5013000,10
2.01,1.94,0.13,0.00,5.26,174682831,167683000,6986000,10
0.59,0.57,0.03,0.00,1.54,48890272,45818000,3054000,10
0.49,0.47,0.03,0.00,1.27,40597085,38537000,2028000,10
0.54,0.53,0.03,0.00,1.41,45276643,44246000,1005000,10
0.65,0.63,0.04,0.00,1.69,55328269,41155000,14053000,10
1.37,1.33,0.08,0.00,3.54,113803902,106672000,6978000,10
0.67,0.65,0.03,0.00,1.73,58995187,56592000,1985000,11
0.62,0.59,0.04,0.00,1.75,66094392,64095000,2002000,11
0.74,0.71,0.03,0.00,1.84,61497594,60534000,992000,11
0.87,0.84,0.04,0.00,2.15,73172848,71078000,2002000,11
0.64,0.61,0.03,0.00,1.70,59333349,59340000,0,11
3.86,3.77,0.15,0.00,8.75,288842651,287770000,999000,11
0.91,0.88,0.04,0.00,2.35,82747639,82752000,0,11
3.65,3.54,0.14,0.00,8.59,279314844,278128000,1000000,11
0.61,0.59,0.03,0.00,1.56,53002901,52767000,0,11
0.97,0.94,0.05,0.00,2.54,87546131,86507000,994000,11
0.64,0.63,0.03,0.00,1.66,56194556,55182000,1003000,11
0.63,0.61,0.03,0.00,1.63,54123143,53115000,1002000,11
0.63,0.62,0.03,0.00,1.60,53925833,52822000,996000,11
0.65,0.62,0.03,0.00,1.62,55375541,54359000,1006000,11
0.74,0.72,0.03,0.00,1.85,63319379,61341000,1978000,11
0.60,0.58,0.03,0.00,1.56,52904350,50699000,1988000,11
0.64,0.62,0.03,0.00,1.64,56299126,55293000,1005000,11
0.82,0.80,0.04,0.00,2.02,66950887,66929000,0,11
0.62,0.60,0.03,0.00,1.60,53733277,52670000,1012000,11
1.09,1.06,0.05,0.00,2.81,92791055,85781000,6982000,11
0.63,0.61,0.03,0.00,1.60,55058106,54049000,1000000,11
3.84,3.75,0.15,0.00,8.90,293780364,291760000,1998000,11
0.60,0.59,0.03,0.00,1.54,53540897,51539000,1982000,11
0.55,0.52,0.03,0.00,1.50,53128417,52127000,1002000,11
0.61,0.60,0.03,0.00,1.53,53493929,51506000,1981000,11
0.61,0.59,0.03,0.00,1.58,53925067,52967000,980000,11
4.39,4.25,0.21,0.00,11.56,414346412,412318000,1996000,11
0.64,0.63,0.03,0.00,1.62,55758139,54741000,995000,11
0.65,0.63,0.03,0.00,1.72,60588540,59588000,993000,11
0.56,0.55,0.03,0.00,1.42,48831640,47749000,994000,11
0.68,0.67,0.03,0.00,1.72,59769348,58764000,996000,11
1.22,1.19,0.06,0.00,3.22,106606728,104509000,1990000,11
0.64,0.61,0.03,0.00,1.64,55291531,54335000,987000,11
0.66,0.64,0.03,0.00,1.69,57400353,57393000,0,11
0.57,0.55,0.03,0.00,1.50,50961561,48884000,1995000,11
0.94,0.92,0.04,0.00,2.48,80575057,78558000,1988000,11
0.74,0.73,0.03,0.00,1.87,63692488,62680000,994000,11
0.97,0.94,0.04,0.00,2.44,83433529,83434000,0,11
0.96,0.94,0.04,0.00,2.43,83520489,81534000,1988000,11
4.03,3.92,0.16,0.00,9.51,313311679,312284000,1000000,11
0.94,0.92,0.04,0.00,2.43,85736360,85653000,0,11
0.58,0.55,0.03,0.00,1.54,52728792,51697000,994000,11
4.06,3.94,0.16,0.00,9.44,307274094,306224000,1000000,11
0.64,0.62,0.03,0.00,1.60,53989895,51974000,1999000,11
0.54,0.52,0.03,0.00,1.55,58128506,56036000,2001000,11
1.17,1.14,0.05,0.00,2.97,104197447,103189000,1001000,11
0.61,0.59,0.03,0.00,1.73,63338741,61374000,1979000,11
3.73,3.62,0.15,0.00,8.78,288117348,287082000,1000000,11
0.44,0.43,0.02,0.00,1.11,36214049,34082000,2004000,11
1.49,1.45,0.07,0.00,3.64,122945397,116911000,5995000,11
7.61,7.41,0.30,0.00,17.61,581831278,581464000,0,11
0.59,0.58,0.03,0.00,1.53,52650508,51625000,992000,11
0.61,0.60,0.03,0.00,1.57,53241865,51231000,2009000,11
3.71,3.61,0.14,0.00,8.58,282720119,281705000,998000,11
1.10,1.06,0.05,0.00,2.72,93705362,92692000,996000,11
0.99,0.96,0.04,0.00,2.53,87724796,86722000,996000,11
0.79,0.76,0.04,0.00,2.08,71715569,70608000,994000,11
0.76,0.73,0.04,0.00,1.89,64735812,61725000,2986000,11
3.77,3.67,0.14,0.00,8.59,280481822,279363000,997000,11
0.74,0.71,0.03,0.00,1.87,63925869,62918000,998000,11
0.71,0.68,0.03,0.00,1.77,61840817,59830000,1994000,11
3.75,3.66,0.15,0.00,8.67,287858244,286852000,999000,11
0.82,0.78,0.04,0.00,2.04,68214463,68178000,0,11
0.61,0.60,0.03,0.00,1.57,54346702,51330000,2961000,11
0.62,0.60,0.03,0.00,1.67,60431316,59436000,1007000,11
0.61,0.59,0.03,0.00,1.57,53313962,53289000,0,11
3.76,3.66,0.15,0.00,8.73,288103906,286098000,2000000,11
0.78,0.76,0.03,0.00,1.93,65471343,63478000,1983000,11
0.70,0.67,0.03,0.00,1.77,59250228,58236000,1004000,11
0.82,0.79,0.04,0.00,2.06,69512981,68521000,993000,11
0.67,0.65,0.03,0.00,1.76,60946935,60896000,0,11
0.74,0.73,0.03,0.00,1.87,62609827,61606000,993000,11
0.87,0.84,0.04,0.00,2.20,68380437,68376000,0,11
0.77,0.74,0.03,0.00,1.96,65559753,65542000,0,11
1.54,1.50,0.07,0.00,3.83,132328864,131302000,1002000,11
0.66,0.64,0.03,0.00,1.69,56654727,55645000,1011000,11
3.90,3.79,0.15,0.00,8.98,291074870,290065000,1000000,11
0.67,0.65,0.03,0.00,1.80,63289977,58145000,5012000,11
0.78,0.77,0.04,0.00,2.01,68679686,67684000,995000,11
3.67,3.57,0.14,0.00,8.61,281413899,280278000,1000000,11
1.29,1.25,0.05,0.00,3.22,101234862,96930000,3997000,12
1.41,1.35,0.08,0.00,3.73,134453094,126405000,8025000,12
1.27,1.24,0.05,0.00,3.14,99220563,97194000,2004000,12
0.46,0.45,0.02,0.00,1.15,37186365,36163000,1004000,12
2.03,1.95,0.12,0.00,5.49,204958224,191926000,12994000,12
0.46,0.45,0.02,0.00,1.18,37063252,35037000,2002000,12
2.23,2.15,0.16,0.00,6.09,221389341,201289000,19929000,12
1.08,1.04,0.05,0.00,2.80,93231645,89199000,4008000,12
1.21,1.18,0.05,0.00,2.99,95898344,92929000,2965000,12
0.51,0.50,0.03,0.00,1.34,43240487,32157000,11054000,12
1.18,1.15,0.05,0.00,2.96,95001343,89986000,4999000,12
0.50,0.49,0.03,0.00,1.30,43484717,33581000,9876000,12
1.24,1.21,0.05,0.00,3.11,98378793,97291000,1003000,12
1.17,1.14,0.05,0.00,2.92,91843719,87834000,3992000,12
0.48,0.47,0.02,0.00,1.27,40904407,33899000,6979000,12
1.16,1.11,0.07,0.00,3.24,109227052,107199000,2003000,12
1.49,1.45,0.08,0.00,4.00,145575073,135576000,9968000,12
1.93,1.86,0.10,0.00,5.22,171169473,163127000,8006000,12
0.89,0.86,0.05,0.00,2.55,86631257,80513000,5963000,12
1.16,1.13,0.07,0.00,3.06,108445726,100291000,8023000,12
1.17,1.14,0.05,0.00,2.96,93259605,90257000,2975000,12
1.10,1.07,0.05,0.00,2.81,91057831,88043000,3001000,12
0.41,0.39,0.02,0.00,1.04,33860468,32802000,1025000,12
0.68,0.66,0.03,0.00,1.73,56517815,51431000,4945000,12
1.19,1.15,0.05,0.00,2.92,91285955,89257000,2005000,12
1.20,1.16,0.05,0.00,2.96,93932402,91900000,1997000,12
1.21,1.18,0.05,0.00,3.01,95958157,92852000,2995000,12
0.41,0.39,0.02,0.00,1.05,33869143,30867000,2987000,12
1.23,1.19,0.05,0.00,3.07,95948018,93924000,1998000,12
1.25,1.21,0.05,0.00,3.11,99621561,92629000,6972000,12
0.37,0.36,0.02,0.00,0.98,31904064,30781000,1026000,12
1.93,1.86,0.10,0.00,5.09,167550384,157498000,10031000,12
2.15,2.07,0.11,0.00,5.63,184209268,167138000,17014000,12
0.46,0.44,0.02,0.00,1.19,38866011,35851000,2987000,12
1.22,1.19,0.05,0.00,3.04,96367910,91332000,5018000,12
0.46,0.44,0.02,0.00,1.20,38561472,37460000,1012000,12
1.36,1.32,0.06,0.00,3.38,108479217,103339000,5016000,12
2.05,1.99,0.11,0.00,5.48,183447464,174409000,9021000,12
0.41,0.39,0.02,0.00,1.04,33639630,30653000,2966000,12
1.20,1.17,0.05,0.00,3.01,95233101,94187000,1001000,12
1.25,1.22,0.05,0.00,3.16,99115253,96020000,3000000,12
0.47,0.45,0.02,0.00,1.23,38696416,35709000,2975000,12
1.02,0.98,0.06,0.00,2.74,92705589,73663000,18913000,12
1.14,1.11,0.07,0.00,3.20,108382155,100338000,8027000,12
0.45,0.44,0.02,0.00,1.16,38498371,34530000,3946000,12
0.51,0.49,0.03,0.00,1.32,42720741,35743000,6950000,12
1.24,1.21,0.05,0.00,3.08,99241205,94074000,5003000,12
1.13,1.10,0.05,0.00,2.83,89430841,88426000,993000,12
2.22,2.15,0.15,0.00,5.54,179182707,169145000,10008000,12
2.49,2.39,0.17,0.00,6.69,240650986,210664000,29952000,12
0.97,0.93,0.06,0.00,2.79,96267121,92231000,4010000,12
1.20,1.17,0.05,0.00,3.05,95920347,94896000,998000,12
1.20,1.16,0.05,0.00,3.05,94859217,87844000,6987000,12
0.40,0.38,0.02,0.00,1.00,32331063,29377000,2937000,12
1.16,1.13,0.05,0.00,2.88,92177031,91168000,1001000,12
0.55,0.53,0.03,0.00,1.39,45907162,40893000,4987000,12
1.19,1.16,0.07,0.00,3.30,113714969,106634000,7041000,12
1.30,1.26,0.08,0.00,3.28,105693293,93705000,11962000,12
0.58,0.56,0.03,0.00,1.50,47875834,42696000,4964000,12
0.90,0.87,0.05,0.00,2.53,84240494,78211000,6016000,12
0.68,0.66,0.03,0.00,1.77,58903652,55882000,2993000,12
1.21,1.18,0.05,0.00,3.11,98403541,93239000,5012000,12
1.17,1.13,0.06,0.00,3.17,108666410,102625000,6036000,12
0.51,0.49,0.02,0.00,1.31,41709935,37714000,3969000,12
0.47,0.45,0.02,0.00,1.23,38988857,35970000,2997000,12
0.52,0.51,0.02,0.00,1.35,43220646,38177000,5023000,12
0.39,0.38,0.02,0.00,1.02,32227006,29205000,3021000,12
2.06,1.99,0.10,0.00,5.37,172759638,165648000,7027000,12
1.93,1.87,0.10,0.00,5.10,168846263,161784000,7034000,12
1.28,1.23,0.08,0.00,3.67,126181319,117139000,9010000,12
0.51,0.50,0.02,0.00,1.33,43598758,39612000,3961000,12
0.51,0.50,0.03,0.00,1.31,42838224,36832000,5972000,12
1.96,1.90,0.10,0.00,4.88,155290843,147242000,8013000,12
0.49,0.48,0.03,0.00,1.28,41025480,32999000,7999000,12
1.28,1.24,0.05,0.00,3.16,98774853,95727000,2991000,12
2.08,2.01,0.11,0.00,5.50,185782272,180753000,4993000,12
0.46,0.45,0.02,0.00,1.18,38266829,31210000,7047000,12
0.39,0.38,0.02,0.00,1.00,32622169,30632000,1976000,12
0.50,0.49,0.02,0.00,1.28,41509180,39470000,2024000,12
1.20,1.17,0.05,0.00,3.03,98082148,94038000,4001000,12
0.15,0.13,0.01,0.00,0.37,11110286,8641000,2160000,13
0.28,0.27,0.01,0.00,0.70,22849103,21858000,993000,13
0.32,0.32,0.01,0.00,0.79,25156919,23137000,2011000,13
0.16,0.16,0.01,0.00,0.42,12776431,11801000,983000,13
0.29,0.28,0.01,0.00,0.76,22669521,22672000,0,13
0.31,0.29,0.01,0.00,0.79,23419606,22426000,975000,13
0.12,0.12,0.01,0.00,0.32,9806589,7846000,1961000,13
0.16,0.15,0.01,0.00,0.40,12601075,9685000,2905000,13
0.26,0.26,0.01,0.00,0.69,23378381,23379000,0,13
0.29,0.28,0.01,0.00,0.71,22936743,21941000,997000,13
0.30,0.29,0.01,0.00,0.79,26290890,24277000,2023000,13
0.16,0.16,0.01,0.00,0.41,12985335,9987000,2996000,13
0.30,0.29,0.01,0.00,0.76,22437924,20494000,1951000,13
0.13,0.13,0.01,0.00,0.32,10490294,8574000,1905000,13
0.29,0.28,0.01,0.00,0.75,22651815,21583000,981000,13
0.13,0.13,0.01,0.00,0.35,10629954,7697000,2886000,13
0.32,0.31,0.01,0.00,0.84,24836371,22846000,1986000,13
0.29,0.28,0.01,0.00,0.76,22600080,21669000,984000,13
0.12,0.11,0.01,0.00,0.32,9705735,7695000,1923000,13
0.29,0.28,0.01,0.00,0.76,22363824,21340000,1016000,13
0.33,0.32,0.01,0.00,0.82,25206861,24193000,1008000,13
0.30,0.29,0.01,0.00,0.76,22828965,20849000,1985000,13
0.33,0.32,0.01,0.00,0.80,25728714,24714000,988000,13
0.31,0.30,0.01,0.00,0.78,24889509,22898000,1991000,13
0.12,0.12,0.01,0.00,0.30,9906729,9931000,0,13
0.30,0.30,0.01,0.00,0.80,24160605,23144000,1006000,13
0.12,0.12,0.01,0.00,0.31,9929979,8933000,992000,13
0.30,0.30,0.01,0.00,0.78,24112359,23101000,1004000,13
0.32,0.31,0.02,0.00,0.78,25006602,24014000,1000000,13
0.32,0.31,0.01,0.00,0.83,24874770,23724000,988000,13
0.04,0.03,0.00,0.00,0.09,2381453,2354000,0,13
0.29,0.29,0.01,0.00,0.77,24785610,23676000,986000,13
0.09,0.09,0.01,0.00,0.29,11279637,11299000,0,13
0.29,0.28,0.01,0.00,0.71,23015708,21015000,2001000,13
0.18,0.17,0.01,0.00,0.43,13521512,12552000,965000,13
0.16,0.15,0.01,0.00,0.41,12362278,10443000,1898000,13
0.12,0.12,0.01,0.00,0.31,10099143,10100000,0,13
0.15,0.15,0.01,0.00,0.40,13003369,11991000,999000,13
0.28,0.27,0.01,0.00,0.70,22749970,21763000,989000,13
0.27,0.27,0.01,0.00,0.70,23013470,23028000,0,13
0.29,0.28,0.01,0.00,0.75,23050459,22016000,1000000,13
0.12,0.11,0.01,0.00,0.31,9695416,8716000,968000,13
0.29,0.29,0.01,0.00,0.75,23137587,22131000,1005000,13
0.09,0.09,0.01,0.00,0.30,12528268,12544000,0,13
0.12,0.12,0.01,0.00,0.30,10051615,8897000,1112000,13
0.12,0.12,0.01,0.00,0.31,9595889,8629000,958000,13
0.30,0.29,0.01,0.00,0.77,24059693,22044000,2004000,13
0.30,0.29,0.01,0.00,0.74,22864585,21861000,993000,13
0.30,0.29,0.01,0.00,0.76,23019274,22013000,1000000,13
0.28,0.27,0.01,0.00,0.74,22539628,21554000,979000,13
0.21,0.21,0.02,0.00,0.73,27420030,25479000,1959000,13
0.13,0.12,0.01,0.00,0.35,10523645,10518000,0,13
0.15,0.15,0.01,0.00,0.42,13112729,10084000,3025000,13
0.33,0.31,0.01,0.00,0.89,25396555,24259000,1010000,13
0.24,0.23,0.01,0.00,0.76,25906567,24893000,995000,13
0.31,0.29,0.01,0.00,0.79,23274676,21253000,2024000,13
0.29,0.28,0.01,0.00,0.77,22755856,20765000,1977000,13
0.30,0.29,0.01,0.00,0.80,23480896,21517000,1956000,13
0.31,0.29,0.01,0.00,0.81,23394707,22380000,1017000,13
0.32,0.31,0.01,0.00,0.83,24724563,23773000,990000,13
0.29,0.28,0.01,0.00,0.75,22660691,21671000,985000,13
0.29,0.28,0.01,0.00,0.73,22457910,21477000,976000,13
0.29,0.28,0.01,0.00,0.78,24376090,21325000,3046000,13
0.27,0.27,0.01,0.00,0.67,22843686,19864000,2979000,13
0.29,0.28,0.01,0.00,0.76,22541687,21521000,1024000,13
0.17,0.17,0.01,0.00,0.43,13736925,13734000,0,13
0.11,0.11,0.01,0.00,0.31,10563450,9603000,960000,13
0.29,0.28,0.01,0.00,0.73,22984645,21898000,995000,13
0.29,0.28,0.01,0.00,0.72,22611649,22460000,0,13
0.13,0.12,0.01,0.00,0.34,10216429,9096000,1010000,13
0.22,0.21,0.02,0.00,0.72,28636507,26640000,1973000,13
0.31,0.31,0.01,0.00,0.77,24949674,24944000,0,13
0.33,0.31,0.01,0.00,0.80,25399290,23412000,1951000,13
0.33,0.31,0.01,0.00,0.84,25145459,23051000,2004000,13
0.13,0.12,0.01,0.00,0.36,10104640,9006000,1000000,13
0.12,0.12,0.01,0.00,0.33,10224830,9196000,1021000,13
0.31,0.31,0.01,0.00,0.84,25232261,22186000,3025000,13
0.29,0.28,0.01,0.00,0.79,23676315,21646000,1967000,13
0.30,0.29,0.01,0.00,0.80,22530505,21402000,972000,13
0.30,0.31,0.01,0.00,0.80,24863241,22761000,1979000,13
0.54,0.52,0.04,0.00,1.82,75916303,63731000,11949000,14
1.84,1.77,0.09,0.00,4.75,170859890,161836000,8990000,14
1.54,1.49,0.08,0.00,4.13,151844340,150822000,998000,14
0.17,0.16,0.01,0.00,0.48,16354988,14440000,1925000,14
1.66,1.60,0.09,0.00,4.40,158113552,154092000,4002000,14
4.25,4.11,0.26,0.00,10.85,395521922,386467000,9010000,14
1.57,1.52,0.08,0.00,4.26,162054609,160009000,2000000,14
2.31,2.23,0.13,0.00,6.19,215842478,209764000,5993000,14
1.92,1.85,0.11,0.00,5.25,183152953,167116000,16011000,14
1.87,1.80,0.10,0.00,4.79,173134741,162078000,11005000,14
1.57,1.51,0.08,0.00,4.29,162610769,161589000,997000,14
0.97,0.93,0.05,0.00,2.45,84354971,78316000,6024000,14
0.97,0.93,0.06,0.00,2.46,84683243,74703000,9960000,14
2.06,1.99,0.12,0.00,5.54,193902897,176797000,16980000,14
2.03,1.97,0.12,0.00,5.47,193412617,176446000,16946000,14
0.46,0.44,0.03,0.00,1.21,41033824,27996000,12998000,14
0.77,0.74,0.05,0.00,1.97,66931643,53924000,12981000,14
1.86,1.80,0.12,0.00,4.67,160366311,145199000,15020000,14
1.75,1.69,0.10,0.00,4.53,163704856,149703000,13972000,14
2.17,2.09,0.12,0.00,5.87,204176362,194124000,10006000,14
1.86,1.79,0.12,0.00,4.75,165113955,152007000,13000000,14
2.04,1.98,0.11,0.00,5.47,192854008,185837000,6993000,14
0.14,0.13,0.01,0.00,0.37,11816219,6890000,4921000,14
2.26,2.18,0.13,0.00,5.90,212732584,197675000,15051000,14
0.32,0.30,0.02,0.00,0.87,28489103,24394000,4065000,14
2.02,1.95,0.11,0.00,5.19,185881229,183842000,2009000,14
1.74,1.68,0.09,0.00,4.59,165734223,159717000,5989000,14
0.67,0.65,0.03,0.00,1.74,59658425,54670000,4970000,14
0.49,0.47,0.03,0.00,1.32,43937938,31891000,11959000,14
1.27,1.23,0.08,0.00,3.27,110816072,100713000,9971000,14
1.88,1.80,0.10,0.00,5.16,176337484,165301000,11020000,14
1.05,1.02,0.06,0.00,2.72,94387208,88312000,6021000,14
2.15,2.07,0.11,0.00,5.67,200252494,191165000,9007000,14
2.35,2.27,0.13,0.00,6.26,214021564,200869000,12991000,14
2.03,1.95,0.10,0.00,5.40,189120001,186106000,3001000,14
3.20,3.10,0.16,0.00,8.02,258040272,247706000,9988000,14
1.60,1.53,0.08,0.00,4.30,157246944,156247000,1001000,14
2.22,2.13,0.13,0.00,6.05,210550459,200472000,9973000,14
1.03,1.00,0.05,0.00,2.74,97185154,91151000,6009000,14
1.85,1.76,0.13,0.00,5.07,180086618,126029000,54012000,14
2.14,2.06,0.13,0.00,5.80,204131082,188098000,16008000,14
1.93,1.86,0.11,0.00,5.27,183196495,171136000,12009000,14
2.47,2.39,0.14,0.00,6.61,227310172,211261000,16019000,14
2.15,2.07,0.13,0.00,5.95,209982225,199926000,10046000,14
1.57,1.51,0.08,0.00,4.22,156057058,154978000,999000,14
2.25,2.17,0.13,0.00,5.85,206662309,194655000,11978000,14
1.25,1.21,0.06,0.00,3.38,125128141,124083000,1000000,14
2.17,2.09,0.13,0.00,5.90,207022280,189943000,16994000,14
0.60,0.59,0.03,0.00,1.59,55460216,54442000,1008000,14
2.04,1.97,0.11,0.00,5.44,188045583,177904000,9994000,14
1.27,1.22,0.08,0.00,3.34,115771542,101743000,13964000,14
2.27,2.19,0.13,0.00,6.06,213867740,201802000,11988000,14
0.92,0.89,0.06,0.00,2.43,82163386,69043000,13008000,14
1.19,1.15,0.07,0.00,3.03,102829055,92824000,9981000,14
0.79,0.77,0.04,0.00,2.07,72678939,65620000,6959000,14
2.37,2.28,0.14,0.00,6.36,220862222,202773000,17979000,14
2.35,2.27,0.13,0.00,6.37,221705450,208626000,13039000,14
1.32,1.27,0.08,0.00,3.40,116250392,105173000,11018000,14
2.64,2.55,0.16,0.00,7.27,261704760,249627000,11982000,14
1.15,1.10,0.06,0.00,3.16,116823539,115784000,998000,14
2.31,2.23,0.13,0.00,6.20,213987202,200935000,12995000,14
1.74,1.68,0.10,0.00,4.62,167622020,135667000,31921000,14
2.37,2.28,0.13,0.00,6.13,217685853,203657000,13976000,14
2.24,2.15,0.13,0.00,5.86,205643443,190865000,14989000,14
0.68,0.65,0.03,0.00,1.78,59934101,56910000,2995000,14
2.43,2.35,0.13,0.00,6.45,220997615,208965000,11998000,14
2.26,2.19,0.13,0.00,6.14,211966737,198924000,12995000,14
1.07,1.04,0.06,0.00,2.71,92369468,82308000,10037000,14
2.15,2.07,0.13,0.00,5.81,202745239,187648000,14971000,14
0.54,0.53,0.03,0.00,1.43,50620534,44557000,5940000,14
1.04,1.01,0.06,0.00,2.70,91483339,72459000,18859000,14
1.20,1.16,0.06,0.00,3.24,119570180,117479000,1991000,14
0.59,0.57,0.03,0.00,1.70,58263867,55189000,3010000,14
0.74,0.71,0.05,0.00,1.92,63649609,55445000,8064000,14
1.89,1.83,0.11,0.00,5.13,179538186,169454000,9967000,14
2.04,1.97,0.11,0.00,5.46,188053172,174020000,14001000,14
0.98,0.94,0.05,0.00,2.58,93079338,92068000,1000000,14
1.84,1.79,0.08,0.00,4.55,157970507,155831000,1997000,14
0.75,0.72,0.05,0.00,2.03,72669793,61549000,11099000,14
1.89,1.82,0.11,0.00,5.20,180033017,164927000,14993000,14
0.59,0.58,0.03,0.00,1.56,50364796,47827000,1952000,15
1.31,1.26,0.09,0.00,3.48,122942280,118913000,3997000,15
0.57,0.56,0.03,0.00,1.57,50426199,50431000,0,15
0.60,0.58,0.03,0.00,1.55,51530460,46344000,5037000,15
0.58,0.56,0.03,0.00,1.49,49857118,48845000,996000,15
0.23,0.21,0.01,0.00,0.61,20252893,18222000,2024000,15
0.60,0.58,0.03,0.00,1.58,50775464,44721000,5962000,15
1.63,1.58,0.07,0.00,4.03,126844006,125812000,998000,15
0.65,0.64,0.03,0.00,1.72,54586762,48609000,5952000,15
1.64,1.59,0.07,0.00,4.11,129146947,126132000,3003000,15
0.56,0.54,0.03,0.00,1.60,58377248,56278000,2009000,15
0.60,0.59,0.03,0.00,1.57,51523863,45565000,5943000,15
0.57,0.54,0.03,0.00,1.63,58312845,53196000,5018000,15
0.57,0.55,0.03,0.00,1.47,48989011,44948000,3995000,15
1.63,1.58,0.07,0.00,4.17,138990813,136981000,1999000,15
0.64,0.61,0.03,0.00,1.75,52243688,47206000,5022000,15
0.57,0.55,0.03,0.00,1.48,48729916,43737000,4970000,15
0.58,0.57,0.03,0.00,1.50,50469909,50452000,0,15
0.55,0.53,0.03,0.00,1.44,48922231,45913000,2994000,15
2.17,2.10,0.12,0.00,5.63,183485744,176400000,7015000,15
0.57,0.55,0.03,0.00,1.51,48991515,46978000,1999000,15
0.58,0.57,0.03,0.00,1.56,50753172,48762000,1990000,15
0.57,0.56,0.03,0.00,1.53,49216160,47203000,2008000,15
1.64,1.60,0.07,0.00,4.13,131673223,126552000,5021000,15
0.56,0.54,0.03,0.00,1.50,48651383,45656000,2977000,15
1.65,1.61,0.07,0.00,4.18,130038860,127026000,3000000,15
0.60,0.58,0.03,0.00,1.57,51649395,47659000,3971000,15
0.58,0.56,0.03,0.00,1.51,48611728,44530000,3958000,15
0.60,0.58,0.03,0.00,1.53,50216199,46175000,4015000,15
0.93,0.89,0.05,0.00,2.42,80361632,76327000,4017000,15
0.62,0.61,0.03,0.00,1.61,52443277,51290000,1005000,15
0.52,0.49,0.03,0.00,1.53,51367979,49325000,2013000,15
1.74,1.68,0.07,0.00,4.35,135504086,131411000,3982000,15
1.63,1.59,0.07,0.00,4.14,129208928,127085000,2001000,15
3.71,3.60,0.18,0.00,9.06,291665536,282649000,8988000,15
0.58,0.55,0.03,0.00,1.52,49497162,49399000,0,15
0.62,0.60,0.03,0.00,1.68,51294777,48267000,3016000,15
0.62,0.60,0.03,0.00,1.63,52841180,50826000,1993000,15
1.63,1.58,0.07,0.00,4.10,128737405,125603000,2990000,15
0.65,0.63,0.03,0.00,1.76,55077378,54052000,1000000,15
0.94,0.91,0.04,0.00,2.42,81854292,79826000,1995000,15
0.60,0.58,0.03,0.00,1.57,50611349,45543000,4950000,15
0.56,0.55,0.03,0.00,1.51,47706509,43511000,4047000,15
0.87,0.84,0.06,0.00,2.26,74081096,67041000,7004000,15
1.66,1.61,0.07,0.00,4.12,130379981,125351000,4974000,15
0.60,0.58,0.03,0.00,1.60,52250444,51222000,1004000,15
1.58,1.54,0.06,0.00,3.96,126354577,124318000,2005000,15
0.57,0.55,0.03,0.00,1.50,47674497,45666000,1985000,15
0.54,0.52,0.03,0.00,1.49,51910138,50911000,1018000,15
0.55,0.54,0.03,0.00,1.54,48466374,46442000,2019000,15
0.57,0.55,0.03,0.00,1.46,48088721,47089000,1001000,15
0.59,0.57,0.03,0.00,1.55,51645007,47651000,3970000,15
0.65,0.62,0.03,0.00,1.76,53141115,53041000,0,15
0.60,0.58,0.03,0.00,1.56,50859979,45853000,4984000,15
1.64,1.59,0.07,0.00,4.09,129540176,126553000,2989000,15
1.65,1.60,0.07,0.00,4.32,129350744,127322000,2005000,15
0.51,0.49,0.03,0.00,1.55,58706787,58713000,0,15
0.61,0.60,0.03,0.00,1.57,51574018,49572000,1982000,15
1.65,1.60,0.07,0.00,4.22,130030556,128007000,2000000,15
0.70,0.68,0.03,0.00,1.74,54956772,53926000,998000,15
0.58,0.56,0.03,0.00,1.52,50626766,49617000,992000,15
1.63,1.59,0.07,0.00,4.10,130511538,129386000,1002000,15
1.71,1.66,0.07,0.00,4.29,134807212,130793000,3993000,15
0.61,0.59,0.03,0.00,1.63,51920726,48912000,2994000,15
1.60,1.55,0.07,0.00,4.04,126436458,125421000,1003000,15
0.88,0.85,0.06,0.00,2.41,76432100,70440000,5952000,15
1.63,1.58,0.07,0.00,4.05,128071096,122948000,4997000,15
1.61,1.57,0.07,0.00,4.04,127206345,125183000,2002000,15
0.60,0.59,0.03,0.00,1.64,51521915,47543000,3961000,15
0.60,0.58,0.03,0.00,1.56,51698207,48697000,2981000,15
1.61,1.57,0.07,0.00,4.06,128651022,126644000,1994000,15
1.63,1.58,0.07,0.00,4.13,129199732,125176000,4005000,15
2.87,2.77,0.20,0.00,7.53,260326000,240254000,20021000,15
1.62,1.57,0.07,0.00,4.13,126878508,125857000,998000,15
0.61,0.59,0.03,0.00,1.60,53024662,51000000,2000000,15
2.48,2.40,0.14,0.00,6.71,209325633,203288000,6008000,15
0.57,0.55,0.03,0.00,1.50,50500212,45519000,4947000,15
0.58,0.56,0.03,0.00,1.54,50771636,47654000,2978000,15
0.62,0.60,0.03,0.00,1.59,53650612,50570000,2974000,15
1.64,1.59,0.07,0.00,4.19,128547013,125402000,3009000,15
1.41,1.35,0.08,0.00,3.86,147172170,140904000,5953000,16
1.70,1.66,0.07,0.00,4.36,141725576,137709000,3991000,16
1.50,1.47,0.07,0.00,3.91,128705092,120703000,7980000,16
1.36,1.30,0.09,0.00,3.81,124958298,2862000,3368000,16
1.69,1.65,0.07,0.00,4.14,143662160,141554000,1993000,16
1.50,1.45,0.08,0.00,3.90,140882727,135851000,4994000,16
1.05,1.01,0.05,0.00,2.66,93902060,90889000,2996000,16
1.61,1.55,0.08,0.00,4.34,154707951,149688000,4989000,16
1.43,1.38,0.08,0.00,3.95,147174207,144164000,3003000,16
1.44,1.40,0.07,0.00,3.80,136680356,131666000,4987000,16
1.51,1.45,0.08,0.00,3.92,140366838,136313000,4009000,16
1.22,1.18,0.06,0.00,3.07,101724075,91633000,10069000,16
1.16,1.12,0.06,0.00,3.02,97911502,92813000,4989000,16
3.37,3.28,0.13,0.00,8.25,259354876,254321000,4986000,16
1.43,1.39,0.07,0.00,4.00,135471839,130471000,4979000,16
1.41,1.37,0.07,0.00,3.84,140104278,138036000,2000000,16
1.07,1.04,0.05,0.00,2.85,94973100,87896000,6991000,16
1.57,1.52,0.08,0.00,4.16,151736863,146723000,4990000,16
1.09,1.05,0.05,0.00,2.76,94694201,90543000,3979000,16
3.60,3.51,0.15,0.00,9.30,292463055,285488000,6987000,16
2.81,2.60,0.47,0.00,7.48,221238410,211138000,10006000,16
4.01,3.89,0.17,0.00,9.83,328171375,324150000,4001000,16
1.45,1.40,0.07,0.00,4.05,135795888,133695000,2010000,16
1.45,1.41,0.07,0.00,4.05,135982597,134952000,999000,16
1.80,1.73,0.09,0.00,4.82,174106154,169997000,3999000,16
1.06,1.03,0.05,0.00,2.78,100337938,96339000,3972000,16
1.58,1.53,0.08,0.00,4.19,151695538,147676000,3991000,16
1.47,1.42,0.07,0.00,3.90,139372838,135316000,4009000,16
1.46,1.42,0.07,0.00,3.64,124323518,120073000,4002000,16
1.01,0.97,0.12,0.00,2.72,84719683,80700000,3985000,16
1.27,1.24,0.06,0.00,3.21,110622607,106607000,3985000,16
1.47,1.42,0.07,0.00,3.84,136451203,133421000,3009000,16
1.58,1.52,0.08,0.00,4.09,145286790,141177000,4005000,16
1.41,1.36,0.07,0.00,3.77,136723231,132705000,3991000,16
1.52,1.47,0.07,0.00,4.05,141632612,138619000,2991000,16
3.14,3.05,0.14,0.00,7.60,260121040,250078000,10003000,16
3.75,3.55,0.37,0.00,9.57,320475937,190648000,129760000,16
1.47,1.41,0.07,0.00,4.09,137585388,134573000,2990000,16
1.07,1.03,0.07,0.00,2.98,91914718,1119000,5057000,16
1.07,1.01,0.13,0.00,2.80,90967304,87848000,2994000,16
1.38,1.34,0.07,0.00,3.52,123213135,120188000,3004000,16
1.73,1.67,0.09,0.00,4.63,170396806,166338000,3984000,16
1.50,1.45,0.08,0.00,4.08,151903000,147861000,4023000,16
1.17,1.13,0.05,0.00,3.01,102692331,100648000,2012000,16
1.67,1.60,0.09,0.00,4.55,170572932,166527000,3988000,16
1.61,1.55,0.08,0.00,4.22,153852110,151836000,1997000,16
1.47,1.43,0.07,0.00,4.12,138283252,134259000,4007000,16
1.50,1.45,0.07,0.00,4.13,144967036,142916000,2012000,16
1.66,1.61,0.08,0.00,4.16,145423003,142399000,3008000,16
3.22,3.10,0.24,0.00,8.81,286509447,147717000,138734000,16
1.50,1.46,0.07,0.00,3.91,141396987,138275000,3005000,16
2.00,1.94,0.09,0.00,4.99,170741993,167731000,2995000,16
1.57,1.52,0.08,0.00,4.26,151126919,146951000,3998000,16
1.60,1.55,0.08,0.00,4.22,152784240,148748000,4020000,16
1.45,1.40,0.07,0.00,3.78,136422072,131268000,4972000,16
0.82,0.79,0.04,0.00,2.34,82509289,77526000,4969000,16
1.13,1.09,0.05,0.00,2.80,95047530,93025000,2000000,16
3.30,3.21,0.13,0.00,7.97,255003876,251874000,2998000,16
3.35,3.26,0.14,0.00,8.15,277590054,274490000,3005000,16
1.73,1.68,0.08,0.00,4.31,145967373,142905000,2998000,16
1.48,1.43,0.07,0.00,4.21,142949666,139887000,2997000,16
1.77,1.73,0.08,0.00,4.64,157847984,152712000,4990000,16
1.27,1.23,0.06,0.00,3.23,109417476,108394000,1003000,16
4.44,4.31,0.19,0.00,10.77,358653947,355581000,2996000,16
1.73,1.67,0.08,0.00,4.36,151969430,147952000,3998000,16
3.16,3.08,0.13,0.00,7.73,255296282,251146000,4002000,16
1.12,1.08,0.07,0.00,2.96,94148117,1972000,6727000,16
1.50,1.45,0.08,0.00,3.96,141774010,139530000,1993000,16
4.44,4.32,0.19,0.00,10.74,361562813,356553000,4993000,16
1.79,1.74,0.07,0.00,4.41,145784433,142772000,2995000,16
1.53,1.47,0.08,0.00,4.21,155719670,151704000,3992000,16
1.14,1.11,0.06,0.00,2.95,104264066,99238000,5012000,16
1.71,1.66,0.08,0.00,4.28,147098578,144078000,3001000,16
1.71,1.65,0.09,0.00,4.51,164908028,162890000,1998000,16
3.44,3.35,0.15,0.00,8.28,272953687,266728000,5993000,16
3.48,3.39,0.15,0.00,8.38,284341897,282324000,2002000,16
1.57,1.52,0.08,0.00,4.18,151263445,146226000,5007000,16
2.08,2.02,0.10,0.00,5.55,184112361,175085000,9004000,16
1.43,1.39,0.07,0.00,3.76,136194903,132167000,4005000,16
1.60,1.55,0.09,0.00,4.29,155014676,148991000,5999000,16
3.41,3.27,0.20,0.00,10.76,394876410,386443000,7988000,17
5.57,5.42,0.23,0.00,13.22,449479622,444369000,4992000,17
3.19,3.07,0.19,0.00,9.27,362704793,359579000,2996000,17
3.24,3.11,0.19,0.00,9.42,363857366,359739000,3997000,17
3.22,3.10,0.17,0.00,8.55,318310095,314272000,4003000,17
3.78,3.64,0.21,0.00,10.68,404986604,400905000,3999000,17
3.11,2.99,0.17,0.00,8.98,336824637,330809000,5996000,17
3.46,3.32,0.21,0.00,10.19,395096921,391936000,2999000,17
4.67,4.54,0.20,0.00,11.24,380905111,376679000,3996000,17
1.66,1.60,0.08,0.00,4.22,149778484,144666000,4988000,17
1.67,1.61,0.09,0.00,4.85,169972674,164941000,4998000,17
1.99,1.93,0.09,0.00,5.10,171245266,168236000,3004000,17
3.32,3.18,0.19,0.00,9.37,362499878,358481000,4005000,17
3.14,3.02,0.17,0.00,8.76,331256818,326226000,5003000,17
6.94,6.67,0.39,0.00,19.61,763262119,761178000,2000000,17
3.17,3.05,0.17,0.00,8.58,322590515,316564000,5991000,17
1.93,1.87,0.09,0.00,4.97,167313787,165302000,2003000,17
1.26,1.21,0.10,0.00,3.90,137190629,2118000,8475000,17
1.93,1.87,0.08,0.00,4.95,160650720,153649000,6984000,17
3.34,3.22,0.18,0.00,9.24,342801175,333726000,8965000,17
3.15,3.02,0.19,0.00,9.25,362968115,359829000,2998000,17
3.25,3.11,0.19,0.00,9.67,379969778,378963000,1002000,17
1.06,1.02,0.07,0.00,2.90,98667006,4788000,5680000,17
4.55,4.41,0.19,0.00,10.78,363389903,359247000,4002000,17
3.41,3.27,0.20,0.00,10.07,392982880,388000000,4987000,17
2.83,2.72,0.17,0.00,8.85,321195240,316157000,5002000,17
2.61,2.54,0.11,0.00,6.29,205446726,203371000,2003000,17
3.18,3.05,0.19,0.00,9.16,362410086,360388000,2002000,17
5.80,5.58,0.32,0.00,16.30,623904198,617871000,5998000,17
3.38,3.24,0.20,0.00,10.83,394483531,386216000,8004000,17
3.62,3.47,0.20,0.00,10.92,394006231,388961000,4999000,17
3.50,3.35,0.20,0.00,10.33,395443523,386347000,8984000,17
3.73,3.59,0.21,0.00,10.48,393766216,387597000,5993000,17
3.40,3.26,0.21,0.00,10.05,404279949,399219000,5002000,17
3.17,3.04,0.19,0.00,9.53,375431485,373257000,2001000,17
3.22,3.09,0.19,0.00,9.46,364062300,360039000,4000000,17
5.56,5.40,0.24,0.00,13.45,465410103,460371000,5004000,17
6.00,5.74,0.37,0.00,18.06,709670455,703539000,5996000,17
3.47,3.34,0.19,0.00,9.63,362721002,359709000,2997000,17
3.60,3.47,0.20,0.00,10.35,393497848,389471000,4004000,17
3.09,2.96,0.19,0.00,9.40,365046550,361876000,2998000,17
3.31,3.17,0.21,0.00,9.91,394764896,390765000,3997000,17
4.07,3.95,0.18,0.00,10.95,353557137,348533000,5007000,17
3.47,3.32,0.21,0.00,10.22,403562901,398558000,4994000,17
3.40,3.26,0.20,0.00,10.06,392116845,387094000,5001000,17
2.78,2.68,0.15,0.00,7.77,294521480,291509000,2994000,17
2.96,2.84,0.18,0.00,8.94,342264962,340118000,2000000,17
3.05,2.92,0.19,0.00,9.29,367024777,367013000,0,17
3.16,3.02,0.19,0.00,9.48,364520526,360430000,3993000,17
3.54,3.40,0.20,0.00,10.43,396531397,391516000,4993000,17
3.07,2.94,0.19,0.00,10.00,363383677,362205000,1000000,17
2.84,2.72,0.17,0.00,8.46,323459077,316442000,7009000,17
3.42,3.28,0.21,0.00,10.05,395044702,389889000,4985000,17
3.72,3.59,0.19,0.00,10.16,376297082,373259000,3002000,17
1.69,1.64,0.08,0.00,4.40,157563088,154547000,2991000,17
3.34,3.20,0.20,0.00,10.07,393787824,389749000,3997000,17
3.39,3.25,0.20,0.00,10.10,396275245,393259000,3001000,17
3.20,3.07,0.19,0.00,9.46,363079622,360057000,3000000,17
2.47,2.41,0.11,0.00,6.21,212713122,207694000,4992000,17
3.25,3.14,0.16,0.00,8.48,308072415,304043000,4000000,17
3.57,3.44,0.19,0.00,9.87,365166482,363956000,999000,17
3.56,3.42,0.21,0.00,11.50,418082998,413922000,3999000,17
2.02,1.95,0.09,0.00,5.32,173286530,170270000,3004000,17
3.42,3.28,0.20,0.00,10.16,391949210,388921000,3007000,17
2.55,2.45,0.15,0.00,7.46,289312425,287281000,2001000,17
3.53,3.39,0.20,0.00,10.32,396057351,391032000,5000000,17
3.57,3.44,0.20,0.00,10.32,395733542,390717000,4996000,17
0.78,0.75,0.04,0.00,2.12,70242145,66270000,3956000,17
1.63,1.57,0.09,0.00,4.48,167230527,166199000,1001000,17
3.34,3.20,0.20,0.00,10.70,394413485,385371000,9008000,17
3.31,3.18,0.21,0.00,10.12,397527001,390401000,6989000,17
3.35,3.21,0.20,0.00,10.81,396618430,390598000,5993000,17
3.29,3.14,0.20,0.00,9.87,389358526,384317000,5004000,17
1.87,1.82,0.08,0.00,5.11,160597049,154378000,5975000,17
3.25,3.13,0.17,0.00,8.76,324705073,317705000,6993000,17
3.19,3.05,0.19,0.00,9.57,363557474,361543000,2003000,17
4.78,4.63,0.21,0.00,11.75,406940754,398933000,7998000,17
5.46,5.30,0.25,0.00,13.75,486838048,482810000,3998000,17
3.41,3.27,0.20,0.00,10.17,392941248,388799000,3997000,17
3.46,3.32,0.21,0.00,10.21,393956933,391934000,1999000,17
1.69,1.61,0.16,0.00,4.42,142513184,138076000,3973000,18
1.58,1.50,0.16,0.00,4.22,145712326,141685000,4019000,18
1.41,1.36,0.06,0.00,3.47,122089322,118994000,2999000,18
1.55,1.49,0.15,0.00,3.96,132432978,127456000,4978000,18
1.55,1.47,0.15,0.00,3.94,131387629,125338000,5968000,18
4.24,4.03,0.40,0.00,10.87,365731244,230790000,134877000,18
1.28,1.24,0.06,0.00,3.44,115162697,113133000,2002000,18
1.67,1.59,0.17,0.00,4.64,154185073,147118000,6958000,18
1.70,1.66,0.08,0.00,4.16,143614031,141629000,1994000,18
1.56,1.49,0.16,0.00,4.08,136528444,133487000,3011000,18
4.14,3.94,0.41,0.00,11.24,365042026,235006000,130003000,18
0.48,0.47,0.02,0.00,1.19,39005829,36831000,1990000,18
1.65,1.59,0.08,0.00,4.13,143586464,141551000,1993000,18
1.93,1.86,0.18,0.00,4.98,169728170,167679000,2008000,18
4.22,3.93,0.61,0.00,11.32,350297899,343263000,7005000,18
1.87,1.79,0.17,0.00,4.76,153680152,147625000,5984000,18
1.69,1.60,0.17,0.00,4.37,144893939,139738000,4990000,18
1.09,1.05,0.05,0.00,2.65,87899628,83887000,3994000,18
1.33,1.27,0.09,0.00,3.78,122633095,1032000,5161000,18
1.66,1.59,0.16,0.00,4.37,144547654,142542000,2007000,18
4.09,3.88,0.40,0.00,11.04,363967273,226965000,136979000,18
1.62,1.55,0.16,0.00,4.38,143297460,139129000,4003000,18
4.24,4.04,0.41,0.00,11.22,367356505,222106000,145069000,18
1.08,1.04,0.07,0.00,2.88,91932721,6380000,0,18
0.61,0.60,0.03,0.00,1.53,46135965,44114000,2005000,18
2.99,2.86,0.23,0.00,8.21,263545724,133755000,129762000,18
0.91,0.89,0.04,0.00,2.22,74288110,71251000,3010000,18
1.50,1.44,0.15,0.00,3.94,131015945,124983000,5999000,18
1.98,1.90,0.17,0.00,4.88,157029443,151992000,4999000,18
2.03,1.94,0.18,0.00,5.47,180031328,174841000,4995000,18
1.54,1.49,0.08,0.00,3.89,135429558,131364000,3980000,18
1.69,1.61,0.16,0.00,4.42,141818412,138796000,2995000,18
0.83,0.79,0.04,0.00,2.06,68110359,63081000,5006000,18
1.07,1.03,0.07,0.00,2.99,91860283,6347000,0,18
1.54,1.47,0.15,0.00,4.03,134646997,130628000,3988000,18
3.58,3.44,0.27,0.00,10.02,323307980,182135000,141105000,18
1.58,1.51,0.16,0.00,4.12,137162700,130156000,6954000,18
6.01,5.75,0.52,0.00,16.21,537884487,390813000,146929000,18
5.36,5.17,0.37,0.00,13.99,482686110,474665000,7994000,18
2.18,2.09,0.19,0.00,5.55,181954755,176878000,5024000,18
1.65,1.58,0.16,0.00,4.46,143383041,139266000,4007000,18
1.30,1.26,0.06,0.00,3.29,113090487,109941000,2998000,18
1.55,1.48,0.16,0.00,4.10,136868596,130777000,5989000,18
1.56,1.48,0.16,0.00,4.23,145857483,140840000,4994000,18
4.10,3.89,0.41,0.00,11.22,364798560,215806000,148866000,18
2.82,2.72,0.23,0.00,7.12,240575771,236512000,4008000,18
1.06,1.02,0.07,0.00,2.85,91581074,3197000,3197000,18
4.67,4.49,0.33,0.00,13.31,438905742,319904000,118964000,18
1.58,1.51,0.16,0.00,4.14,136125673,131102000,5003000,18
4.02,3.79,0.51,0.00,11.19,370659790,363494000,7009000,18
4.38,4.17,0.43,0.00,11.93,388553832,252252000,136136000,18
1.65,1.57,0.16,0.00,4.31,143747682,141709000,2010000,18
3.43,3.31,0.26,0.00,9.01,305262103,302149000,3001000,18
6.28,6.07,0.32,0.00,16.65,599560579,596370000,2996000,18
1.77,1.70,0.17,0.00,4.61,152628026,147638000,4987000,18
1.59,1.52,0.16,0.00,4.31,145569358,139471000,5977000,18
1.33,1.29,0.06,0.00,3.34,114242402,109077000,5003000,18
3.38,3.25,0.27,0.00,9.18,318234926,315099000,3000000,18
1.06,1.02,0.07,0.00,2.89,91076996,940000,5262000,18
1.57,1.49,0.16,0.00,4.08,136549045,131539000,4982000,18
1.55,1.48,0.16,0.00,4.09,136466420,131408000,5015000,18
1.00,0.97,0.05,0.00,2.55,80703491,78670000,2017000,18
1.38,1.34,0.07,0.00,3.52,121370617,119311000,2005000,18
1.54,1.47,0.16,0.00,4.06,137286379,130250000,7013000,18
5.21,4.97,0.49,0.00,13.96,475689572,326773000,148896000,18
1.57,1.53,0.08,0.00,3.94,136345477,133325000,3007000,18
0.86,0.84,0.04,0.00,2.08,68708611,66676000,2020000,18
1.88,1.81,0.17,0.00,4.86,154448729,153326000,1002000,18
1.68,1.61,0.16,0.00,4.40,143903613,137882000,5994000,18
5.30,5.05,0.48,0.00,14.15,479416409,329581000,149809000,18
1.59,1.52,0.16,0.00,4.13,135854096,131834000,3994000,18
1.53,1.47,0.15,0.00,4.01,134266886,130234000,4007000,18
1.97,1.89,0.17,0.00,4.87,155865233,149846000,5993000,18
1.56,1.49,0.15,0.00,4.13,133641356,127631000,5982000,18
1.55,1.48,0.15,0.00,4.07,132722036,128701000,3990000,18
1.54,1.48,0.16,0.00,4.08,137515299,133424000,4012000,18
1.56,1.49,0.16,0.00,4.20,136856386,131832000,4993000,18
4.16,3.95,0.41,0.00,11.20,365181013,217092000,148063000,18
4.08,3.88,0.41,0.00,11.10,360524380,215697000,144797000,18
1.58,1.51,0.15,0.00,4.11,136138048,132108000,4003000,18
1.30,1.26,0.09,0.00,3.59,117409962,55024000,62027000,19
1.21,1.16,0.10,0.00,3.87,139316600,1146000,5202000,19
1.06,1.03,0.07,0.00,2.79,91458074,1040000,5200000,19
1.05,1.02,0.08,0.00,2.73,91826664,58873000,32929000,19
1.75,1.68,0.14,0.00,4.56,157598055,93715000,63806000,19
0.91,0.87,0.05,0.00,2.39,78202360,42575000,35644000,19
1.06,1.03,0.07,0.00,2.83,91599102,1943000,4428000,19
1.08,1.05,0.07,0.00,2.85,91622347,2102000,4205000,19
4.37,4.22,0.30,0.00,11.52,357412915,282222000,75059000,19
1.06,1.03,0.07,0.00,2.92,91515340,2076000,4153000,19
4.82,4.67,0.25,0.00,11.45,375917115,342749000,33072000,19
4.15,4.03,0.24,0.00,10.16,337609816,291585000,45934000,19
4.83,4.69,0.26,0.00,11.70,398769355,361770000,36976000,19
1.25,1.20,0.07,0.00,3.23,104012040,73991000,29996000,19
3.36,3.25,0.19,0.00,8.28,269336212,227246000,42045000,19
1.07,1.03,0.07,0.00,2.83,91534164,1247000,4990000,19
0.97,0.93,0.08,0.00,2.58,89641301,53714000,35809000,19
1.05,1.02,0.07,0.00,2.93,91860855,6306000,0,19
1.56,1.50,0.11,0.00,4.00,133094453,101042000,32013000,19
0.91,0.87,0.08,0.00,2.47,84689812,50784000,33856000,19
3.50,3.38,0.25,0.00,8.97,294184524,230102000,64028000,19
1.08,1.04,0.07,0.00,2.90,92286374,1088000,5442000,19
1.04,1.01,0.07,0.00,2.75,90996621,2861000,3377000,19
0.97,0.93,0.08,0.00,2.54,82881115,54845000,27921000,19
4.02,3.87,0.27,0.00,9.93,333954157,248938000,84978000,19
1.05,1.01,0.09,0.00,2.93,95494422,65313000,30144000,19
1.54,1.48,0.10,0.00,4.18,133940892,72908000,60923000,19
0.93,0.90,0.08,0.00,2.43,82446267,53604000,28787000,19
0.81,0.78,0.04,0.00,2.03,68228756,68219000,0,19
1.07,1.02,0.08,0.00,2.75,92187433,60106000,32056000,19
0.88,0.84,0.06,0.00,2.39,78749023,44838000,33877000,19
1.02,0.97,0.08,0.00,2.57,84264381,53155000,31090000,19
1.60,1.53,0.14,0.00,4.40,140015764,74995000,64996000,19
0.96,0.91,0.08,0.00,2.53,86660411,50781000,35845000,19
0.97,0.92,0.06,0.00,2.65,85228687,53109000,32066000,19
1.03,0.99,0.08,0.00,2.70,91686134,53782000,37846000,19
1.08,1.04,0.07,0.00,2.83,91738463,1267000,5070000,19
1.47,1.41,0.10,0.00,4.01,131495417,65732000,65732000,19
1.68,1.61,0.14,0.00,4.41,142299055,84163000,58113000,19
1.49,1.42,0.13,0.00,3.82,127938125,64934000,62936000,19
1.08,1.04,0.07,0.00,2.84,91848085,950000,5365000,19
2.92,2.83,0.18,0.00,7.46,246377381,210280000,36048000,19
1.56,1.47,0.14,0.00,4.20,139216719,60071000,79094000,19
1.53,1.45,0.15,0.00,4.33,158148344,76055000,82059000,19
1.11,1.06,0.07,0.00,3.04,99477580,65564000,33775000,19
1.54,1.47,0.13,0.00,4.05,132754099,64872000,67866000,19
1.58,1.50,0.14,0.00,4.28,145196613,84091000,61066000,19
5.03,4.88,0.27,0.00,12.21,398094920,357077000,41008000,19
4.10,3.95,0.33,0.00,10.65,362276442,296195000,66043000,19
1.29,1.24,0.09,0.00,3.40,107053748,77317000,29737000,19
0.95,0.90,0.08,0.00,2.57,85390733,52607000,32755000,19
1.28,1.23,0.09,0.00,3.25,107505627,71654000,35827000,19
2.74,2.65,0.16,0.00,6.54,213878091,179865000,33974000,19
1.70,1.62,0.14,0.00,4.33,142306397,75614000,66659000,19
1.06,1.01,0.08,0.00,2.90,91537434,62664000,28845000,19
1.05,1.00,0.09,0.00,2.86,96590650,61724000,34844000,19
1.01,0.97,0.08,0.00,2.72,90162417,59085000,31044000,19
4.26,4.13,0.24,0.00,10.64,351178172,317132000,34014000,19
0.95,0.92,0.08,0.00,2.49,80388409,43673000,36725000,19
1.08,1.04,0.07,0.00,2.87,91519075,2931000,3516000,19
0.94,0.90,0.08,0.00,2.61,91458890,57229000,34136000,19
0.88,0.84,0.06,0.00,2.47,81045903,44008000,37006000,19
3.46,3.33,0.25,0.00,9.05,295114758,219066000,76023000,19
1.39,1.34,0.10,0.00,3.87,127044626,76010000,51007000,19
2.41,2.33,0.14,0.00,6.01,188724914,154744000,33944000,19
0.53,0.51,0.02,0.00,1.41,44928940,43871000,997000,19
1.12,1.09,0.09,0.00,2.90,95433042,64278000,31134000,19
4.42,4.26,0.30,0.00,11.31,373672759,306695000,66933000,19
1.36,1.31,0.08,0.00,3.71,117989191,82296000,35695000,19
1.06,1.03,0.07,0.00,2.82,90963719,1047000,5236000,19
1.68,1.60,0.14,0.00,4.33,140218725,74097000,66086000,19
1.47,1.39,0.13,0.00,4.04,128765870,57871000,70842000,19
3.23,3.12,0.19,0.00,8.00,260838168,222810000,37967000,19
1.17,1.13,0.07,0.00,3.12,98901682,56911000,41935000,19
1.04,1.01,0.07,0.00,2.82,94007856,6366000,0,19
3.99,3.86,0.23,0.00,9.92,329525152,292448000,37056000,19
1.43,1.36,0.13,0.00,3.85,131209813,64596000,66584000,19
3.32,3.20,0.20,0.00,8.31,282167419,243294000,38887000,19
5.00,4.84,0.32,0.00,12.62,412455883,335530000,76892000,19
1.07,1.04,0.07,0.00,2.82,91628542,6355000,0,19
0.16,0.16,0.01,0.00,0.41,14223978,12864000,1072000,20
0.01,0.02,0.00,0.00,0.03,1433090,718000,718000,20
0.01,0.02,0.00,0.00,0.03,1370349,1407000,0,20
0.03,0.02,0.00,0.00,0.07,1411544,1419000,0,20
0.17,0.16,0.01,0.00,0.43,13713358,9771000,3908000,20
0.37,0.36,0.02,0.00,0.94,29393163,27355000,2026000,20
0.34,0.33,0.01,0.00,0.82,26104192,24071000,2005000,20
0.53,0.51,0.03,0.00,1.54,51213476,49187000,2007000,20
0.22,0.20,0.01,0.00,0.55,17243177,13180000,4055000,20
0.13,0.13,0.01,0.00,0.33,10870493,9705000,1078000,20
0.01,0.02,0.00,0.00,0.03,1420602,1418000,0,20
0.18,0.17,0.01,0.00,0.48,14655351,12703000,1954000,20
0.39,0.38,0.02,0.00,1.05,31594684,27624000,3946000,20
0.32,0.31,0.02,0.00,0.88,31105655,30134000,972000,20
0.16,0.16,0.01,0.00,0.40,13407866,9255000,4113000,20
0.02,0.01,0.00,0.00,0.03,1422348,713000,713000,20
0.14,0.13,0.01,0.00,0.37,11055242,8039000,3014000,20
0.33,0.32,0.01,0.00,0.85,26591667,25596000,984000,20
0.35,0.34,0.02,0.00,0.87,28826424,26827000,1987000,20
0.19,0.19,0.01,0.00,0.49,16135237,14118000,2016000,20
0.18,0.17,0.01,0.00,0.53,19401361,15527000,3881000,20
0.29,0.29,0.01,0.00,0.74,22933460,20843000,1985000,20
0.20,0.19,0.01,0.00,0.53,16743597,14767000,1968000,20
0.22,0.20,0.01,0.00,0.59,18506266,13633000,4868000,20
0.13,0.12,0.01,0.00,0.37,12547014,9646000,2893000,20
0.19,0.19,0.01,0.00,0.49,16361063,15340000,1022000,20
0.02,0.01,0.00,0.00,0.06,1394643,1401000,0,20
0.23,0.21,0.01,0.00,0.58,18440798,12614000,5822000,20
0.01,0.02,0.00,0.00,0.03,1412740,1419000,0,20
0.16,0.16,0.01,0.00,0.42,13692997,11734000,1955000,20
0.31,0.30,0.02,0.00,0.86,31212706,29205000,2014000,20
0.21,0.21,0.01,0.00,0.53,17252790,15340000,1917000,20
0.13,0.12,0.01,0.00,0.32,10999586,9941000,994000,20
0.12,0.12,0.01,0.00,0.34,10531639,9566000,956000,20
0.23,0.21,0.01,0.00,0.59,18510094,13625000,4866000,20
0.01,0.01,0.00,0.00,0.03,1385521,1391000,0,20
0.12,0.12,0.01,0.00,0.33,10556663,7677000,2878000,20
0.36,0.35,0.02,0.00,0.93,29062559,27051000,2003000,20
0.16,0.16,0.01,0.00,0.40,13590022,11495000,2090000,20
0.16,0.16,0.01,0.00,0.41,13483076,11533000,1922000,20
0.37,0.37,0.02,0.00,0.93,30571261,28499000,2035000,20
0.01,0.02,0.00,0.00,0.03,1493882,1451000,0,20
0.41,0.40,0.02,0.00,1.03,32063906,28929000,2992000,20
0.17,0.17,0.01,0.00,0.43,14156555,13032000,1002000,20
0.32,0.32,0.01,0.00,0.83,26226690,24227000,1938000,20
0.28,0.28,0.01,0.00,0.74,22792652,22795000,0,20
0.19,0.19,0.01,0.00,0.51,16567943,14615000,1948000,20
0.25,0.24,0.01,0.00,0.66,20745317,14728000,5891000,20
0.19,0.19,0.01,0.00,0.49,16022053,13913000,1987000,20
0.32,0.31,0.01,0.00,0.79,25421476,21328000,4062000,20
0.38,0.36,0.02,0.00,0.96,29677797,27681000,1977000,20
0.50,0.49,0.03,0.00,1.32,43437979,38473000,4932000,20
0.16,0.16,0.01,0.00,0.40,13119485,11075000,2013000,20
0.37,0.36,0.02,0.00,0.99,29207565,25170000,4027000,20
0.58,0.56,0.04,0.00,1.65,57080273,49938000,6991000,20
0.20,0.20,0.01,0.00,0.52,17631509,14595000,2919000,20
0.33,0.32,0.01,0.00,0.83,26417614,22516000,3915000,20
0.16,0.16,0.01,0.00,0.42,13274719,11212000,2038000,20
0.32,0.32,0.01,0.00,0.84,26858867,24763000,1981000,20
0.01,0.02,0.00,0.00,0.03,1396560,1402000,0,20
0.23,0.22,0.01,0.00,0.58,18730717,13718000,4899000,20
0.34,0.33,0.01,0.00,0.84,26402672,25241000,1009000,20
0.13,0.13,0.01,0.00,0.33,10851934,9861000,986000,20
0.24,0.24,0.01,0.00,0.63,20479715,13230000,7124000,20
0.16,0.16,0.01,0.00,0.41,13468398,10275000,3082000,20
0.01,0.01,0.00,0.00,0.03,1593576,801000,801000,20
0.01,0.01,0.00,0.00,0.03,1375250,1391000,0,20
0.37,0.36,0.02,0.00,0.92,29616508,29609000,0,20
0.21,0.20,0.01,0.00,0.52,16916981,15911000,994000,20
0.01,0.02,0.00,0.00,0.03,1407847,1413000,0,20
0.33,0.32,0.01,0.00,0.82,26494388,23535000,2941000,20
0.30,0.29,0.01,0.00,0.74,23968535,22896000,995000,20
0.43,0.41,0.02,0.00,1.04,33041062,32020000,1000000,20
0.13,0.13,0.01,0.00,0.35,12534343,10540000,1916000,20
0.36,0.34,0.02,0.00,0.88,28485501,25436000,2935000,20
0.78,0.75,0.06,0.00,2.30,71818353,20940000,50855000,20
0.20,0.19,0.01,0.00,0.52,16335896,15317000,1021000,20
0.22,0.21,0.01,0.00,0.58,17613825,15653000,1956000,20
0.01,0.01,0.00,0.00,0.03,1419482,1417000,0,20
0.37,0.36,0.02,0.00,0.92,29369189,27372000,1955000,20
0.05,0.04,0.00,0.00,0.12,3936100,2747000,915000,21
1.21,1.15,0.09,0.00,3.70,129016953,1242000,4971000,21
0.12,0.11,0.01,0.00,0.32,10700245,5342000,5342000,21
0.20,0.20,0.01,0.00,0.58,19310490,13193000,6089000,21
2.16,2.09,0.10,0.00,5.35,184341218,183319000,1001000,21
0.03,0.03,0.00,0.00,0.11,3819991,3827000,0,21
1.80,1.73,0.11,0.00,4.97,190648567,180641000,9980000,21
0.42,0.41,0.03,0.00,1.05,34649188,30555000,4074000,21
0.16,0.15,0.02,0.00,0.52,18431082,9692000,8723000,21
2.44,2.34,0.14,0.00,6.78,246755333,233744000,12985000,21
1.99,1.94,0.09,0.00,4.87,165127921,165112000,0,21
0.06,0.05,0.00,0.00,0.16,4146494,3106000,1035000,21
0.02,0.02,0.00,0.00,0.06,1479900,742000,742000,21
0.06,0.05,0.00,0.00,0.15,4513605,3391000,1130000,21
2.52,2.45,0.12,0.00,6.35,226375760,226304000,0,21
0.31,0.29,0.02,0.00,0.79,25503439,21398000,4075000,21
1.57,1.52,0.07,0.00,3.97,140342256,139271000,1001000,21
0.35,0.34,0.03,0.00,0.93,31572701,14795000,16767000,21
0.03,0.04,0.00,0.00,0.09,3160144,2081000,1040000,21
2.19,2.12,0.10,0.00,5.59,198175447,197138000,1000000,21
0.35,0.34,0.03,0.00,0.92,31132787,23074000,8025000,21
0.06,0.06,0.00,0.00,0.15,5329932,4475000,895000,21
0.05,0.05,0.00,0.00,0.12,4245376,3187000,1062000,21
0.06,0.06,0.00,0.00,0.16,4697946,2766000,1844000,21
0.34,0.33,0.02,0.00,0.93,32438356,29381000,3039000,21
1.30,1.27,0.06,0.00,3.22,109742710,109755000,0,21
0.14,0.14,0.01,0.00,0.38,13106008,12101000,1008000,21
0.04,0.05,0.00,0.00,0.12,4162800,4169000,0,21
0.38,0.38,0.02,0.00,0.99,33409475,27300000,6066000,21
1.55,1.50,0.07,0.00,3.91,137829298,136783000,998000,21
2.00,1.93,0.13,0.00,5.61,215656867,203595000,12035000,21
0.25,0.24,0.02,0.00,0.67,22898090,12927000,9943000,21
0.18,0.18,0.01,0.00,0.48,16104629,7029000,9037000,21
0.10,0.10,0.01,0.00,0.27,9218529,4092000,5115000,21
2.01,1.95,0.09,0.00,5.25,181758817,180773000,998000,21
0.18,0.17,0.01,0.00,0.48,16060308,4012000,12036000,21
0.04,0.04,0.00,0.00,0.13,5037480,4033000,1008000,21
1.56,1.51,0.07,0.00,4.00,139997603,138979000,999000,21
0.06,0.06,0.00,0.00,0.15,5144125,2543000,2543000,21
1.43,1.39,0.07,0.00,3.71,128370432,128366000,0,21
3.05,2.96,0.14,0.00,7.82,268935346,267837000,999000,21
1.40,1.37,0.06,0.00,3.47,119799463,118820000,990000,21
0.04,0.04,0.00,0.00,0.19,7802225,6836000,976000,21
0.11,0.10,0.01,0.00,0.29,10217892,9205000,1022000,21
1.57,1.53,0.07,0.00,3.93,138234342,137225000,1001000,21
0.23,0.23,0.01,0.00,0.62,21666869,20570000,979000,21
0.57,0.56,0.04,0.00,1.49,49516920,36303000,13109000,21
1.65,1.60,0.07,0.00,4.03,137607788,135598000,1994000,21
0.03,0.04,0.00,0.00,0.09,3321410,2216000,1108000,21
0.16,0.15,0.01,0.00,0.44,14713924,9781000,4890000,21
1.85,1.79,0.08,0.00,4.69,161308824,160300000,1001000,21
0.10,0.10,0.01,0.00,0.30,11326387,8172000,3064000,21
2.02,1.95,0.09,0.00,5.11,181461750,180402000,996000,21
0.04,0.04,0.00,0.00,0.11,3453030,3459000,0,21
0.01,0.02,0.00,0.00,0.03,1620827,812000,812000,21
0.05,0.05,0.00,0.00,0.12,4747424,4756000,0,21
0.21,0.20,0.01,0.00,0.58,18726470,11833000,6902000,21
0.05,0.05,0.00,0.00,0.12,4277412,3201000,1067000,21
1.94,1.88,0.08,0.00,4.74,162935802,161897000,999000,21
1.56,1.50,0.07,0.00,4.11,138200226,138195000,0,21
0.22,0.22,0.01,0.00,0.59,18484632,13508000,4824000,21
2.57,2.50,0.12,0.00,6.42,225517762,223504000,1995000,21
0.20,0.19,0.01,0.00,0.55,18564467,12696000,5860000,21
0.10,0.09,0.01,0.00,0.26,8480342,7400000,1057000,21
1.54,1.49,0.07,0.00,4.06,139084870,138076000,1000000,21
1.53,1.49,0.07,0.00,3.90,136677090,135599000,997000,21
0.18,0.18,0.01,0.00,0.50,16233302,7087000,9113000,21
0.16,0.15,0.01,0.00,0.41,12348756,8222000,4111000,21
1.07,1.04,0.07,0.00,2.81,91893257,1906000,4385000,21
0.93,0.90,0.07,0.00,2.34,74323177,60226000,14052000,21
0.32,0.29,0.02,0.00,0.86,29230572,15107000,14099000,21
0.03,0.04,0.00,0.00,0.09,3701711,1841000,1841000,21
0.04,0.04,0.00,0.00,0.12,3710345,3715000,0,21
0.06,0.05,0.00,0.00,0.15,4095398,3074000,1024000,21
0.03,0.04,0.00,0.00,0.11,4477700,2691000,1794000,21
1.28,1.23,0.06,0.00,3.21,111482803,110316000,1002000,21
1.22,1.19,0.05,0.00,3.06,107636387,106636000,996000,21
2.08,2.01,0.09,0.00,5.31,180557171,179563000,997000,21
0.16,0.16,0.01,0.00,0.46,16627966,8794000,7817000,21
0.03,0.03,0.00,0.00,0.13,4894982,3926000,981000,21
0.13,0.12,0.01,0.00,0.31,9894946,8525000,1065000,22
0.14,0.13,0.01,0.00,0.33,10509281,8513000,1891000,22
0.14,0.14,0.01,0.00,0.37,12263213,11241000,1021000,22
0.31,0.29,0.01,0.00,0.74,23419117,22276000,1012000,22
0.30,0.29,0.01,0.00,0.78,22955055,21846000,993000,22
0.31,0.30,0.01,0.00,0.77,24300373,20368000,3879000,22
0.29,0.29,0.01,0.00,0.69,22653863,20688000,1970000,22
0.19,0.18,0.01,0.00,0.46,14837447,11864000,2966000,22
0.12,0.12,0.01,0.00,0.31,10409962,8323000,2080000,22
0.14,0.13,0.01,0.00,0.34,10418043,7563000,2836000,22
0.14,0.13,0.01,0.00,0.34,10718626,7587000,2845000,22
0.14,0.14,0.01,0.00,0.36,11916193,7870000,3935000,22
0.12,0.12,0.01,0.00,0.29,10834189,8861000,1969000,22
0.15,0.14,0.01,0.00,0.37,11655707,9707000,1941000,22
0.32,0.31,0.01,0.00,0.78,24473676,22433000,2039000,22
0.30,0.30,0.01,0.00,0.76,24731429,23616000,984000,22
0.13,0.12,0.01,0.00,0.34,10467805,7535000,2825000,22
0.30,0.30,0.01,0.00,0.75,23245756,21208000,2019000,22
0.11,0.10,0.01,0.00,0.36,13349109,7622000,5717000,22
0.14,0.13,0.01,0.00,0.34,10443021,7580000,2842000,22
0.14,0.13,0.01,0.00,0.34,10700898,7720000,2895000,22
0.12,0.12,0.01,0.00,0.32,10479935,10473000,0,22
0.12,0.12,0.01,0.00,0.32,9980400,8989000,998000,22
0.08,0.08,0.01,0.00,0.30,11832672,10768000,978000,22
0.14,0.13,0.01,0.00,0.33,10495649,7635000,2863000,22
0.28,0.27,0.01,0.00,0.72,22372990,20320000,1935000,22
0.27,0.26,0.02,0.00,0.75,22894990,17822000,4950000,22
0.31,0.29,0.01,0.00,0.77,23507033,22415000,974000,22
0.30,0.28,0.01,0.00,0.77,23526053,20469000,2924000,22
0.31,0.30,0.01,0.00,0.78,23242659,22238000,1010000,22
0.12,0.12,0.01,0.00,0.31,10333909,9245000,1027000,22
1.13,1.08,0.08,0.00,3.06,101129527,39982000,60973000,22
0.13,0.12,0.01,0.00,0.34,10639782,9573000,1063000,22
0.29,0.27,0.01,0.00,0.73,22656917,21656000,984000,22
0.27,0.27,0.01,0.00,0.69,23715824,21651000,2062000,22
0.13,0.13,0.01,0.00,0.36,11444761,10515000,955000,22
0.12,0.12,0.01,0.00,0.31,9875684,8880000,986000,22
0.29,0.28,0.01,0.00,0.75,23008656,21969000,998000,22
0.29,0.28,0.01,0.00,0.74,23025575,20986000,1998000,22
0.14,0.13,0.01,0.00,0.35,10586995,8537000,1897000,22
0.31,0.29,0.01,0.00,0.75,23340237,20423000,2917000,22
0.13,0.12,0.01,0.00,0.34,10483207,7545000,2829000,22
0.29,0.29,0.01,0.00,0.74,23231261,21190000,2018000,22
0.23,0.22,0.02,0.00,0.69,27476922,27488000,0,22
0.12,0.12,0.01,0.00,0.31,10535063,9426000,1047000,22
0.30,0.29,0.01,0.00,0.71,22590487,21555000,1026000,22
0.12,0.11,0.01,0.00,0.32,9644721,7718000,1929000,22
0.11,0.11,0.01,0.00,0.28,9459178,7598000,1899000,22
0.11,0.11,0.01,0.00,0.32,10976765,9968000,996000,22
0.13,0.12,0.01,0.00,0.34,10554137,8630000,1917000,22
0.30,0.28,0.01,0.00,0.74,23199122,21155000,2014000,22
0.13,0.13,0.01,0.00,0.34,10388715,6612000,3778000,22
0.14,0.13,0.01,0.00,0.39,11523752,8626000,2875000,22
0.11,0.12,0.01,0.00,0.30,10391770,9355000,1039000,22
0.31,0.30,0.01,0.00,0.79,23623508,21644000,1967000,22
0.30,0.30,0.01,0.00,0.79,23333104,21299000,2028000,22
0.20,0.20,0.01,0.00,0.54,18387448,13248000,5095000,22
0.12,0.11,0.01,0.00,0.31,9677990,6777000,2904000,22
0.13,0.12,0.01,0.00,0.34,10557264,8638000,1919000,22
0.12,0.12,0.01,0.00,0.30,10417658,9370000,1041000,22
0.15,0.15,0.01,0.00,0.38,12248815,10200000,2040000,22
0.13,0.13,0.01,0.00,0.31,10277416,10277000,0,22
0.30,0.29,0.01,0.00,0.75,23516645,21458000,2043000,22
0.27,0.27,0.01,0.00,0.70,22131927,21117000,1005000,22
0.31,0.31,0.01,0.00,0.79,24405590,21322000,3046000,22
0.13,0.13,0.01,0.00,0.35,10612635,7700000,2887000,22
0.33,0.32,0.02,0.00,0.85,25906530,23785000,1982000,22
0.23,0.22,0.01,0.00,0.68,25515250,23553000,1962000,22
0.12,0.11,0.01,0.00,0.33,11209054,11217000,0,22
0.18,0.18,0.01,0.00,0.47,14969948,13864000,990000,22
0.12,0.12,0.01,0.00,0.31,10487419,6668000,3810000,22
0.30,0.29,0.01,0.00,0.79,23036117,20947000,1995000,22
0.13,0.14,0.01,0.00,0.36,11378990,9296000,2065000,22
0.30,0.29,0.01,0.00,0.79,23326768,21373000,1943000,22
0.14,0.13,0.01,0.00,0.34,10723917,8750000,1944000,22
0.09,0.09,0.01,0.00,0.32,12876246,10813000,1966000,22
0.27,0.27,0.01,0.00,0.72,23242934,22263000,1011000,22
0.11,0.10,0.01,0.00,0.32,11807848,9844000,1968000,22
0.12,0.12,0.01,0.00,0.31,10386977,9241000,1026000,22
0.12,0.12,0.01,0.00,0.31,10478742,9424000,1047000,22
0.47,0.44,0.02,0.00,1.18,37460927,33004000,4000000,23
1.54,1.49,0.08,0.00,3.85,121971592,114893000,6993000,23
1.47,1.43,0.07,0.00,3.64,117129865,113094000,4003000,23
1.40,1.37,0.07,0.00,3.53,112838918,101804000,10978000,23
0.77,0.74,0.05,0.00,2.02,66049838,57010000,9001000,23
0.70,0.68,0.04,0.00,1.83,58358879,52402000,5932000,23
0.75,0.73,0.04,0.00,1.95,63125880,56092000,7011000,23
0.72,0.70,0.05,0.00,1.90,59922778,55883000,3991000,23
4.42,4.25,0.39,0.00,11.95,427484621,411409000,16015000,23
0.43,0.42,0.02,0.00,1.10,35063068,33049000,2003000,23
1.39,1.36,0.07,0.00,3.55,113406538,107395000,5966000,23
1.41,1.38,0.07,0.00,3.54,111585509,106571000,4979000,23
0.69,0.66,0.05,0.00,1.88,61419189,58283000,3014000,23
0.41,0.39,0.02,0.00,1.05,32401815,31409000,981000,23
1.37,1.33,0.07,0.00,3.52,111103157,106071000,5003000,23
0.46,0.45,0.02,0.00,1.24,40559008,38560000,1977000,23
0.70,0.69,0.05,0.00,1.95,61967968,58945000,2997000,23
0.63,0.61,0.04,0.00,1.66,53735220,47739000,5967000,23
0.78,0.75,0.05,0.00,2.07,66169485,59047000,7005000,23
1.37,1.34,0.07,0.00,3.52,110468007,104332000,5961000,23
1.41,1.37,0.07,0.00,3.56,114275995,107246000,7016000,23
1.36,1.32,0.07,0.00,3.48,110932850,105910000,4995000,23
0.71,0.68,0.05,0.00,1.91,62515523,58354000,4024000,23
1.41,1.37,0.07,0.00,3.57,114066509,107037000,7002000,23
0.33,0.32,0.02,0.00,1.03,38060389,36074000,2004000,23
0.70,0.68,0.04,0.00,1.86,60136765,55094000,5008000,23
0.80,0.77,0.05,0.00,2.11,69063162,57915000,10984000,23
0.84,0.81,0.07,0.00,2.38,80830925,77732000,2989000,23
0.72,0.69,0.05,0.00,1.95,61827634,55814000,5980000,23
0.71,0.69,0.05,0.00,1.96,64330691,56360000,7910000,23
0.71,0.69,0.05,0.00,1.89,59993668,51963000,7994000,23
0.75,0.73,0.05,0.00,2.04,65263085,62226000,3010000,23
1.39,1.35,0.07,0.00,3.55,112821573,104804000,7985000,23
0.68,0.66,0.04,0.00,1.80,57844998,52834000,4984000,23
1.37,1.33,0.07,0.00,3.48,111173986,108142000,3003000,23
0.64,0.62,0.04,0.00,1.73,55736489,49746000,5969000,23
0.65,0.64,0.04,0.00,1.72,56634225,54616000,1986000,23
0.74,0.71,0.05,0.00,1.96,63328078,60359000,2968000,23
1.12,1.10,0.05,0.00,2.79,87394927,84364000,3013000,23
1.70,1.64,0.11,0.00,4.44,153976168,148827000,4994000,23
0.71,0.69,0.05,0.00,1.90,60025038,54998000,4999000,23
0.69,0.68,0.05,0.00,1.86,59666810,55661000,3975000,23
1.41,1.38,0.07,0.00,3.54,111781169,105648000,5980000,23
0.69,0.67,0.04,0.00,1.77,58258705,51203000,7027000,23
1.43,1.39,0.07,0.00,3.67,115275028,109235000,6012000,23
1.41,1.36,0.07,0.00,3.56,113343868,104234000,9020000,23
1.38,1.35,0.07,0.00,3.55,113906679,108884000,4994000,23
1.44,1.41,0.07,0.00,3.62,115758862,108750000,6983000,23
0.68,0.65,0.04,0.00,1.80,57370517,52290000,5027000,23
1.43,1.39,0.08,0.00,3.73,118268033,113298000,4969000,23
1.32,1.29,0.07,0.00,3.43,111523561,106474000,5022000,23
0.75,0.73,0.05,0.00,2.07,65725690,59721000,5972000,23
1.46,1.41,0.08,0.00,3.84,124690594,119660000,5027000,23
0.67,0.65,0.04,0.00,1.87,56746026,53671000,3038000,23
0.71,0.69,0.05,0.00,1.92,62402235,53457000,8909000,23
0.65,0.62,0.04,0.00,1.78,55345024,53283000,2010000,23
0.65,0.62,0.04,0.00,1.74,55578516,51578000,3967000,23
0.68,0.66,0.04,0.00,1.81,57650955,51662000,5961000,23
0.65,0.64,0.04,0.00,1.76,55346527,47427000,7904000,23
0.63,0.62,0.04,0.00,1.75,55990930,51966000,3997000,23
0.67,0.66,0.04,0.00,1.81,57640859,49669000,7947000,23
0.79,0.75,0.06,0.00,2.12,67163656,58957000,7994000,23
1.42,1.38,0.07,0.00,3.65,114794068,108771000,5987000,23
1.20,1.15,0.08,0.00,3.20,107237247,101200000,6011000,23
0.67,0.64,0.04,0.00,1.78,56463349,52510000,3963000,23
1.42,1.38,0.07,0.00,3.66,114741889,103738000,10972000,23
1.53,1.48,0.08,0.00,3.91,123693904,112689000,10969000,23
0.66,0.63,0.04,0.00,1.75,55781623,53708000,1989000,23
0.70,0.68,0.05,0.00,1.88,61359188,57318000,4022000,23
0.61,0.59,0.04,0.00,1.64,53008359,48996000,3999000,23
1.44,1.40,0.07,0.00,3.68,115216818,110193000,5008000,23
0.66,0.64,0.04,0.00,1.76,57356532,53315000,4023000,23
1.10,1.08,0.05,0.00,2.75,87814933,85667000,1992000,23
0.68,0.66,0.04,0.00,1.81,58091257,54054000,4004000,23
1.40,1.36,0.07,0.00,3.53,110164065,105108000,5005000,23
1.11,1.08,0.05,0.00,2.94,96469995,94325000,2006000,23
1.38,1.33,0.07,0.00,3.53,111212727,104100000,7006000,23
1.37,1.34,0.07,0.00,3.48,109177985,103998000,4999000,23
0.74,0.72,0.05,0.00,1.94,63401722,57431000,5941000,23
0.43,0.42,0.02,0.00,1.11,35188084,32158000,3014000,23
1.56,1.51,0.08,0.00,4.02,124183467,118668000,4986000,24
0.60,0.59,0.03,0.00,1.57,50096384,42987000,6997000,24
0.63,0.61,0.03,0.00,1.61,50444231,47456000,2966000,24
0.59,0.57,0.04,0.00,1.65,54436535,51385000,3022000,24
1.37,1.33,0.06,0.00,3.42,106623793,102586000,4023000,24
1.45,1.41,0.08,0.00,3.72,116629623,112622000,3986000,24
1.35,1.31,0.06,0.00,3.43,106264936,100226000,6013000,24
0.71,0.69,0.05,0.00,1.86,58023920,54998000,2999000,24
1.44,1.39,0.08,0.00,3.68,113123525,104002000,9000000,24
1.34,1.30,0.06,0.00,3.34,104964607,102922000,1998000,24
0.69,0.68,0.05,0.00,1.81,57772568,50788000,6970000,24
0.86,0.83,0.06,0.00,2.28,73997546,61053000,12801000,24
0.87,0.85,0.06,0.00,2.29,73510581,66530000,6950000,24
0.75,0.72,0.05,0.00,1.99,63027574,60905000,1996000,24
1.43,1.38,0.07,0.00,3.59,112221061,106108000,6006000,24
1.32,1.28,0.06,0.00,3.31,102683750,101665000,1006000,24
0.63,0.61,0.04,0.00,1.64,53080808,50053000,3003000,24
0.72,0.69,0.05,0.00,2.03,70251913,54333000,15806000,24
0.70,0.67,0.05,0.00,1.86,57318119,54192000,3010000,24
1.34,1.29,0.06,0.00,3.38,105378514,102340000,3010000,24
0.61,0.60,0.04,0.00,1.60,51443884,44300000,6891000,24
1.34,1.30,0.06,0.00,3.33,104475492,103435000,1004000,24
0.71,0.69,0.05,0.00,1.91,59173588,52120000,7016000,24
0.64,0.62,0.04,0.00,1.71,52164574,48026000,4002000,24
0.58,0.57,0.03,0.00,1.57,52547225,48481000,4040000,24
0.65,0.63,0.04,0.00,1.69,53508415,52488000,1009000,24
1.79,1.72,0.14,0.00,4.82,169272611,167184000,2002000,24
1.36,1.32,0.07,0.00,3.40,107018576,100871000,5992000,24
1.99,1.90,0.16,0.00,5.24,174121825,94034000,80029000,24
1.44,1.39,0.08,0.00,3.69,114807295,109725000,4987000,24
0.67,0.65,0.04,0.00,1.75,56257045,49133000,7019000,24
0.57,0.55,0.04,0.00,1.62,55506724,50436000,5043000,24
1.31,1.27,0.06,0.00,3.34,106182679,101087000,4955000,24
0.63,0.61,0.03,0.00,1.64,50888763,45888000,4987000,24
0.71,0.69,0.05,0.00,1.87,57676794,50716000,6961000,24
1.31,1.27,0.06,0.00,3.33,105009021,99991000,4999000,24
2.41,2.33,0.19,0.00,6.40,213274846,195238000,18022000,24
1.42,1.38,0.07,0.00,3.65,113801194,106790000,6986000,24
1.34,1.30,0.06,0.00,3.39,104795967,101768000,2993000,24
0.65,0.64,0.04,0.00,1.70,56935071,52842000,4064000,24
0.61,0.59,0.04,0.00,1.62,52489478,45524000,6927000,24
1.32,1.28,0.07,0.00,3.38,105776204,102650000,2989000,24
0.65,0.62,0.04,0.00,1.70,52682524,46696000,5961000,24
1.39,1.35,0.07,0.00,3.58,113047794,105998000,6999000,24
0.63,0.61,0.04,0.00,1.66,52476190,48409000,4034000,24
0.67,0.65,0.05,0.00,1.85,59008818,52966000,5996000,24
1.32,1.29,0.07,0.00,3.41,106730652,102742000,3989000,24
0.62,0.60,0.04,0.00,1.61,51060213,48006000,3000000,24
1.43,1.39,0.07,0.00,3.63,113121954,109162000,3969000,24
0.62,0.60,0.04,0.00,1.62,51965965,46940000,4993000,24
0.60,0.59,0.04,0.00,1.63,51697909,51677000,0,24
0.63,0.62,0.04,0.00,1.67,51841285,45723000,6096000,24
1.36,1.32,0.06,0.00,3.43,106732786,101716000,4986000,24
0.71,0.68,0.05,0.00,1.88,58503352,53520000,4955000,24
0.92,0.90,0.05,0.00,2.44,79664241,77621000,2016000,24
0.71,0.68,0.05,0.00,1.90,59429337,54455000,4950000,24
0.67,0.65,0.05,0.00,1.82,57397517,50467000,6926000,24
0.63,0.62,0.04,0.00,1.66,51479125,49475000,1979000,24
1.32,1.28,0.06,0.00,3.36,104688764,98683000,5980000,24
0.53,0.51,0.04,0.00,1.61,57838754,51845000,5982000,24
0.64,0.63,0.04,0.00,1.70,53296319,47244000,6031000,24
0.64,0.63,0.04,0.00,1.72,52968097,48853000,3988000,24
0.59,0.58,0.03,0.00,1.56,49745800,44759000,4973000,24
0.62,0.61,0.04,0.00,1.61,51535646,47539000,3961000,24
0.63,0.61,0.04,0.00,1.68,51833475,48753000,3047000,24
1.35,1.32,0.06,0.00,3.37,105871051,103720000,1994000,24
0.82,0.78,0.06,0.00,2.18,68477478,59525000,8928000,24
1.47,1.42,0.07,0.00,3.74,114359588,107309000,7020000,24
0.71,0.69,0.04,0.00,1.84,59794769,54632000,4966000,24
1.36,1.32,0.07,0.00,3.46,105843733,101816000,3992000,24
0.68,0.67,0.05,0.00,1.83,57790475,51771000,5973000,24
0.71,0.69,0.05,0.00,1.92,60014881,54989000,4999000,24
1.33,1.30,0.06,0.00,3.39,105536735,102524000,2986000,24
1.52,1.48,0.08,0.00,3.89,120611934,113599000,6975000,24
0.84,0.82,0.06,0.00,2.23,70552855,66436000,3966000,24
1.36,1.33,0.06,0.00,3.42,107619155,103595000,3984000,24
1.33,1.30,0.06,0.00,3.41,104582968,97478000,6962000,24
2.71,2.61,0.22,0.00,7.45,256098280,242972000,12998000,24
1.35,1.30,0.07,0.00,3.42,106467460,103224000,3006000,24
0.63,0.62,0.04,0.00,1.60,51593165,46601000,4957000,24
2.14,2.07,0.13,0.00,5.53,179035817,173620000,4989000,25
0.79,0.76,0.05,0.00,2.01,64509589,55416000,9068000,25
0.75,0.72,0.04,0.00,1.87,60632254,55561000,5051000,25
0.73,0.70,0.04,0.00,1.87,60944024,56881000,3991000,25
0.70,0.67,0.04,0.00,1.83,60714162,54690000,5966000,25
0.77,0.75,0.05,0.00,1.99,64369395,59314000,5026000,25
0.70,0.68,0.04,0.00,1.87,62634583,58636000,3975000,25
0.74,0.73,0.05,0.00,1.91,63552953,58592000,4965000,25
4.40,4.24,0.36,0.00,12.81,446278381,432234000,14007000,25
0.74,0.71,0.04,0.00,1.91,60611477,56611000,3972000,25
1.49,1.45,0.08,0.00,3.79,118616554,115407000,3010000,25
2.20,2.11,0.19,0.00,6.30,214272701,201195000,13012000,25
0.76,0.75,0.05,0.00,1.98,62705220,57621000,5054000,25
0.73,0.70,0.06,0.00,2.02,69778454,65716000,4044000,25
1.58,1.52,0.09,0.00,4.03,127676404,120570000,6975000,25
0.62,0.59,0.05,0.00,1.93,71557564,67573000,3974000,25
0.73,0.71,0.04,0.00,1.93,61669324,55477000,6052000,25
0.76,0.73,0.05,0.00,2.01,63601471,53636000,9932000,25
0.74,0.72,0.04,0.00,1.95,61729339,60707000,995000,25
0.80,0.77,0.05,0.00,2.09,66519585,62521000,3969000,25
0.74,0.72,0.05,0.00,1.96,62510526,57422000,4950000,25
1.44,1.41,0.07,0.00,3.60,113472749,109421000,4015000,25
1.46,1.42,0.07,0.00,3.65,113829582,110706000,2992000,25
0.82,0.79,0.06,0.00,2.15,70889132,59877000,10977000,25
0.80,0.77,0.06,0.00,2.14,69801155,63694000,5971000,25
0.72,0.70,0.04,0.00,1.88,61594532,55594000,5956000,25
0.83,0.80,0.06,0.00,2.23,71406943,63429000,7928000,25
1.50,1.46,0.08,0.00,3.83,121274709,118242000,3006000,25
1.56,1.51,0.08,0.00,3.97,125091539,115057000,10005000,25
0.71,0.69,0.04,0.00,1.90,60743648,53639000,7084000,25
1.42,1.37,0.07,0.00,3.58,112767580,107661000,4984000,25
0.75,0.73,0.05,0.00,1.98,62434514,59353000,3017000,25
0.69,0.67,0.04,0.00,1.81,57452992,52303000,5029000,25
1.48,1.44,0.07,0.00,3.77,119465449,116421000,3010000,25
1.44,1.40,0.07,0.00,3.71,117532744,108481000,9040000,25
1.49,1.44,0.08,0.00,3.77,120501023,116500000,3982000,25
0.69,0.67,0.04,0.00,1.78,57533735,51421000,6049000,25
1.47,1.43,0.07,0.00,3.71,118119495,111085000,7005000,25
0.87,0.85,0.06,0.00,2.28,74573488,58640000,15902000,25
1.44,1.40,0.07,0.00,3.68,116980895,110954000,5997000,25
0.70,0.67,0.04,0.00,1.81,55790944,52776000,2987000,25
0.73,0.71,0.05,0.00,1.94,61275703,57217000,4015000,25
0.76,0.74,0.05,0.00,2.01,64127555,58096000,6010000,25
1.48,1.43,0.07,0.00,3.77,118227154,113130000,5005000,25
0.73,0.71,0.04,0.00,1.92,61827515,56816000,4983000,25
1.49,1.45,0.07,0.00,3.76,118632908,117599000,1005000,25
0.72,0.71,0.04,0.00,1.92,60371111,56387000,3956000,25
0.70,0.68,0.04,0.00,1.82,57139175,55108000,2003000,25
0.85,0.82,0.06,0.00,2.26,73037439,58004000,15001000,25
1.47,1.42,0.07,0.00,3.72,117876009,112807000,5036000,25
0.75,0.73,0.05,0.00,2.04,66244599,59093000,7011000,25
1.57,1.52,0.08,0.00,4.05,126146809,121024000,5001000,25
2.02,1.96,0.14,0.00,5.52,179129111,168997000,9999000,25
0.72,0.70,0.04,0.00,1.93,60679586,54597000,5956000,25
0.77,0.74,0.05,0.00,2.02,63708904,58694000,4974000,25
0.71,0.69,0.06,0.00,2.09,73184403,65079000,8009000,25
0.71,0.69,0.04,0.00,1.83,58391112,55341000,3018000,25
1.51,1.47,0.08,0.00,3.79,120600282,113590000,6974000,25
0.75,0.73,0.05,0.00,1.97,62534085,56551000,5952000,25
2.17,2.11,0.15,0.00,5.65,190272345,179994000,9999000,25
1.57,1.53,0.08,0.00,4.00,126096831,122067000,4002000,25
0.74,0.72,0.05,0.00,1.95,62228752,57180000,5015000,25
0.96,0.92,0.07,0.00,2.60,83601013,67652000,15918000,25
1.49,1.45,0.08,0.00,3.78,119490392,113385000,5967000,25
1.51,1.47,0.08,0.00,3.76,120190704,113019000,7001000,25
0.67,0.64,0.05,0.00,1.88,65307310,59257000,6026000,25
1.47,1.43,0.07,0.00,3.70,117089269,110049000,7003000,25
1.74,1.68,0.10,0.00,4.48,141499822,123407000,18059000,25
1.45,1.40,0.07,0.00,3.64,114818824,107807000,6987000,25
1.56,1.51,0.09,0.00,4.07,127434512,122397000,5016000,25
0.76,0.73,0.05,0.00,2.06,64373816,60321000,4021000,25
2.14,2.06,0.19,0.00,6.35,221953325,213936000,7997000,25
0.87,0.84,0.06,0.00,2.31,73899972,63888000,9982000,25
0.83,0.80,0.06,0.00,2.24,70665937,64535000,5957000,25
0.70,0.67,0.05,0.00,1.96,66094555,59934000,5993000,25
1.80,1.75,0.10,0.00,4.59,146587990,138448000,8025000,25
0.70,0.68,0.04,0.00,1.80,57229052,54188000,3010000,25
0.88,0.86,0.06,0.00,2.30,73754434,66745000,6973000,25
2.45,2.37,0.15,0.00,6.92,238910752,228858000,9993000,25
1.25,1.22,0.07,0.00,3.13,100905449,94877000,5992000,25
1.33,1.29,0.06,0.00,3.35,103809783,98425000,5021000,26
1.34,1.30,0.06,0.00,3.28,101229209,98195000,3005000,26
1.28,1.25,0.06,0.00,3.17,100084097,95048000,5002000,26
1.57,1.52,0.08,0.00,3.72,110993896,103963000,6997000,26
0.54,0.53,0.03,0.00,1.44,49047682,45997000,2999000,26
0.58,0.56,0.03,0.00,1.47,46896340,43870000,2991000,26
0.62,0.60,0.04,0.00,1.62,52525928,47516000,4949000,26
0.58,0.56,0.03,0.00,1.52,47199016,43148000,4013000,26
1.29,1.25,0.06,0.00,3.23,102527808,95526000,6965000,26
1.37,1.33,0.07,0.00,3.48,112006826,103985000,7998000,26
0.63,0.60,0.04,0.00,1.64,51275432,49234000,2009000,26
1.43,1.37,0.14,0.00,3.84,133227324,123184000,10014000,26
1.38,1.33,0.08,0.00,3.59,118075181,114051000,4001000,26
0.60,0.59,0.04,0.00,1.60,50911721,44895000,5986000,26
0.57,0.56,0.03,0.00,1.45,47038649,42000000,5000000,26
0.61,0.59,0.03,0.00,1.55,50299837,47282000,3018000,26
0.66,0.64,0.04,0.00,1.75,55646613,45575000,9907000,26
0.64,0.62,0.04,0.00,1.63,52212572,46141000,6018000,26
1.25,1.22,0.06,0.00,3.23,105933511,101802000,3992000,26
1.31,1.28,0.06,0.00,3.29,103430214,97421000,5964000,26
1.36,1.32,0.06,0.00,3.40,105458453,97471000,7956000,26
0.59,0.58,0.03,0.00,1.50,47608813,45562000,2024000,26
0.70,0.68,0.05,0.00,1.83,58163971,48104000,10021000,26
0.59,0.57,0.03,0.00,1.52,47734816,43736000,3976000,26
1.32,1.28,0.06,0.00,3.28,101849545,98724000,2991000,26
1.45,1.40,0.07,0.00,3.63,114854048,110791000,4028000,26
0.64,0.61,0.04,0.00,1.65,51610600,48553000,3034000,26
0.64,0.61,0.04,0.00,1.65,51884745,49832000,2033000,26
0.11,0.12,0.01,0.00,0.28,9361778,6542000,2803000,26
0.64,0.62,0.04,0.00,1.68,51986653,46957000,4995000,26
0.70,0.67,0.05,0.00,1.83,56861157,47834000,8968000,26
0.63,0.61,0.04,0.00,1.65,52063241,44029000,8005000,26
0.61,0.59,0.04,0.00,1.66,52440371,48369000,4030000,26
0.59,0.57,0.03,0.00,1.51,47886718,39857000,7971000,26
0.59,0.57,0.03,0.00,1.50,48164919,42118000,6016000,26
0.59,0.57,0.03,0.00,1.53,47471842,44419000,3028000,26
1.33,1.29,0.06,0.00,3.29,101762159,97744000,3989000,26
0.62,0.60,0.03,0.00,1.60,49517675,46521000,2969000,26
1.31,1.28,0.06,0.00,3.28,101579670,96490000,4973000,26
0.36,0.34,0.02,0.00,0.92,30552575,27587000,2955000,26
0.61,0.58,0.03,0.00,1.54,48073845,46040000,2001000,26
0.61,0.59,0.03,0.00,1.57,48189633,43145000,5016000,26
1.62,1.57,0.10,0.00,4.25,139311044,133234000,6010000,26
0.09,0.09,0.00,0.00,0.22,6939013,4942000,1976000,26
0.64,0.62,0.04,0.00,1.67,51680744,46682000,4966000,26
0.52,0.50,0.03,0.00,1.44,50121420,44220000,5896000,26
0.63,0.60,0.04,0.00,1.64,51967521,46943000,4994000,26
1.39,1.36,0.07,0.00,3.48,110595085,105541000,5025000,26
0.78,0.75,0.06,0.00,2.11,66393958,53486000,12876000,26
1.49,1.46,0.07,0.00,3.79,119574865,112514000,7032000,26
0.58,0.57,0.03,0.00,1.53,47909314,44896000,2993000,26
1.50,1.45,0.08,0.00,3.80,119683845,115672000,3988000,26
0.64,0.61,0.04,0.00,1.66,52664177,45688000,6952000,26
0.52,0.50,0.03,0.00,1.49,52031461,48021000,4001000,26
0.65,0.63,0.04,0.00,1.73,53075811,49043000,4003000,26
1.70,1.65,0.10,0.00,4.46,141217400,132183000,9012000,26
0.64,0.62,0.04,0.00,1.67,54322957,45261000,9052000,26
1.37,1.34,0.07,0.00,3.48,110836517,104728000,5984000,26
1.31,1.27,0.06,0.00,3.26,102567970,97562000,4977000,26
0.57,0.56,0.03,0.00,1.52,48331182,45293000,3019000,26
0.61,0.59,0.04,0.00,1.66,53920597,46794000,7120000,26
1.31,1.27,0.06,0.00,3.28,101637306,98614000,2988000,26
1.28,1.24,0.06,0.00,3.24,104776079,97772000,6983000,26
0.60,0.57,0.03,0.00,1.58,48610366,44523000,3957000,26
0.65,0.62,0.04,0.00,1.72,53734647,50672000,3040000,26
1.31,1.28,0.06,0.00,3.26,101316718,95195000,6012000,26
0.60,0.58,0.03,0.00,1.58,49626313,45533000,3959000,26
0.66,0.64,0.04,0.00,1.77,54528632,47464000,6921000,26
1.32,1.28,0.06,0.00,3.29,101993921,97721000,3988000,26
0.57,0.56,0.03,0.00,1.50,47474497,42421000,5050000,26
0.82,0.79,0.06,0.00,2.22,70859401,62851000,7981000,26
0.74,0.71,0.05,0.00,1.95,61335398,58314000,3016000,26
1.31,1.27,0.06,0.00,3.22,102066272,99032000,3000000,26
0.63,0.61,0.04,0.00,1.67,51876470,43869000,7976000,26
1.65,1.59,0.10,0.00,4.31,137535544,131543000,5979000,26
0.65,0.63,0.04,0.00,1.68,52982777,45927000,6988000,26
1.37,1.33,0.07,0.00,3.46,108469249,101480000,6964000,26
1.28,1.24,0.06,0.00,3.29,102630119,97667000,4983000,26
0.67,0.65,0.04,0.00,1.76,54885000,49873000,4987000,26
0.76,0.74,0.05,0.00,2.01,65100377,52062000,13015000,26
1.01,0.98,0.05,0.00,2.48,81474997,76114000,4942000,27
2.11,2.05,0.09,0.00,5.15,162924538,159879000,2997000,27
0.87,0.83,0.05,0.00,2.24,72520274,69474000,3020000,27
1.22,1.18,0.07,0.00,2.94,89301330,86259000,3009000,27
0.43,0.42,0.03,0.00,1.18,40210284,30150000,10050000,27
0.87,0.85,0.05,0.00,2.24,73525033,67430000,5949000,27
0.89,0.86,0.05,0.00,2.28,73014987,65987000,6998000,27
0.91,0.88,0.05,0.00,2.35,74721662,68594000,5964000,27
0.89,0.86,0.05,0.00,2.22,73933539,70908000,2996000,27
0.87,0.85,0.05,0.00,2.27,75452896,71424000,4023000,27
0.89,0.86,0.05,0.00,2.34,73438444,65479000,7936000,27
0.87,0.85,0.05,0.00,2.32,74654695,67641000,6963000,27
0.88,0.85,0.05,0.00,2.25,74026033,67103000,6907000,27
0.84,0.80,0.04,0.00,2.16,69414417,65378000,4023000,27
0.93,0.90,0.05,0.00,2.41,78034378,74878000,2995000,27
2.17,2.11,0.10,0.00,5.40,170036792,165987000,4023000,27
2.92,2.82,0.16,0.00,7.55,241375084,234312000,7009000,27
0.86,0.83,0.05,0.00,2.23,71977980,68942000,2997000,27
0.91,0.89,0.05,0.00,2.37,76189005,71150000,5010000,27
0.90,0.87,0.05,0.00,2.33,76464357,73415000,3017000,27
0.92,0.90,0.05,0.00,2.39,79632483,73553000,6045000,27
0.88,0.85,0.05,0.00,2.28,72685090,65695000,6967000,27
2.13,2.07,0.10,0.00,5.38,170743019,163714000,6987000,27
0.88,0.86,0.05,0.00,2.29,74372710,67293000,7030000,27
0.91,0.89,0.05,0.00,2.35,77510698,70445000,7044000,27
0.97,0.93,0.05,0.00,2.57,81401188,77360000,4018000,27
0.88,0.84,0.05,0.00,2.27,72656267,67646000,4974000,27
0.85,0.83,0.05,0.00,2.25,72099400,68066000,4003000,27
2.25,2.19,0.11,0.00,5.63,178477104,172281000,6009000,27
0.86,0.83,0.05,0.00,2.24,72536951,66552000,5959000,27
2.61,2.53,0.15,0.00,6.67,217169411,207115000,10005000,27
0.88,0.86,0.05,0.00,2.29,74240391,69189000,5013000,27
1.34,1.29,0.08,0.00,3.46,115986134,110935000,4997000,27
1.24,1.20,0.08,0.00,3.29,107006792,77887000,28958000,27
0.81,0.78,0.05,0.00,2.26,77785433,75722000,1992000,27
0.85,0.82,0.05,0.00,2.29,76422288,70369000,6031000,27
0.93,0.89,0.05,0.00,2.41,76491839,73497000,2979000,27
1.31,1.27,0.09,0.00,3.50,116888418,108765000,7982000,27
0.88,0.85,0.05,0.00,2.33,73932484,69806000,3988000,27
0.83,0.81,0.04,0.00,2.17,69608770,63515000,5954000,27
0.80,0.77,0.05,0.00,2.22,77918742,68852000,8980000,27
0.88,0.86,0.05,0.00,2.27,74730705,67672000,6966000,27
0.87,0.85,0.05,0.00,2.30,74453458,71410000,3017000,27
2.16,2.11,0.10,0.00,5.37,170281123,163249000,7010000,27
0.85,0.82,0.05,0.00,2.22,73058840,65926000,6992000,27
2.15,2.09,0.10,0.00,5.34,169061295,163936000,4998000,27
0.83,0.82,0.04,0.00,2.17,69407905,61455000,7929000,27
0.85,0.81,0.05,0.00,2.31,76369980,69319000,7032000,27
0.86,0.83,0.05,0.00,2.26,72708579,67699000,4977000,27
0.84,0.82,0.04,0.00,2.17,70538439,65481000,5037000,27
2.21,2.15,0.10,0.00,5.56,172807475,166786000,5992000,27
0.82,0.80,0.05,0.00,2.23,75513360,68543000,6953000,27
0.85,0.83,0.05,0.00,2.25,73446667,70427000,3018000,27
2.19,2.14,0.10,0.00,5.52,172108589,167038000,5001000,27
0.89,0.86,0.05,0.00,2.36,74932685,71904000,2996000,27
2.16,2.11,0.10,0.00,5.41,169501192,160506000,8972000,27
0.97,0.94,0.05,0.00,2.52,81703105,76573000,4972000,27
0.85,0.83,0.04,0.00,2.21,70707671,63684000,6965000,27
2.86,2.78,0.16,0.00,7.27,233356169,222323000,11016000,27
0.89,0.86,0.05,0.00,2.34,73749803,68741000,4981000,27
2.14,2.08,0.10,0.00,5.39,172963478,166987000,5963000,27
0.82,0.80,0.04,0.00,2.13,68200867,62244000,5928000,27
0.84,0.81,0.04,0.00,2.17,69830120,65807000,3988000,27
2.09,2.03,0.09,0.00,5.23,164944637,159929000,4997000,27
2.21,2.14,0.10,0.00,5.47,172590854,165536000,7022000,27
0.92,0.89,0.05,0.00,2.40,76856537,69857000,6985000,27
0.98,0.96,0.06,0.00,2.52,81819407,73806000,7979000,27
2.18,2.12,0.10,0.00,5.42,170678640,165531000,5016000,27
0.86,0.84,0.05,0.00,2.27,74585825,71593000,2983000,27
0.97,0.94,0.06,0.00,2.55,81256330,74209000,7019000,27
2.11,2.05,0.09,0.00,5.25,164692960,160646000,4016000,27
0.85,0.83,0.04,0.00,2.17,70692703,66680000,3980000,27
2.11,2.04,0.09,0.00,5.25,164147084,157120000,7005000,27
0.87,0.84,0.05,0.00,2.23,71729674,68582000,3025000,27
0.86,0.84,0.05,0.00,2.28,74187210,70156000,4008000,27
0.87,0.85,0.05,0.00,2.29,73051020,70021000,3000000,27
0.89,0.86,0.05,0.00,2.31,75061360,71950000,2997000,27
2.16,2.11,0.10,0.00,5.37,171608044,166555000,5016000,27
0.88,0.85,0.05,0.00,2.29,73976011,65957000,7994000,27
2.15,2.09,0.10,0.00,5.38,169628203,165502000,4012000,27
2.18,2.11,0.10,0.00,5.53,184620246,152166000,32035000,28
1.42,1.38,0.05,0.00,3.33,106467156,105440000,1004000,28
2.81,2.72,0.12,0.00,6.88,239070548,192950000,45988000,28
1.44,1.39,0.06,0.00,3.37,108742649,105722000,2992000,28
2.18,2.11,0.09,0.00,5.47,181446896,146352000,35084000,28
1.39,1.35,0.06,0.00,3.26,103303779,101254000,2005000,28
1.38,1.34,0.06,0.00,3.29,107977938,106955000,1009000,28
1.34,1.31,0.05,0.00,3.18,102900526,101889000,998000,28
1.91,1.87,0.08,0.00,4.54,146555884,144541000,1993000,28
2.08,2.02,0.08,0.00,4.99,164670051,162653000,1995000,28
0.92,0.90,0.04,0.00,2.42,78327660,75193000,3007000,28
1.80,1.74,0.08,0.00,4.54,155322820,116158000,39053000,28
2.45,2.38,0.11,0.00,6.01,202957332,166162000,36814000,28
1.32,1.27,0.05,0.00,3.17,102427372,100412000,2008000,28
1.20,1.17,0.06,0.00,3.10,104606917,101609000,2988000,28
1.33,1.30,0.06,0.00,3.21,103110939,100985000,1999000,28
2.45,2.37,0.11,0.00,6.20,206264576,173213000,33040000,28
1.36,1.32,0.05,0.00,3.22,102536635,99414000,2982000,28
1.96,1.91,0.09,0.00,4.94,173768136,138680000,34919000,28
1.45,1.42,0.06,0.00,3.66,127623980,124617000,2990000,28
1.42,1.38,0.06,0.00,3.39,108460011,106429000,1989000,28
2.16,2.10,0.09,0.00,5.51,183137203,152004000,31000000,28
1.72,1.67,0.07,0.00,4.24,142343829,139211000,3004000,28
1.41,1.37,0.06,0.00,3.32,105916469,104915000,999000,28
1.90,1.85,0.08,0.00,4.83,161035030,130931000,29984000,28
2.04,1.97,0.09,0.00,5.15,170901522,138806000,31955000,28
2.41,2.34,0.10,0.00,6.11,204147475,174106000,30018000,28
2.49,2.42,0.10,0.00,6.19,201911232,170910000,30983000,28
2.11,2.04,0.09,0.00,5.23,176997494,146889000,29977000,28
2.37,2.29,0.11,0.00,6.08,212832405,181708000,31121000,28
2.52,2.45,0.11,0.00,6.33,205731807,172759000,32954000,28
2.02,1.96,0.09,0.00,5.30,175866509,135821000,39947000,28
2.98,2.88,0.14,0.00,7.52,260204008,259171000,1000000,28
2.84,2.75,0.12,0.00,7.17,237925757,203921000,33986000,28
1.94,1.89,0.09,0.00,5.14,172728010,144583000,28113000,28
2.24,2.16,0.10,0.00,5.86,199941510,171924000,27987000,28
1.92,1.86,0.08,0.00,4.88,160931144,131907000,28979000,28
2.11,2.05,0.10,0.00,5.53,186929616,159928000,26987000,28
2.94,2.85,0.13,0.00,7.36,247367009,210176000,37031000,28
2.75,2.66,0.13,0.00,7.20,246895125,216810000,29973000,28
2.85,2.75,0.12,0.00,7.20,241280907,199144000,42030000,28
1.09,1.06,0.05,0.00,2.79,94350877,94356000,0,28
1.37,1.33,0.06,0.00,3.30,106137302,105129000,1001000,28
1.43,1.39,0.06,0.00,3.42,109980509,105046000,4955000,28
2.77,2.68,0.13,0.00,7.13,242980196,208965000,33994000,28
1.65,1.61,0.06,0.00,3.82,120821088,119803000,998000,28
1.36,1.33,0.05,0.00,3.25,103869949,102648000,996000,28
1.90,1.84,0.09,0.00,5.02,170818498,139837000,30964000,28
2.43,2.35,0.11,0.00,6.24,205634788,173685000,31942000,28
1.26,1.23,0.05,0.00,2.98,93803654,91755000,1994000,28
2.11,2.05,0.10,0.00,5.61,189993523,164979000,24996000,28
3.36,3.26,0.15,0.00,8.45,283750071,252764000,30971000,28
1.36,1.32,0.05,0.00,3.27,103579812,101573000,1991000,28
0.74,0.72,0.03,0.00,1.87,59953213,57939000,1997000,28
2.11,2.05,0.10,0.00,5.66,192201376,168215000,23888000,28
1.29,1.25,0.05,0.00,3.14,100371941,99362000,1003000,28
1.04,1.01,0.04,0.00,2.57,83859017,81779000,1994000,28
1.56,1.51,0.07,0.00,3.71,116120346,113099000,3002000,28
1.36,1.32,0.05,0.00,3.27,102665967,100508000,2010000,28
1.20,1.18,0.05,0.00,3.03,102823208,101806000,998000,28
1.38,1.34,0.05,0.00,3.25,103194769,100949000,1999000,28
1.27,1.22,0.06,0.00,3.17,105044998,103030000,2000000,28
2.01,1.94,0.09,0.00,5.15,171227648,137119000,34029000,28
2.24,2.17,0.10,0.00,5.70,186599348,162431000,24063000,28
1.38,1.34,0.05,0.00,3.30,106272853,103249000,3007000,28
1.67,1.63,0.06,0.00,3.87,120939983,117918000,2997000,28
2.50,2.43,0.11,0.00,6.46,217064421,190012000,27001000,28
1.78,1.73,0.08,0.00,4.72,158522704,129424000,29095000,28
2.15,2.08,0.10,0.00,5.61,188662932,163647000,24946000,28
1.73,1.67,0.08,0.00,4.57,146374062,145359000,1002000,28
1.78,1.72,0.08,0.00,4.43,149242273,148235000,1001000,28
2.03,1.96,0.09,0.00,5.29,176502606,150437000,26075000,28
2.46,2.38,0.11,0.00,6.28,206499594,179421000,27063000,28
3.66,3.55,0.15,0.00,8.99,295671105,266683000,28965000,28
1.37,1.34,0.05,0.00,3.26,103040147,100998000,1999000,28
1.51,1.47,0.06,0.00,3.70,120779406,118680000,1994000,28
2.24,2.17,0.10,0.00,5.70,185560834,155613000,29925000,28
1.35,1.32,0.05,0.00,3.24,103650238,101549000,1991000,28
1.34,1.30,0.05,0.00,3.37,101812127,98687000,2990000,28
2.22,2.16,0.10,0.00,5.61,184064523,149034000,35008000,28
0.29,0.28,0.02,0.00,0.74,23729092,20335000,3050000,29
0.63,0.62,0.03,0.00,1.58,50462199,45491000,4944000,29
0.53,0.51,0.02,0.00,1.32,41533461,36434000,5060000,29
0.51,0.50,0.02,0.00,1.29,41795084,36803000,4973000,29
0.63,0.62,0.03,0.00,1.64,51167281,41259000,9823000,29
0.41,0.39,0.03,0.00,1.09,34241787,27126000,7032000,29
0.25,0.24,0.02,0.00,0.73,26852403,17894000,8947000,29
0.31,0.29,0.02,0.00,0.77,24334692,19159000,5042000,29
0.30,0.30,0.01,0.00,0.77,24676242,18435000,5821000,29
0.49,0.48,0.02,0.00,1.28,39681522,36612000,3051000,29
0.43,0.41,0.03,0.00,1.13,34559209,27362000,7094000,29
0.74,0.71,0.05,0.00,1.95,62893951,45901000,16963000,29
0.50,0.49,0.02,0.00,1.27,40539846,34588000,5929000,29
0.45,0.44,0.03,0.00,1.13,36297042,28122000,8035000,29
0.27,0.27,0.01,0.00,0.72,24538614,18355000,6118000,29
0.24,0.24,0.02,0.00,0.70,25985344,20906000,4977000,29
0.50,0.49,0.02,0.00,1.26,40730698,34745000,5956000,29
0.41,0.39,0.03,0.00,1.04,33883915,28758000,4958000,29
0.30,0.29,0.01,0.00,0.74,23749231,18785000,4943000,29
0.29,0.29,0.01,0.00,0.73,23225769,16141000,7061000,29
0.42,0.41,0.03,0.00,1.07,34820567,27831000,6957000,29
0.53,0.50,0.02,0.00,1.34,41374382,36305000,5042000,29
0.26,0.25,0.02,0.00,0.77,29077790,23045000,6011000,29
0.30,0.29,0.02,0.00,0.75,24027546,20176000,3843000,29
0.30,0.28,0.01,0.00,0.73,23246313,20201000,3030000,29
0.50,0.48,0.02,0.00,1.27,39578813,35602000,3955000,29
0.35,0.35,0.02,0.00,0.89,29440964,27257000,2019000,29
0.37,0.35,0.02,0.00,0.91,29732461,25746000,3961000,29
0.42,0.41,0.03,0.00,1.07,34991541,27972000,6993000,29
0.38,0.37,0.03,0.00,1.10,39030950,31012000,8003000,29
0.29,0.28,0.02,0.00,0.76,25047855,21021000,4004000,29
0.42,0.41,0.03,0.00,1.10,33852868,27784000,5953000,29
0.77,0.75,0.05,0.00,2.02,64047409,46006000,18002000,29
0.49,0.47,0.02,0.00,1.27,39660838,35669000,3963000,29
0.30,0.29,0.01,0.00,0.77,24353537,20285000,4057000,29
0.50,0.47,0.02,0.00,1.27,40460473,35422000,4919000,29
0.31,0.30,0.02,0.00,0.79,25097746,18990000,5997000,29
0.61,0.59,0.04,0.00,1.60,51925233,38857000,12952000,29
0.44,0.42,0.03,0.00,1.13,36264928,30364000,5877000,29
0.63,0.62,0.03,0.00,1.60,50314559,42253000,8048000,29
0.43,0.40,0.03,0.00,1.11,34104383,26966000,6991000,29
0.31,0.30,0.02,0.00,0.78,24908193,20900000,3981000,29
0.50,0.48,0.02,0.00,1.26,40402085,38357000,2018000,29
0.48,0.46,0.03,0.00,1.26,41721344,37733000,3971000,29
0.29,0.28,0.01,0.00,0.74,23992000,21972000,1997000,29
0.67,0.65,0.04,0.00,1.71,52851896,42860000,9967000,29
2.12,2.04,0.14,0.00,5.83,210244650,152177000,58067000,29
0.28,0.27,0.01,0.00,0.71,23066818,18036000,5010000,29
0.30,0.29,0.01,0.00,0.76,24531162,18621000,5880000,29
0.49,0.47,0.02,0.00,1.24,40446917,37404000,3032000,29
0.89,0.86,0.05,0.00,2.35,78589945,69500000,9065000,29
0.28,0.28,0.01,0.00,0.70,23725900,19699000,3939000,29
1.89,1.83,0.10,0.00,4.87,173506141,107707000,65821000,29
0.39,0.38,0.03,0.00,1.08,36946943,30767000,6153000,29
0.42,0.41,0.02,0.00,1.10,34121165,28082000,6017000,29
0.32,0.31,0.02,0.00,0.81,25999778,22963000,2995000,29
0.30,0.29,0.02,0.00,0.75,23729584,19666000,3933000,29
0.52,0.51,0.02,0.00,1.33,41883035,34882000,6976000,29
0.42,0.41,0.03,0.00,1.09,34693039,28725000,5943000,29
0.28,0.28,0.01,0.00,0.73,23120233,20096000,3014000,29
0.49,0.47,0.02,0.00,1.25,40504990,33550000,6907000,29
1.73,1.67,0.09,0.00,4.84,166358592,106212000,60120000,29
0.32,0.31,0.02,0.00,0.81,26095118,22045000,4008000,29
0.40,0.39,0.02,0.00,1.05,33687116,26699000,6921000,29
0.42,0.42,0.03,0.00,1.10,35775672,21849000,13904000,29
0.29,0.28,0.02,0.00,0.74,23895793,21756000,2072000,29
0.51,0.49,0.02,0.00,1.33,40549734,36476000,4052000,29
0.64,0.62,0.04,0.00,1.65,50967712,43950000,6992000,29
0.29,0.29,0.02,0.00,0.73,24390914,21333000,3047000,29
0.49,0.47,0.02,0.00,1.22,39599950,35623000,3958000,29
0.52,0.50,0.02,0.00,1.31,41038341,37894000,2991000,29
0.28,0.28,0.01,0.00,0.70,23666773,19617000,3923000,29
0.64,0.62,0.03,0.00,1.65,51269354,44090000,7014000,29
0.30,0.29,0.02,0.00,0.76,24729569,18649000,5889000,29
0.41,0.41,0.02,0.00,1.06,33577475,27633000,5921000,29
0.48,0.47,0.02,0.00,1.23,39669616,35593000,3954000,29
0.29,0.28,0.01,0.00,0.74,23757975,19650000,3930000,29
0.28,0.27,0.01,0.00,0.72,22747641,20659000,2065000,29
0.50,0.49,0.02,0.00,1.28,40517303,34512000,5916000,29
0.40,0.39,0.02,0.00,1.04,33519509,27592000,5912000,29
1.91,1.83,0.12,0.00,4.71,154284109,140618000,13057000,30
1.88,1.83,0.11,0.00,4.69,158586280,147516000,11038000,30
4.06,3.93,0.22,0.00,10.30,332295173,322209000,10006000,30
4.49,4.36,0.22,0.00,11.40,372492722,339418000,33040000,30
4.49,4.35,0.22,0.00,11.42,369900169,339857000,29987000,30
2.03,1.96,0.12,0.00,5.20,170251050,159202000,11013000,30
1.41,1.37,0.08,0.00,3.69,118873927,113844000,4993000,30
1.47,1.43,0.08,0.00,3.81,123190702,117162000,5957000,30
3.69,3.58,0.17,0.00,9.47,310815021,278796000,31976000,30
1.80,1.74,0.11,0.00,4.74,159346488,149298000,9953000,30
1.47,1.42,0.08,0.00,3.84,125043244,117016000,8001000,30
1.60,1.55,0.09,0.00,4.09,133420538,126415000,6967000,30
2.63,2.55,0.20,0.00,6.98,226512782,218507000,7982000,30
1.64,1.60,0.09,0.00,4.30,140375137,133385000,6967000,30
2.41,2.33,0.13,0.00,6.12,194246032,185139000,9006000,30
1.46,1.41,0.08,0.00,3.77,121565695,117546000,3984000,30
1.54,1.48,0.08,0.00,4.01,129443512,122453000,6968000,30
1.33,1.28,0.07,0.00,3.49,113576699,108482000,4976000,30
2.15,2.09,0.11,0.00,5.69,189923607,160792000,28962000,30
2.12,2.06,0.12,0.00,5.50,176990857,167967000,8998000,30
1.34,1.31,0.07,0.00,3.51,113640664,108554000,4979000,30
4.86,4.70,0.29,0.00,12.74,411007534,379979000,30998000,30
1.75,1.68,0.12,0.00,4.61,146328976,139292000,7014000,30
1.95,1.89,0.11,0.00,5.10,165539711,159558000,5983000,30
2.17,2.12,0.12,0.00,5.65,184623347,177593000,7023000,30
1.35,1.31,0.07,0.00,3.51,114421902,104440000,9946000,30
2.28,2.20,0.13,0.00,6.09,203331192,153221000,50072000,30
4.12,3.98,0.22,0.00,10.65,346353751,301416000,44912000,30
1.92,1.85,0.10,0.00,4.88,158340666,151307000,7014000,30
2.76,2.67,0.15,0.00,7.19,236063361,198027000,38005000,30
2.59,2.50,0.20,0.00,6.76,213836932,204672000,8985000,30
2.66,2.58,0.15,0.00,7.14,234712183,204552000,30081000,30
1.07,1.03,0.06,0.00,2.86,94487086,89494000,4971000,30
1.52,1.47,0.08,0.00,3.97,128441636,121450000,6968000,30
3.31,3.21,0.15,0.00,8.51,272239890,238190000,34027000,30
2.14,2.07,0.11,0.00,5.61,187986081,150184000,37794000,30
1.48,1.42,0.08,0.00,3.82,123032848,116016000,7001000,30
1.59,1.54,0.10,0.00,4.23,136612403,130607000,5982000,30
1.37,1.33,0.07,0.00,3.58,114786053,110769000,3991000,30
1.30,1.26,0.07,0.00,3.52,120720597,115708000,4987000,30
2.93,2.80,0.27,0.00,7.89,248200090,236051000,12002000,30
1.80,1.74,0.09,0.00,4.64,148751348,138646000,9974000,30
1.46,1.41,0.08,0.00,3.81,123464597,117373000,5968000,30
4.86,4.68,0.35,0.00,12.88,417638549,376660000,40963000,30
1.42,1.38,0.08,0.00,3.79,124907279,116901000,7993000,30
3.04,2.94,0.17,0.00,7.92,259056927,224950000,33992000,30
3.08,2.99,0.19,0.00,7.83,250949200,243897000,6997000,30
1.84,1.78,0.10,0.00,4.77,153789873,145677000,7982000,30
2.32,2.25,0.13,0.00,5.91,191016921,182905000,7995000,30
1.27,1.23,0.07,0.00,3.35,113265877,106140000,7009000,30
2.01,1.95,0.14,0.00,5.38,176454959,166389000,10023000,30
1.72,1.67,0.09,0.00,4.60,152325915,113478000,38821000,30
2.74,2.66,0.15,0.00,7.13,231622800,199627000,31940000,30
4.54,4.40,0.22,0.00,11.53,369056526,333964000,34996000,30
3.68,3.56,0.18,0.00,9.39,301760592,272459000,29048000,30
4.49,4.35,0.22,0.00,11.50,370142654,343010000,27000000,30
2.22,2.14,0.13,0.00,5.72,185577330,179548000,6018000,30
2.98,2.88,0.17,0.00,7.84,256285087,224189000,32027000,30
2.32,2.24,0.14,0.00,6.13,198920392,191865000,6995000,30
6.28,6.07,0.32,0.00,16.93,571171049,564149000,7001000,30
1.44,1.40,0.07,0.00,3.76,122111678,116080000,6004000,30
2.49,2.41,0.14,0.00,6.44,205447644,199434000,5983000,30
3.70,3.59,0.18,0.00,9.60,316989751,275745000,41111000,30
0.53,0.51,0.03,0.00,1.36,45709161,42594000,2971000,30
4.38,4.24,0.23,0.00,11.25,359587178,323536000,35948000,30
3.85,3.75,0.18,0.00,9.83,317460714,290313000,27029000,30
1.81,1.75,0.09,0.00,4.84,160479351,121282000,39091000,30
1.58,1.54,0.09,0.00,4.11,134173955,121114000,13012000,30
2.01,1.95,0.11,0.00,5.38,179461676,151327000,28060000,30
1.57,1.52,0.08,0.00,3.99,129144874,124087000,5003000,30
1.54,1.49,0.10,0.00,4.04,129112866,114215000,14897000,30
1.78,1.72,0.12,0.00,4.67,148714316,138690000,9977000,30
3.70,3.59,0.17,0.00,9.47,306537962,270567000,35942000,30
1.51,1.46,0.08,0.00,3.88,125588150,117563000,7970000,30
1.82,1.76,0.12,0.00,4.78,153195097,147199000,6008000,30
1.76,1.70,0.11,0.00,4.60,145716418,134635000,10970000,30
2.14,2.07,0.15,0.00,5.55,175758339,162700000,12976000,30
3.89,3.77,0.16,0.00,9.84,315792335,273744000,41960000,30
3.75,3.63,0.17,0.00,9.56,308740548,273701000,34961000,30
2.10,2.03,0.11,0.00,5.64,186678653,159674000,26945000,30
2.25,2.17,0.11,0.00,5.85,215950737,214669000,1003000,31
1.34,1.30,0.07,0.00,3.61,135449152,135357000,0,31
1.60,1.55,0.08,0.00,4.27,151802343,151793000,0,31
1.34,1.31,0.06,0.00,3.41,122505858,121494000,995000,31
0.95,0.92,0.06,0.00,2.60,94903434,88865000,5990000,31
0.67,0.64,0.03,0.00,1.78,63337443,63327000,0,31
1.30,1.26,0.07,0.00,3.56,131756472,130741000,998000,31
3.19,3.09,0.19,0.00,8.06,256593292,214459000,42090000,31
1.26,1.22,0.06,0.00,3.45,124475279,124473000,0,31
1.32,1.28,0.07,0.00,3.78,134600652,132588000,1993000,31
1.32,1.28,0.07,0.00,3.61,128898532,127889000,999000,31
1.52,1.46,0.07,0.00,4.04,141747533,141687000,0,31
1.43,1.38,0.07,0.00,3.85,136703530,135627000,997000,31
0.70,0.67,0.04,0.00,1.83,64264533,55215000,9035000,31
1.30,1.26,0.07,0.00,3.63,129534068,128500000,996000,31
1.31,1.26,0.09,0.00,3.62,126447926,6232000,0,31
0.17,0.17,0.01,0.00,0.53,20430986,19403000,970000,31
1.41,1.37,0.07,0.00,3.73,135445432,134353000,1002000,31
1.12,1.09,0.06,0.00,3.11,116614930,115605000,996000,31
4.41,4.25,0.28,0.00,11.89,389931044,333914000,55985000,31
4.33,4.18,0.27,0.00,11.66,384134766,322021000,62004000,31
1.21,1.16,0.06,0.00,3.33,122575174,121444000,995000,31
1.40,1.35,0.07,0.00,3.68,133944668,132859000,998000,31
1.41,1.36,0.07,0.00,3.78,137027719,136021000,1000000,31
0.24,0.22,0.02,0.00,0.68,22398684,17285000,5083000,31
0.94,0.91,0.05,0.00,2.51,85908775,83892000,1997000,31
1.31,1.27,0.07,0.00,3.54,129179242,128160000,1001000,31
2.22,2.14,0.10,0.00,5.78,203809103,203796000,0,31
1.30,1.25,0.07,0.00,3.68,132077037,130960000,999000,31
1.29,1.25,0.07,0.00,3.45,126634578,126633000,0,31
0.82,0.79,0.04,0.00,2.24,77530765,76430000,1005000,31
1.27,1.23,0.07,0.00,3.52,131815298,130816000,998000,31
0.84,0.81,0.04,0.00,2.20,76568222,76549000,0,31
0.15,0.15,0.01,0.00,0.41,14253129,13239000,1018000,31
1.33,1.29,0.07,0.00,3.56,131567335,131517000,0,31
1.25,1.21,0.06,0.00,3.45,124521466,123500000,1004000,31
1.39,1.34,0.07,0.00,3.95,139992912,133970000,5998000,31
1.37,1.32,0.07,0.00,3.81,137928794,136920000,999000,31
1.34,1.30,0.07,0.00,3.70,135556016,135555000,0,31
1.30,1.26,0.07,0.00,3.51,129343175,129323000,0,31
1.29,1.24,0.06,0.00,3.46,125904128,124889000,999000,31
0.90,0.87,0.05,0.00,2.50,91844375,90832000,998000,31
1.50,1.45,0.08,0.00,4.04,146135518,145115000,1000000,31
1.42,1.38,0.07,0.00,3.83,135258001,134244000,1001000,31
1.44,1.38,0.07,0.00,3.82,139300690,139285000,0,31
2.98,2.88,0.14,0.00,7.51,267025991,265852000,999000,31
2.74,2.65,0.12,0.00,7.49,240770141,239726000,998000,31
1.50,1.45,0.07,0.00,3.89,139057489,137863000,1006000,31
1.31,1.26,0.07,0.00,3.64,130597770,129594000,996000,31
1.33,1.28,0.07,0.00,3.78,133488744,132473000,1003000,31
1.43,1.39,0.06,0.00,3.57,120366683,120310000,0,31
1.44,1.40,0.06,0.00,3.54,120958669,119946000,999000,31
1.39,1.35,0.07,0.00,3.79,140523760,140437000,0,31
1.51,1.47,0.07,0.00,3.73,127269786,127256000,0,31
1.46,1.42,0.06,0.00,3.57,120801914,120671000,0,31
1.44,1.40,0.06,0.00,3.53,120994759,118966000,1982000,31
1.35,1.30,0.07,0.00,3.54,127154052,126138000,1001000,31
0.72,0.69,0.04,0.00,1.94,67048828,65900000,998000,31
0.76,0.73,0.04,0.00,2.02,71829038,70811000,997000,31
5.16,4.97,0.26,0.00,13.71,503573710,502461000,998000,31
0.59,0.57,0.03,0.00,1.73,58922398,58816000,0,31
1.59,1.54,0.08,0.00,4.33,149570772,148561000,997000,31
1.28,1.23,0.07,0.00,3.51,130966498,130953000,0,31
1.44,1.40,0.06,0.00,3.54,120067453,119056000,1000000,31
0.10,0.10,0.01,0.00,0.30,9745001,8771000,974000,31
1.14,1.09,0.07,0.00,3.50,133315864,131172000,2002000,31
0.29,0.29,0.02,0.00,0.82,29424207,28372000,978000,31
3.09,3.01,0.13,0.00,7.39,249272062,249229000,0,31
1.22,1.18,0.07,0.00,3.45,132138309,130085000,2001000,31
1.22,1.17,0.06,0.00,3.36,122322407,119276000,3006000,31
1.33,1.28,0.07,0.00,3.75,131460263,130449000,1003000,31
1.29,1.26,0.06,0.00,3.46,125680506,124668000,997000,31
1.38,1.33,0.07,0.00,3.88,139014973,136962000,1984000,31
0.37,0.35,0.02,0.00,1.01,34505367,33493000,1014000,31
1.28,1.23,0.07,0.00,3.58,133952919,133954000,0,31
0.31,0.30,0.02,0.00,0.86,27174966,16089000,11061000,31
1.46,1.41,0.07,0.00,3.87,139923843,138915000,999000,31
1.32,1.28,0.07,0.00,3.65,136024450,134873000,999000,31
1.30,1.26,0.07,0.00,3.61,133709136,132696000,997000,31
1.37,1.32,0.07,0.00,3.70,136170415,135126000,1000000,31
