@relation problema
@attribute 'L1-dcache-loads' real
@attribute 'L1-dcache-load-misses' real
@attribute 'branch-instructions' real
@attribute 'branch-load-misses' real
@attribute 'branch-loads' real
@attribute 'branch-misses' real
@attribute 'cache-misses' real
@attribute 'cache-references' real
@attribute 'cpu-cycles' real
@attribute 'dTLB-load-misses' real
@attribute 'dTLB-loads' real
@attribute 'iTLB-loads' real
@attribute 'iTLB-load-misses' real
@attribute 'instructions' real
@attribute 'page-faults' real
@attribute 'power/energy-psys/' real
@attribute 'power/energy-pkg/' real
@attribute 'power/energy-cores/' real
@attribute 'power/energy-ram/' real
@attribute 'power/energy-gpu/' real
@attribute 'duration_time' real
@attribute 'user_time' real
@attribute 'system_time' real
@attribute 'perf_time' real
@attribute 'class' {0,1,2,3,4,5,6,7,8,9,10,11,12,13,14,15,16,17,18,19,20,21,22,23,24,25,26,27,28,29,30,31}
@data
246919384,299867,152945626,690172,152854891,681457,139773,2079365,501478870,113780,247450915,167589,106349,758682730,129,4.19,1.66,1.61,0.07,0.0,136195578,103850000,31954000,150496851,0
95007350,272597,62824776,419482,62949109,418695,141254,1590509,335999298,110813,95111223,6250,104273,329454421,133,2.77,1.01,0.97,0.05,0.0,92331087,62994000,28997000,106499714,0
250896008,316873,156190310,650896,156268587,651209,146981,2140419,511315957,114212,251748792,248677,104929,777484066,131,4.33,1.69,1.65,0.07,0.0,138290438,102859000,34952000,152180887,0
249626161,308060,155545959,748622,155543859,751361,148387,2280980,515587498,113922,251146110,9635,418677,774321413,131,4.26,1.71,1.65,0.07,0.0,139391821,109973000,28993000,153420646,0
251916832,297830,155799330,632925,155786013,633718,145313,2048540,508902778,113647,253975982,215798,105116,773196591,129,4.2,1.69,1.64,0.07,0.0,137866178,106630000,30892000,152024394,0
251241735,254907,155675752,710175,155650199,710505,140998,2104891,505702861,114149,252152902,10195,105457,776469194,129,4.23,1.67,1.61,0.07,0.0,137236780,103884000,32963000,151476303,0
249558989,274156,153862533,673100,153722492,672267,150879,2162368,502694295,114396,249484511,18870,105514,765616709,129,4.26,1.65,1.6,0.07,0.0,135981336,109506000,26120000,149995008,0
249695100,302908,155675026,701191,155642556,703422,141371,2096811,505916178,114164,251716524,9896,105443,773937618,131,4.21,1.65,1.61,0.07,0.0,137893524,100643000,36869000,152098507,0
251171741,305880,155552874,655530,155618430,655045,139954,2242928,507724578,114014,253114550,184600,107793,771175664,130,4.11,1.64,1.6,0.07,0.0,139283261,104981000,33993000,153470430,0
246802123,278161,152552182,717552,152525791,722659,180143,2280720,502323660,116748,247590428,18056,106484,759931126,130,4.09,1.65,1.6,0.07,0.0,135275907,106211000,28786000,149379255,0
70659814,216853,47161528,232810,47080032,232621,137226,870573,101976647,3895,72941171,3067,1216,254762056,140,0.86,0.35,0.34,0.02,0.0,27684842,26434000,979000,42101997,0
253977722,247773,155764614,633596,155725859,634621,149375,2205440,510799883,114100,254479777,277111,105414,776920475,130,4.14,1.66,1.62,0.07,0.0,139458060,104106000,35035000,153483270,0
111468329,387092,73501422,444770,75036682,425051,394102,2351228,388449160,108402,118462113,28747,111786,396250036,1890,3.11,1.21,1.16,0.06,0.0,105120331,74568000,30230000,119239975,0
246998130,277628,152900874,728719,152974993,727157,145252,2064512,501874772,114446,248006002,36805,107629,759797997,128,4.12,1.63,1.59,0.07,0.0,135479594,109102000,26024000,149677360,0
251565424,302873,155426062,658659,155390894,656463,128285,2061854,502612774,113932,252375231,10800,510954,770677406,130,4.17,1.65,1.61,0.07,0.0,135916228,110642000,24919000,150082209,0
97593701,271724,64029587,419501,64194849,418364,144996,1568939,340081384,111120,98070624,5915,104453,334501289,134,2.74,1.07,1.03,0.05,0.0,92212810,66919000,24969000,106239415,0
253481594,310636,156344679,633110,156310088,632228,144327,2252408,514346124,114820,255763172,307833,105503,779323516,129,4.35,1.7,1.65,0.07,0.0,139206607,101817000,36933000,153352636,0
249252378,339487,155778880,713470,155690929,712948,139777,2224931,508545029,114341,251188510,10285,105125,774522464,131,4.3,1.62,1.57,0.07,0.0,137838935,109269000,28069000,152023793,0
252040295,298747,155617974,680131,155823190,681062,146212,2132850,506886897,114269,254515998,27509,105576,774351865,128,4.15,1.66,1.6,0.07,0.0,136894467,111669000,24926000,150976245,0
245191911,337526,153637662,710619,158856772,710754,157527,2180041,501141452,114121,254487776,10911,119478,762120524,324,4.3,1.64,1.59,0.07,0.0,135450106,114018000,21003000,149610621,0
69256278,218357,46578210,180337,46322922,182816,141442,906264,100189620,3694,72980969,2553,1305,252425980,137,0.88,0.35,0.33,0.02,0.0,27124645,25758000,990000,41267240,0
251357173,302275,155559312,644906,155627341,641268,136349,2077389,502655948,113821,252344771,34742,105080,770667650,130,4.16,1.64,1.59,0.07,0.0,135828173,108620000,26905000,150072920,0
68132743,208389,43955372,185993,43883071,185289,139743,785391,96706229,3809,70569223,4675,1625,236792906,135,0.8,0.32,0.31,0.01,0.0,26042551,24791000,991000,40194433,0
70142482,222214,46663161,180032,46751224,180926,136455,861520,100012237,3217,73274216,2635,1190,250182463,137,0.82,0.35,0.34,0.01,0.0,27184564,25903000,996000,41193546,0
248012209,289258,153374334,657465,153419463,657751,158717,2133110,505249770,113948,248925608,278741,105130,762884995,129,4.2,1.65,1.58,0.07,0.0,138037146,105789000,31936000,152186756,0
248870112,300382,155441398,630462,155865458,627875,133286,2113156,502204640,114719,250373376,10519,105515,772983849,130,4.28,1.65,1.61,0.07,0.0,135477775,102075000,33024000,149813902,0
69192632,217556,46694234,181111,46553732,182695,148215,892769,99716135,4340,72731611,2900,1768,250232292,135,0.86,0.35,0.34,0.01,0.0,26822164,25484000,1019000,40910096,0
253000225,292398,155976870,656027,155900735,651592,141504,2083875,502527298,114238,253501290,16307,105333,773375471,130,4.27,1.65,1.61,0.07,0.0,136238984,103872000,31960000,150274269,0
247438030,296610,153215856,729308,153434584,729841,231410,2254592,509209707,114449,249352331,189736,105404,759004106,128,4.2,1.65,1.59,0.07,0.0,138125371,112786000,24952000,152288414,0
70453536,216466,46574069,180264,46570025,180060,141279,885855,100223306,4036,73278269,2399,1227,250474939,137,0.81,0.34,0.34,0.01,0.0,27126760,24916000,1993000,40955104,0
251552129,294848,155407550,641622,155587284,641948,156836,2019455,510270763,114034,253636390,246052,105608,771615511,129,4.24,1.67,1.62,0.07,0.0,137932124,106700000,30913000,151996695,0
94086125,260894,62735685,435320,62940128,434065,200760,1699624,345802155,110864,94729607,116981,128861,329186446,134,2.77,1.06,1.02,0.05,0.0,92948075,57684000,34809000,107227540,0
251854028,296776,155481509,647647,155432715,649142,166167,2182412,514101595,115013,253717194,307562,105316,773098993,128,4.28,1.67,1.62,0.07,0.0,138611788,103212000,35072000,152710657,0
65523673,220136,43549983,181952,43551785,183185,129744,799548,95604867,3686,69613627,5218,1519,235595531,135,0.79,0.33,0.32,0.01,0.0,25808080,25547000,0,39814124,0
73465351,196580,47885675,184545,47300990,182601,135492,896311,101807749,4355,74423839,2752,1390,261167059,135,0.87,0.35,0.34,0.01,0.0,27897537,27640000,0,41887889,0
67211266,199826,43188647,181317,43211053,181453,135795,773973,93596591,3741,68788649,5118,1618,232046699,137,0.81,0.33,0.32,0.01,0.0,25480432,25296000,0,39541790,0
252244404,332945,155935636,674997,156008484,672461,159783,2090434,504078840,113581,253847149,34223,105583,773203715,129,4.27,1.65,1.6,0.07,0.0,136997627,111688000,24930000,151077397,0
251489718,299744,155479420,683533,155470833,681081,140089,2120894,502661951,113672,252383752,8908,105091,770980663,130,4.25,1.65,1.6,0.07,0.0,136073958,111810000,23959000,150228619,0
251920679,307210,155524291,639643,155564043,636633,153375,2155947,506919235,114390,253625017,179359,105527,771989532,129,4.09,1.67,1.62,0.07,0.0,138072921,105813000,31943000,152298159,0
252674597,298567,155932426,651411,155987032,651135,165541,2167370,512523509,114649,254790253,185774,105070,775578646,130,4.26,1.69,1.65,0.07,0.0,138304118,102994000,34998000,152457086,0
255117666,282289,156623722,640351,156961067,644003,249732,2383553,511079522,114293,256745781,185845,105051,780433436,128,4.22,1.66,1.61,0.07,0.0,139047705,106498000,32150000,153215429,0
251877873,300069,155635349,646070,155518672,647091,161581,2237569,511125958,114034,253607468,216393,105362,775266920,129,4.12,1.67,1.63,0.07,0.0,139253417,103975000,34991000,153215611,0
246364619,341651,152465202,691109,157788101,696241,171466,2239526,509077305,112431,258566726,422021,110198,764912207,324,4.17,1.67,1.62,0.07,0.0,138326524,99970000,37988000,152442538,0
70560957,201687,46277190,185172,46299222,184854,133601,909027,100143209,3959,73486904,2934,1247,252763649,136,0.84,0.36,0.34,0.02,0.0,27164495,26780000,0,41222636,0
253351312,303577,156491524,614979,156474680,614344,225424,2162094,510715665,113734,254089015,33941,105651,778926627,130,4.35,1.66,1.61,0.07,0.0,136056927,106551000,28878000,150399840,0
65169143,217867,43348058,178682,43340866,178673,132528,776156,95813668,3375,69565212,5169,1630,234498940,134,0.85,0.33,0.32,0.01,0.0,25769718,24513000,1021000,39790626,0
226736171,236318,138145571,453842,139803643,468386,165384,1483201,263251843,10134,234273343,7332,3221,699604907,325,2.42,0.95,0.91,0.04,0.0,71226829,68978000,1999000,85137995,0
246366883,288724,152420231,631786,152879351,628345,152760,2024686,499026996,114212,247201997,177774,105284,757670105,130,4.13,1.63,1.58,0.07,0.0,134855815,101662000,32890000,148984623,0
251173412,290239,156565120,657149,156644445,656333,142590,2148413,508833184,114182,252879770,31841,105113,777711249,130,4.23,1.68,1.63,0.07,0.0,137263606,108737000,28191000,151278971,0
235224570,255335,141079383,521889,141406720,540292,181334,1579332,275206748,9405,238742628,8288,3155,713975887,329,2.41,1.0,0.98,0.04,0.0,74670198,73270000,1003000,88785300,0
69489921,215626,46246251,179470,46371470,180826,135478,881024,99277199,3607,72315678,2525,1224,246742709,135,0.82,0.34,0.33,0.01,0.0,26851917,24596000,1967000,40930856,0
69398931,258053,46504163,183633,46570108,183251,143165,894939,102122011,3729,72638587,2863,1220,248710653,135,0.81,0.34,0.33,0.01,0.0,27070970,24564000,1965000,41309840,0
249733694,291536,155488231,713660,155507882,713358,131139,2097084,504415526,113521,250805403,10444,105067,772222866,129,4.19,1.66,1.61,0.07,0.0,136448728,105096000,31028000,150550297,0
255852886,400795,157217749,688418,156954971,687922,185341,2472026,515952466,116530,258515998,16892,105119,786051936,129,4.26,1.69,1.64,0.07,0.0,137491960,101088000,36031000,151577829,0
244395085,300278,152406962,635077,152701644,630616,134669,2047753,496517220,114040,245805582,11094,105572,754508109,129,4.03,1.62,1.58,0.07,0.0,135224115,109193000,25809000,149268791,0
71804428,213496,46279976,277743,46282617,276404,136806,885011,105310207,3946,72615984,5149,150255,254699997,139,0.88,0.36,0.35,0.02,0.0,28612726,25504000,2942000,42580470,0
252950249,334165,156192726,653312,156313513,644158,152476,2221069,512675043,114202,254812201,33237,105821,775680376,130,4.23,1.66,1.61,0.07,0.0,139317916,95959000,42981000,153652245,0
70014186,222225,46771796,180455,46786526,181033,136441,866903,99313233,3317,72731409,2349,1214,249111452,137,0.84,0.35,0.33,0.02,0.0,27117170,25859000,994000,41088581,0
67323671,217203,44062521,181786,44077921,181635,131298,789210,97369332,3184,70599659,5086,1490,237979275,135,0.83,0.34,0.33,0.01,0.0,26453518,24167000,2013000,40556572,0
250989235,309220,155723571,639589,155739314,634240,136044,2115043,504616588,113950,253046612,154919,105418,770164721,130,4.19,1.62,1.57,0.07,0.0,137959987,107783000,29939000,152104723,0
95595596,272959,63329791,425337,63344572,423610,126869,1628146,348637562,110926,96198813,206882,104328,331745108,133,2.78,1.07,1.03,0.05,0.0,94530475,58494000,35691000,108586289,0
252196306,277017,155388093,719519,155477892,721599,149083,2125197,508584726,113898,253759267,37295,199510,772527769,128,4.21,1.67,1.62,0.07,0.0,137780102,110439000,27107000,151809699,0
247965695,285615,153438445,674143,153474320,674113,136336,2102153,507138121,114261,249846266,279267,105089,761993018,129,4.18,1.65,1.61,0.07,0.0,137137670,109878000,26970000,151272339,0
241790515,295550,150866936,660180,150887481,660501,132147,2115362,490419160,114268,243072687,6433,104939,748980199,130,4.04,1.59,1.55,0.07,0.0,132867818,102718000,29917000,146998724,0
249359248,326838,155767235,714784,155778213,716749,226240,2112719,506116623,113994,251050287,10259,106570,776119432,130,4.14,1.66,1.61,0.07,0.0,137695146,117257000,20044000,151805344,0
251576044,276173,156234849,819485,156217132,821624,169077,2309763,515396232,114587,252368997,12667,105675,779433919,131,4.33,1.69,1.65,0.07,0.0,139894251,115430000,24089000,153957442,0
251989040,289379,155484051,683725,155441119,683659,137482,2107921,502319553,113736,253164007,38376,105294,771269217,130,4.25,1.64,1.6,0.07,0.0,136591600,93528000,42784000,150795632,0
253140431,279407,155983927,827828,156031467,828588,146252,2109650,509404974,113480,253940074,33905,105250,773317938,128,4.31,1.68,1.63,0.07,0.0,137835144,111427000,26100000,151826499,0
96090298,257828,63710104,417443,63818952,413626,131927,1580801,341075485,111413,96864207,6190,104536,333677718,136,2.72,1.04,1.01,0.05,0.0,92362235,62051000,30024000,106376604,0
251727330,302426,155441842,656561,155389310,656573,173454,2259634,512118067,114653,254013736,216210,105313,773377106,128,4.17,1.67,1.62,0.07,0.0,138650102,109264000,29070000,152627395,0
92454266,248661,62279795,421665,62440177,419479,139195,1576605,336769507,110345,92403993,95604,118909,321995712,134,2.73,1.03,0.99,0.05,0.0,91293666,58041000,33023000,105261724,0
254654569,289580,156842706,822773,156208956,822681,160963,2313295,513298308,115843,254123305,20473,105793,779303124,128,4.23,1.61,1.56,0.07,0.0,142735880,102605000,39846000,156782115,0
251618262,296400,155466240,673710,155437010,673736,147307,2122059,506021227,114378,253701261,8735,264459,773195844,130,4.14,1.65,1.6,0.07,0.0,137229291,106951000,29986000,151302533,0
95493632,345935,63504880,423281,63235790,419242,153401,1602892,345261013,111095,95865058,6934,167567,332678301,134,2.75,1.03,1.0,0.05,0.0,92021688,60787000,30891000,106300507,0
66937179,204810,43397621,180607,43419053,182111,149140,805626,93951113,3519,68768704,4709,1627,232788205,138,0.83,0.32,0.31,0.01,0.0,25447140,25273000,0,39422696,0
252032199,288885,155607739,659776,155571212,661996,155963,2063763,504331102,114147,252786509,90658,105181,771854831,127,4.31,1.65,1.61,0.07,0.0,136373137,107063000,29017000,150346135,0
246266333,316134,152794235,626793,153198731,625257,132899,2081978,497222101,114250,247792807,39606,105042,760476533,128,4.19,1.64,1.59,0.07,0.0,134328900,107897000,25975000,148576379,0
69054315,162379,43360734,182844,43371092,184056,136476,868300,96720193,4014,69904090,5093,1395,238318818,135,0.81,0.33,0.32,0.01,0.0,26704348,24446000,2037000,40702477,0
252736458,270341,155489735,677227,155488402,673292,146346,2155650,502851476,114933,252914559,16344,105253,771612778,129,4.22,1.66,1.61,0.07,0.0,135655367,101566000,33855000,149549649,0
252438764,287027,155601998,646292,155621955,646446,167886,2234081,511766822,114076,253619713,306387,105672,772671717,129,4.38,1.67,1.62,0.07,0.0,138709206,101288000,37105000,152713855,0
44772896,237126,5944747,173038,5974267,159504,100951,1995396,505228849,12234,44426266,2319,3921,124377851,133,3.75,1.46,1.42,0.07,0.0,136410119,135206000,1001000,150264357,1
825345535,1015995,484691602,3866702,484439360,3868055,250664,11728956,3452855032,86642,825533810,13704,24398,5637795186,129,25.72,9.73,9.38,0.48,0.0,931718878,931104000,0,945746465,1
25856118,176941,3726733,78689,3510878,72774,113823,1021848,189315372,5555,25205937,1193,1772,123286804,133,1.51,0.56,0.54,0.03,0.0,51300413,49945000,998000,65378768,1
768668503,1751524,245815223,1067438,245706230,1053413,397650,20810991,6108898593,151826,768981640,38394,43589,2032180457,129,46.01,17.6,17.01,0.84,0.0,1648118058,1646280000,999000,1662287787,1
19946749,143040,4231960,233514,4214409,233199,96080,796989,98601711,2674,20012087,627,1202,114292338,133,0.73,0.26,0.25,0.01,0.0,27480287,27231000,0,41600858,1
1610544,171042,6402168,111934,6255895,124098,100932,1061669,182021649,5971,723122,1449,2166,122032380,133,1.37,0.51,0.49,0.03,0.0,49190840,47973000,999000,63336240,1
104992117,214842,30958242,110054,30968816,110701,108809,1840973,419348703,10805,105561866,1719,3048,697966367,127,3.22,1.25,1.21,0.06,0.0,113087512,111816000,998000,127184819,1
44469686,209205,5983370,186984,5987803,184150,109728,2032785,471221521,13449,44424620,1827,2974,116971829,135,3.52,1.36,1.32,0.07,0.0,127643262,125387000,1990000,141700388,1
765658861,1631855,244172122,1023403,244064403,1016929,380684,20276312,6090441717,148195,764948709,23524,43040,2021149309,128,45.88,17.62,17.02,0.84,0.0,1647133235,1645496000,999000,1661214232,1
28773181,152272,4809413,123421,4614058,125769,87288,778670,132003971,4499,28962790,928,1378,130324602,135,1.01,0.4,0.38,0.02,0.0,35641177,33454000,1967000,49695938,1
36001717,127927,10193293,122485,10185513,127042,101406,811546,101966782,2952,37196330,304,634,146868661,134,0.79,0.31,0.3,0.01,0.0,27679715,26457000,979000,41781447,1
23559940,94380,3462415,76535,3472719,76630,97688,1144717,209371907,6840,23521430,823,1405,177706666,127,1.59,0.62,0.6,0.03,0.0,57340122,56078000,1001000,71649344,1
385077479,799525,122836506,545048,122834937,545324,240550,10245208,3046398228,75271,384641495,12270,20808,1011977085,132,23.09,8.83,8.54,0.42,0.0,824267721,822726000,999000,838453617,1
29949363,164139,4184829,101585,4391480,105963,96896,1321293,269991128,7871,29785032,1045,1826,72711081,131,2.07,0.81,0.77,0.04,0.0,73113656,72838000,0,87376720,1
47560951,108409,9023147,136572,9104475,133162,61068,1042030,217601693,6501,48200661,823,1453,224769494,65,1.64,0.63,0.61,0.03,0.0,58639486,58409000,0,72907119,1
7095779,612806,86996546,4371918,86540490,4388550,290574,4655977,1226366852,33616,6958239,9987,14062,438800724,1809,10.03,3.68,3.56,0.17,0.0,330919667,329627000,1001000,344988033,1
755083610,1581421,244296393,1039646,244397223,1046325,438362,20235594,6085011277,150655,755217640,29151,42058,1998431055,133,46.02,17.6,17.0,0.84,0.0,1645350853,1643621000,999000,1659508914,1
35745825,163281,6407248,147472,6457118,143810,100875,1141704,210851578,5457,36037996,786,1413,222809700,133,1.59,0.62,0.59,0.03,0.0,56793839,55497000,1009000,70839646,1
25412496,163333,3428438,75690,3432223,75317,102041,1141630,207270398,5456,25316256,796,1311,160939498,134,1.62,0.58,0.57,0.03,0.0,57365178,56106000,1001000,71560794,1
27025136,158953,3597024,84367,3590441,78303,92912,1216490,244286454,7220,27059070,1562,2749,183592179,129,1.84,0.67,0.65,0.03,0.0,65879980,65659000,0,79985381,1
388860632,412813,124806049,261241,125035568,262654,226363,4858432,1319098285,33524,389445736,5832,9145,1948009456,133,9.87,3.6,3.48,0.18,0.0,357180177,355645000,999000,371298521,1
25390846,139248,3596855,76704,3529559,69457,85875,962772,188709481,5455,25374716,1256,1611,124414354,134,1.42,0.55,0.54,0.03,0.0,51415743,51124000,0,65551110,1
27283123,135876,8329477,129704,8303001,139353,100221,857447,119348014,4268,27287972,890,893,167304180,128,0.91,0.35,0.35,0.02,0.0,32193797,30925000,997000,46541816,1
44685675,190774,3648597,94380,3644657,94092,102569,1502558,312425987,8081,44454544,1190,1941,213146490,136,2.38,0.92,0.89,0.04,0.0,84760752,82490000,1987000,98993328,1
25185577,156004,3569408,76277,3353443,68602,85290,978472,189711711,6113,25331060,1199,1620,123654781,132,1.41,0.54,0.52,0.03,0.0,51092355,49846000,996000,65178372,1
744731218,938681,346281732,2207722,345796471,2185155,210568,10506349,3148393023,78994,744712940,13466,23420,5753320034,133,23.42,8.94,8.64,0.43,0.0,849372304,846884000,1999000,863465906,1
34902485,152634,14668559,201923,14574942,146522,95026,862949,149556455,4056,34933517,568,1411,157378426,134,1.13,0.45,0.44,0.02,0.0,40030972,38774000,994000,54299114,1
32328526,134806,6853221,76964,6857271,79377,115000,1143194,200093554,6113,32390387,1114,2013,175562997,128,1.48,0.55,0.54,0.03,0.0,54399873,54125000,0,68563064,1
30567237,165989,4770984,202361,4667211,200636,98783,1342865,281932943,8188,30472219,1319,2388,76403420,127,2.11,0.81,0.78,0.04,0.0,76384216,74122000,2003000,90464523,1
27302346,137853,5507633,134576,5478597,127700,93155,801932,109598454,3335,27869328,397,756,130927608,132,0.87,0.32,0.31,0.02,0.0,29737670,28444000,1015000,43851915,1
721682231,485279,314316098,761647,314610829,750906,168451,5394117,1498320208,39038,724201726,5400,10415,2793599153,132,11.78,4.75,4.61,0.21,0.0,404188046,402883000,999000,418094537,1
31083519,96055,6867834,61671,6736802,57986,83570,788257,129744802,5152,30955956,846,1426,184639527,129,1.01,0.39,0.37,0.02,0.0,35487902,34161000,1004000,49585937,1
206688214,307014,61190941,166569,60331801,163166,112493,2822091,754593901,20769,205301933,3743,5767,1045830172,135,5.64,2.11,2.03,0.1,0.0,203741744,202390000,996000,217668065,1
24824267,139513,4698628,124709,4394745,121688,80244,588114,79817484,3226,25353968,768,1056,117849519,128,0.61,0.23,0.22,0.01,0.0,21912183,19671000,1967000,36065363,1
49616798,185580,6873938,86208,6867593,86141,108638,1417321,284531467,8834,49893317,1541,2396,334379819,133,2.13,0.82,0.79,0.04,0.0,76786508,74470000,1985000,90840133,1
37707246,125839,10589602,653554,10581440,658649,124494,1024222,153965315,4778,37968252,642,1258,146293879,134,1.2,0.45,0.43,0.02,0.0,43049830,42766000,0,57119225,1
46545195,220902,5331630,109164,5285821,107079,92949,1850620,439510114,12052,46217602,2150,3419,512764182,134,3.21,1.2,1.17,0.06,0.0,119307671,118977000,0,133585783,1
927892210,900997,484173961,3907153,484310470,3918617,264199,11673450,3426462960,87204,927757356,15891,24058,5332856992,134,25.49,9.39,9.05,0.47,0.0,928829185,927228000,1000000,943001652,1
20299741,115391,3444753,58252,3204382,50943,80511,613284,81334290,3254,20918704,803,1066,125271808,134,0.61,0.23,0.22,0.01,0.0,21938763,20687000,985000,35947131,1
34279829,104356,6802847,77043,6873705,76635,105859,1140462,205333826,6590,34266106,871,1381,179716572,137,1.57,0.59,0.57,0.03,0.0,56328973,55014000,1000000,70659991,1
22889912,132335,10018877,55979,10015057,59751,93394,832826,119821428,4414,22711153,934,1058,121585310,128,0.93,0.37,0.35,0.02,0.0,32469557,31196000,1006000,46353783,1
17500576,144391,2445752,54343,2232005,47025,86929,654993,75406312,3823,18077748,1001,1604,102332227,131,0.58,0.21,0.2,0.01,0.0,20412793,20172000,0,34473833,1
53862707,171749,23114722,93419,23094334,92799,101293,1341872,301110662,7865,54138075,1346,2451,355961229,133,2.32,0.92,0.88,0.04,0.0,81258162,80997000,0,95294425,1
48013117,162897,23044081,85548,22996972,86162,99445,1331562,269933146,8092,47979642,1008,1799,302506631,133,2.08,0.83,0.81,0.04,0.0,72871390,71543000,1007000,87053981,1
47649503,151844,15331875,82293,15378205,83591,99896,1284467,267746648,7864,48119571,830,1772,352748274,132,2.0,0.77,0.75,0.04,0.0,72392783,70108000,2003000,86548721,1
27384614,130942,6215804,59958,5770460,60041,92183,811520,111194225,3683,26706036,438,734,105974652,133,0.85,0.33,0.32,0.02,0.0,29912361,27675000,1976000,44124647,1
33946949,164545,6823395,77879,6765711,76556,92923,1197647,230292689,6815,34094002,1345,2032,241210950,136,1.73,0.65,0.63,0.03,0.0,62351403,60040000,2001000,76493665,1
20120199,147518,3463737,63380,3273083,63352,117897,847410,99366194,2512,19819471,360,688,97624414,132,0.74,0.28,0.27,0.01,0.0,26856815,25678000,987000,41017103,1
25326553,150687,3534869,83129,3521286,84423,103464,1290889,252270720,6911,25238942,986,1684,205856504,131,1.88,0.71,0.68,0.04,0.0,68569522,68288000,0,82610884,1
90598307,615123,22227105,216439,22473222,215967,562541,3618779,829363959,30411,89875882,19244,16183,261853605,4040,6.21,2.37,2.29,0.12,0.0,223770296,213458000,10021000,238024197,1
13640924,79467,2246616,49682,2344800,49890,91543,621445,59125505,3331,13356272,205,409,78943872,134,0.45,0.17,0.17,0.01,0.0,16306747,15116000,944000,30540780,1
30603679,125414,3560349,85277,3567637,84113,101104,1321083,257227509,7584,30508455,1144,1679,208653829,132,1.91,0.72,0.7,0.04,0.0,70128815,68816000,997000,84462660,1
184906788,258739,57698433,145039,57754938,144563,134821,2491662,620236391,16259,186130247,2414,4072,1072951112,129,4.57,1.72,1.66,0.09,0.0,167127874,165832000,998000,181218150,1
1114557577,562109,384116115,829376,384215675,838078,183099,6378126,1809290624,66640,1116278338,7087,12421,4252875653,132,14.49,5.94,5.77,0.25,0.0,488361868,487074000,1000000,502392264,1
39313969,147684,17265833,133234,17333002,146010,87090,1018751,179006331,6062,39858938,1130,1693,243826625,127,1.39,0.54,0.52,0.03,0.0,48515395,48210000,0,62915789,1
30617407,166880,5164018,82420,5223392,82507,128090,1213525,213717220,6276,30652790,828,1477,216228419,135,1.59,0.6,0.58,0.03,0.0,57547907,56258000,1004000,71688766,1
41165529,139552,10517086,94626,10517189,96041,117000,1400595,303500143,8542,41050284,1171,2504,397282525,134,2.3,0.88,0.85,0.04,0.0,82406405,81142000,1001000,96601841,1
1208043528,729816,582680390,1744893,582891872,1747864,265764,8790031,2556138720,64736,1209616890,10933,19117,3756504258,135,20.39,8.31,8.06,0.35,0.0,690933668,689434000,999000,705253629,1
33934990,156889,9328773,70105,9334066,70162,100714,880320,146606147,3589,34499730,868,1472,202035364,126,1.13,0.44,0.42,0.02,0.0,39461837,38222000,1005000,53661461,1
732121088,1500436,230112857,963449,230151695,971988,446405,19016201,5874366118,146011,732841496,20515,41984,1985094710,133,44.62,17.21,16.64,0.81,0.0,1584312451,1582620000,999000,1598518484,1
723489721,749989,225873934,454582,225788363,440749,275964,8444368,2472450788,60717,723669462,10411,16668,3805289090,133,18.33,6.85,6.61,0.34,0.0,667563722,666000000,1000000,681920129,1
25041503,156420,3522892,83095,3359497,77091,87051,1136639,234118057,7426,25383590,1257,2068,247713527,128,1.8,0.68,0.65,0.03,0.0,64303361,63054000,1000000,78460055,1
58503677,226811,7231644,119373,7228039,119512,103412,1842747,449079438,11382,58423884,2352,3576,128003351,137,3.34,1.25,1.21,0.06,0.0,122924262,121562000,996000,137165336,1
29808994,196826,6525344,150002,6617559,157995,107746,1506617,324726686,9435,29721004,1789,2341,79992140,128,2.42,0.93,0.9,0.05,0.0,88299657,86063000,2001000,102287841,1
56156677,514689,180651472,347801,180454761,350093,168385,5757836,1605971943,41137,55482711,6548,11794,1472017271,133,11.74,4.32,4.16,0.22,0.0,433918381,431568000,1998000,448148103,1
32793844,192436,7148681,78300,6959191,75680,108753,1021115,202584292,5202,32806566,767,1820,177160668,133,1.54,0.59,0.57,0.03,0.0,54499558,53082000,1001000,68612105,1
27275078,117730,8284903,126462,8197404,134224,93174,823731,119144995,4359,27349488,896,1340,165013705,136,0.94,0.37,0.35,0.02,0.0,32461962,32164000,0,46599087,1
23776281,165898,3498931,74245,3485521,69816,93928,982091,194078592,5092,23657116,1103,1740,171972516,135,1.46,0.57,0.55,0.03,0.0,52451984,51138000,1002000,66427905,1
35850718,165805,6766132,84596,6890976,86601,101768,1332528,271676848,8072,35788678,1226,1828,243439124,128,2.06,0.79,0.76,0.04,0.0,73714751,72398000,1005000,87970462,1
12853649,130786,5159377,51848,5155247,51854,94208,622395,51625072,1383,13531768,178,324,70930136,135,0.4,0.15,0.15,0.01,0.0,13709986,11571000,1928000,27861001,1
161526428,667585,62820677,109986,61017072,115354,683402,2795512,308384538,18395,154753713,10770,12113,525404395,3860,2.47,0.99,0.97,0.05,0.0,83187342,74924000,7991000,97379460,1
37535244,172153,10327327,84616,10339871,83822,101557,1295642,257679649,6325,37481758,994,1735,301397698,132,1.97,0.76,0.73,0.04,0.0,69410402,68153000,1002000,83782072,1
53688986,304698,4194535,166011,4109621,161409,116551,2839187,763840921,19482,53593155,3534,5620,148593254,133,5.91,2.24,2.17,0.11,0.0,205766323,203472000,1994000,219918386,1
46197163,133957,6782304,78044,6763119,79182,105793,1208186,227955468,7361,46397208,1334,2157,215028775,130,1.81,0.66,0.63,0.03,0.0,61797761,61616000,0,76090985,1
32329421,163736,6845204,72693,6836153,73107,98809,995651,200763253,4830,32290896,764,1810,174487984,129,1.49,0.57,0.55,0.03,0.0,54304801,53076000,1001000,68477326,1
918426310,2069198,271046621,1328065,270946143,1326380,698989,26273931,7877114476,194027,918509337,32980,57469,2164964058,326,59.6,22.76,22.0,1.09,0.0,2127718850,2123730000,2998000,2141934345,1
58649934,227427,10745847,161068,10911599,163187,119436,2827882,736798409,20233,58796253,3375,4902,185896327,133,5.61,2.14,2.07,0.1,0.0,199261030,197857000,999000,213414300,1
37553314,132079,10310024,84237,10309626,84859,99683,1287913,256211413,7246,37582773,1118,1741,303926580,132,2.03,0.76,0.73,0.04,0.0,69581269,68322000,1004000,83810074,1
35169556,100081,8458640,68428,8402812,68477,105651,1029028,172696299,6071,35262328,1207,1674,166448056,132,1.33,0.51,0.49,0.02,0.0,47259170,45986000,999000,61500341,1
30236980,152665,8939640,239157,8733076,203884,99347,809995,111302878,3166,30799971,481,731,153987480,128,0.85,0.32,0.32,0.02,0.0,29284739,28004000,1000000,43521151,1
194146442,487830,88424357,1643572,89563647,1541947,150671,1540212,289311362,9470,198373945,3031,3714,538998171,526,2.34,0.98,0.95,0.04,0.0,78721494,77414000,1005000,92901588,2
338239742,903090,160811659,1633423,156793524,1532156,257866,2977838,503605939,16388,342346635,5330,4703,1007776268,917,3.96,1.65,1.61,0.07,0.0,134061257,129616000,3988000,148418881,2
207154176,864819,160005706,1406359,158430152,1513215,210055,2634418,360260006,10125,208032117,3918,4622,675822277,917,2.9,1.21,1.17,0.05,0.0,97335856,95029000,2000000,111583355,2
627237473,1038069,305844321,1519220,299711939,1653064,431377,4713991,864245383,27725,612176549,12485,6676,1809588854,1301,7.07,2.93,2.85,0.12,0.0,233806448,228399000,5008000,248315567,2
332048918,775286,166507526,1444923,162569564,1447208,285464,3031696,411862138,19826,318194274,9512,3038,915874599,909,3.49,1.45,1.4,0.06,0.0,112180729,108856000,2996000,126487523,2
458354115,641583,243231928,1304818,244785882,1310307,216304,3286546,634898728,19931,455256572,19134,8786,1325447831,1004,5.31,2.19,2.13,0.09,0.0,171408947,167061000,4001000,185781258,2
451804116,519776,236909671,1299136,237477214,1278298,194373,3031889,616559272,17401,447147217,12683,4820,1305703407,520,5.11,2.02,1.97,0.09,0.0,171469583,171136000,0,185752489,2
321562490,549815,163555614,1482343,163677030,1454223,205201,2311817,410811828,13988,322010901,12261,4243,894716300,521,3.41,1.44,1.39,0.06,0.0,111391547,109121000,2002000,125329700,2
369353141,550518,181644101,1377245,179072972,1496562,200797,2735167,548366440,15472,365211888,3534,5035,1089046412,525,4.4,1.83,1.79,0.08,0.0,148184673,144841000,2996000,162375671,2
321212964,558846,163696158,1477366,163314576,1451993,226897,2468183,415725218,10896,319187450,12167,4379,893019510,518,3.44,1.44,1.41,0.06,0.0,112328049,110969000,999000,126461903,2
320461052,541063,163165388,1497208,163352996,1478072,209664,2331547,412283751,14045,323684981,11860,3105,894138071,518,3.44,1.44,1.39,0.06,0.0,111361468,108985000,1999000,125671077,2
446007661,539541,237331872,1705975,237599026,1691817,221282,3338979,681134191,21315,446130586,14526,6412,1270792580,521,5.49,2.28,2.23,0.1,0.0,184366084,181031000,3000000,198679217,2
463839743,565417,236498714,1426684,232588514,1618017,206888,2966075,617243982,16985,455942229,14063,4874,1340705485,521,5.06,2.13,2.07,0.09,0.0,167105371,163795000,2996000,181197241,2
329297135,581730,156656297,1680799,156681756,1534962,169211,2397490,497429914,14094,337412501,3072,4309,983784136,526,4.15,1.65,1.6,0.07,0.0,135030000,132786000,1996000,149271902,2
1911921296,1339156,717967361,2832644,719452765,2880799,275925,10173760,2915159837,183721,1913073873,24774,22945,4903398929,542,24.38,9.65,9.37,0.4,0.0,787881850,786311000,1000000,802037938,2
457681211,649488,243537654,1303089,244833110,1301687,240174,3335029,635801121,20330,454004075,18914,8904,1324585076,1003,5.26,2.19,2.13,0.09,0.0,171384477,169057000,2000000,185670687,2
688929725,6907336,367397831,2962111,370295907,2882873,1239757,11412842,1268026041,115342,688836898,25947,16302,2083131410,2869,10.39,4.2,4.08,0.19,0.0,342907489,336465000,6008000,357088710,2
321220963,573624,163736043,1496051,163301179,1487053,207307,2254520,418144900,14566,324809632,12558,3499,898135139,516,3.41,1.43,1.39,0.06,0.0,111043725,108727000,1995000,125279222,2
196338776,881229,89941087,1560420,90394558,1479677,242442,2017864,299413733,15178,203037021,2355,3114,547000307,915,2.43,1.02,0.99,0.04,0.0,80776969,77450000,3017000,95043544,2
192542768,523776,86633576,1635932,90877382,1519141,150099,1577120,291334056,8945,197865251,3354,3699,537268281,524,2.37,0.98,0.95,0.04,0.0,78522565,75264000,3010000,92717946,2
199046635,888527,88624301,1630809,90057442,1502747,232378,1980404,294377023,15731,204496747,2344,2602,549870006,917,2.38,0.99,0.96,0.04,0.0,79530751,77237000,2006000,93637397,2
334194156,911925,158304320,1653178,156965526,1519598,243258,2887475,500486180,14752,342246988,4009,4544,996016285,918,4.07,1.69,1.64,0.07,0.0,135304401,131973000,2999000,149424753,2
318690285,412826,168537801,1313601,166364016,1400561,213478,2496008,412593722,16823,315740723,11259,3125,878205602,518,3.39,1.35,1.3,0.06,0.0,115152771,111851000,2996000,129276527,2
804351442,1074707,293530638,1686119,295259443,1669345,260739,4632290,970795139,66177,806496475,15907,10833,1988749128,949,7.83,3.25,3.16,0.13,0.0,262106767,258735000,2996000,276360871,2
322336403,514051,163790347,1479295,162882117,1453853,202877,2382272,412533383,14969,321460353,12949,3028,900170728,518,3.47,1.42,1.38,0.06,0.0,111601328,111389000,0,125829478,2
192790122,531090,87597290,1609497,91611086,1497542,154477,1611934,292336770,8462,199915337,3676,3650,539102800,524,2.35,0.97,0.94,0.04,0.0,79024023,77691000,996000,93314938,2
317841531,883961,164392922,1495879,164667080,1474843,247516,2772047,413641925,11111,321647485,9592,5555,892927355,908,3.41,1.43,1.39,0.06,0.0,111990885,107637000,3986000,126049432,2
356188871,857260,171329544,1537065,164473994,1692036,273471,2940506,508297284,14102,352175588,5090,5039,1047067888,917,4.08,1.72,1.66,0.07,0.0,137492368,135077000,2001000,151713051,2
343959937,864338,168580104,1518413,166272862,1718019,285175,2872166,517354817,15769,342586035,11166,8762,1027952438,1010,4.37,1.73,1.67,0.07,0.0,138254731,132980000,4999000,152525038,2
343281126,862570,166079124,1585611,160191317,1683471,250974,2936984,504111699,14273,342930722,4569,4590,1016524590,916,4.07,1.69,1.63,0.07,0.0,136460189,135196000,1001000,150709767,2
455970250,632663,239001330,1360790,243392340,1280685,186784,3217512,634562208,20590,462088373,16460,8433,1315836030,1003,5.16,2.16,2.1,0.09,0.0,172471145,171112000,994000,186558445,2
455213094,1064405,240532446,1356801,245359845,1318210,285632,3755200,636518837,23414,460957896,22856,12333,1319053792,1907,5.28,2.19,2.12,0.09,0.0,172367884,168085000,4002000,186608913,2
329625189,574615,156651648,1706803,155263457,1568800,306324,2639025,505050500,15143,339745860,3544,4633,990885905,526,4.01,1.66,1.62,0.07,0.0,135753943,131315000,3979000,150038076,2
194459052,507355,89017588,1652203,89465546,1547879,158206,1606282,289749060,9578,198217230,3513,3722,540605508,527,2.46,0.97,0.95,0.04,0.0,78854532,76585000,2015000,92899191,2
467941718,669010,214031392,1846100,215820761,1753114,209747,3372489,722043228,18176,482081723,4151,5533,1389743438,528,5.8,2.36,2.29,0.1,0.0,194793821,192464000,2004000,208782542,2
735695295,8133239,394679501,3105330,395931815,3086384,2729430,15543115,1312437685,246844,738839161,23125,16918,2194634619,2666,10.79,4.35,4.2,0.21,0.0,354984349,347505000,6990000,369159425,2
318951684,553539,163134668,1458577,163269710,1508681,188702,2182264,410865033,12420,325529932,13338,3285,890659693,517,3.56,1.41,1.38,0.06,0.0,111037480,108723000,1994000,125220408,2
459772951,547426,235540100,1393683,231231134,1580605,191526,2964960,617510916,15450,452146019,12593,4935,1328653676,520,5.09,2.12,2.06,0.09,0.0,167026893,165771000,1004000,181047387,2
197074897,521001,88613624,1654904,90619529,1541277,162275,1604239,291471965,8863,201756021,3556,3661,543811053,524,2.35,0.98,0.95,0.04,0.0,78989915,77723000,1009000,92954720,2
194811733,548587,90830537,1457286,91203969,1507320,187037,1867904,298033458,8845,202483092,2269,3107,545361070,525,2.37,0.94,0.9,0.04,0.0,83191246,78920000,3995000,97358057,2
322374615,521757,163249419,1477568,162771290,1455597,192929,2359110,415262710,14695,322028406,10151,3359,897254972,519,3.47,1.45,1.4,0.06,0.0,112408089,109194000,2978000,126402417,2
530059029,566436,270221053,2420241,270676131,2412842,194304,3679439,917669346,23606,534699263,8233,7568,1599358239,332,7.45,3.02,2.93,0.13,0.0,249136614,247835000,999000,263334649,2
465755523,551102,241503188,1274906,239574737,1386156,196906,3056619,629355187,17051,458493646,13242,4555,1348909193,520,5.16,2.16,2.1,0.09,0.0,170688854,170356000,0,184779622,2
322462345,860290,164994244,1467048,164357351,1459565,242397,2833568,415982652,10830,318695933,12398,5863,898911965,910,3.48,1.44,1.39,0.06,0.0,112871407,107592000,4981000,127130551,2
453369767,1048512,240849825,1374081,246140417,1281020,280301,3827675,639027276,27922,460449150,19011,11795,1316023624,1905,5.27,2.2,2.14,0.09,0.0,172873883,170455000,2005000,187057554,2
326601580,882170,163629538,1456866,163033261,1493305,291288,3096652,419134262,13779,324478782,11890,3097,911523755,907,3.6,1.44,1.4,0.06,0.0,113932465,112558000,1004000,127964734,2
194247842,495142,88817611,1646733,89314937,1540603,147676,1569133,289263937,9447,198275733,4163,3763,537283295,527,2.46,0.97,0.94,0.04,0.0,78636416,76333000,2008000,92719683,2
192821102,535150,87871778,1622347,92017069,1470070,146222,1620630,292233202,8555,200519210,4341,3669,544273951,523,2.42,0.96,0.93,0.04,0.0,78840311,77523000,1006000,93043492,2
192653501,560498,87534988,1632677,90736550,1513291,164930,1635260,292927311,14638,200797558,3128,3609,535302744,524,2.39,0.99,0.95,0.04,0.0,79380588,76109000,3004000,93875540,2
695449505,7863970,376121959,2778747,373277124,2845309,2906180,16294967,1219766091,262428,693515792,25557,16320,2085257975,2668,9.85,3.98,3.86,0.19,0.0,330439860,327017000,3000000,344728094,2
458541767,674042,240995445,1283786,244134431,1295513,182005,3186722,629356623,20661,455926950,19559,8356,1323151608,1004,5.32,2.15,2.1,0.09,0.0,170408699,169114000,1000000,184361612,2
463547088,876441,236689340,1465184,230988998,1648262,330127,3556898,616327376,18307,454440957,12573,6185,1340475564,911,5.08,2.07,2.01,0.09,0.0,166241530,163919000,1999000,180248538,2
321470297,521777,163095782,1487246,162992726,1492888,212749,2289929,411711651,14914,324696754,13338,3083,893891115,517,3.43,1.42,1.38,0.06,0.0,110681370,109400000,1003000,124923817,2
469388019,888077,241564584,1407867,235101172,1554661,404244,4226777,624492377,18921,453436763,14792,4727,1352924088,911,5.21,2.13,2.06,0.09,0.0,167550054,163233000,4005000,181808601,2
459575723,579455,234535083,1447861,230634296,1650409,220652,2870643,615560746,16601,454560843,12068,5382,1331130521,520,5.08,2.1,2.04,0.09,0.0,166390398,163093000,3001000,180355576,2
492599671,912430,222322357,2452615,222112414,2334858,303034,3951704,768272611,20023,504324503,3728,5975,1452686020,915,6.29,2.51,2.44,0.11,0.0,208089889,206780000,998000,222489195,2
190437891,555555,86744293,1614506,90915184,1476639,148403,1632467,293031213,8498,198273310,4469,3764,540158301,525,2.33,0.94,0.92,0.04,0.0,78288987,77014000,1000000,92594406,2
457981008,592392,233786277,1500240,231983205,1662882,196264,2986829,619154055,47387,453394973,12649,4405,1327581248,519,5.1,2.12,2.05,0.09,0.0,167041349,166751000,0,181433379,2
323868845,549341,163628564,1482494,163807221,1486408,192387,2273440,412354474,12281,325155654,12862,3324,896826537,518,3.43,1.43,1.39,0.06,0.0,111568058,110207000,1001000,125772165,2
209162684,430835,114335888,1359201,112829733,1433765,187555,2070801,318662073,9735,200411973,3319,3683,632467852,521,2.63,1.09,1.06,0.04,0.0,86563504,85232000,1002000,100681621,2
330318548,786393,166603683,1454829,162748923,1456992,299523,3019665,412465125,20875,318944939,9234,3005,916219238,910,3.42,1.42,1.38,0.06,0.0,112279318,109995000,1999000,126575603,2
199306327,463956,89926665,1655722,88128178,1551300,165770,1621638,290875923,12657,202454414,2691,2529,551794811,523,2.36,0.98,0.96,0.04,0.0,79085019,77812000,997000,93357060,2
329292465,900074,159110207,1608167,158397638,1437665,283257,3165970,494540519,14690,339794715,2852,4925,987583575,916,3.95,1.61,1.56,0.07,0.0,133541076,131240000,2003000,147679204,2
451348901,1059624,237273260,1386613,242444203,1324591,282716,3772330,640689944,22468,461793890,26746,12465,1317138917,1906,5.51,2.18,2.12,0.09,0.0,172874580,169522000,3009000,187173376,2
327776787,565143,156023100,1640873,156649043,1496083,175528,2414368,496257789,14449,337690734,3343,4041,982590189,526,3.98,1.64,1.58,0.07,0.0,134057643,131775000,1996000,148178270,2
319592087,556948,163468784,1493571,163698478,1463452,247872,2361517,409418479,11019,321218891,12356,4404,894615807,525,3.42,1.42,1.39,0.06,0.0,111203747,109736000,997000,125483856,2
321847835,530281,163095818,1485776,163251248,1458877,210261,2402320,412420911,14803,323194878,12998,3343,897600985,519,3.42,1.43,1.39,0.06,0.0,111409938,109095000,2001000,125598786,2
685129727,6973759,360039310,2905454,360430735,2845744,1263790,11662370,1249091201,115567,689776543,21451,14962,2082286944,2870,10.35,4.06,3.94,0.19,0.0,337549530,332186000,5002000,351984852,2
354537768,1169804,179083534,1377056,181417219,1290116,461456,3703907,555884985,21912,355772268,16600,13123,1055475301,3086,4.5,1.84,1.79,0.08,0.0,149576328,144264000,5009000,164017209,2
810490429,6905432,418200197,3709496,417769317,3595570,1119641,12157589,1442741850,117310,818243516,21155,16984,2452451245,2869,11.81,4.76,4.62,0.21,0.0,389983138,383650000,5994000,404367481,2
323740759,528146,163756693,1456026,163086254,1444964,209499,2430342,414088109,19637,322823565,13363,3070,903638746,518,3.54,1.42,1.37,0.06,0.0,112255874,110886000,998000,126361330,2
464917560,839365,240256906,1306209,234673526,1404178,388901,3808626,625473382,18226,452578183,12164,4828,1343595957,908,5.15,2.16,2.1,0.09,0.0,169766033,168337000,1002000,184060563,2
494733832,6687581,262318099,2701294,262123406,2727309,1040038,10181130,939465230,103681,501005922,20114,17949,1500918166,2674,7.42,3.03,2.94,0.14,0.0,254255304,248030000,6000000,268540598,2
361673714,1056632,173167219,1735055,172001912,1618497,303293,3249125,549748759,19577,368118815,11049,10352,1078651223,1913,4.63,1.82,1.77,0.08,0.0,149080665,144786000,3994000,163428650,2
325827920,583448,155613061,1627222,157694965,1475558,175273,2505814,494218308,13733,337063601,3190,4097,978150987,529,4.02,1.68,1.62,0.07,0.0,134115283,132737000,998000,148351247,2
316583383,563856,163852666,1449084,164267525,1506695,170837,2132332,408787925,10310,322895356,12116,4670,889103519,520,3.36,1.37,1.34,0.06,0.0,110887605,109566000,1005000,125139907,2
322024769,860089,164139791,1491408,163667691,1464871,272240,2958274,416728258,11497,320868743,9890,5573,894719367,908,3.5,1.46,1.42,0.06,0.0,112538183,110230000,2004000,126861350,2
199021089,522034,86979243,1619668,90871572,1525112,166634,1630521,291821341,11557,205403922,2593,2621,548738117,523,2.37,0.97,0.94,0.04,0.0,79152321,77882000,998000,93369022,2
870253664,1683467,359418613,3438343,359116155,3429578,224390,7745083,1413306912,45181,870603776,11334,13242,2636264532,1009,11.59,4.75,4.62,0.2,0.0,381907345,379591000,2003000,396040489,2
759933215,774194,357460093,2504290,357620950,2416995,226611,4763318,1168565965,30028,766272271,21671,19981,2216397432,529,9.51,3.9,3.79,0.16,0.0,316252087,313880000,1999000,330360700,2
502804948,5292737,286133304,2917248,285857903,2915681,2628096,14950459,1067856229,345742,501286345,37008,14026,1558726098,4168,8.81,3.48,3.38,0.18,0.0,288810461,278530000,10019000,303192792,3
434220249,5136418,248689871,2645943,244872192,2675136,1691314,13412154,910041471,204432,421391731,23146,10214,1319143778,2873,7.47,2.92,2.83,0.15,0.0,246095302,239837000,5995000,260196861,3
440744177,5147244,252871590,2657854,253590748,2687878,1570948,13286951,932222659,184689,444241224,22762,9203,1368363008,2481,7.86,3.06,2.96,0.15,0.0,252360402,249053000,3000000,266561835,3
439441357,5122967,252905306,2638707,253517699,2671191,1578624,13047325,936561641,180077,444246260,20954,9369,1369665174,2479,7.83,3.07,2.99,0.15,0.0,253496596,249151000,4002000,267743159,3
439446631,5188505,253659563,2647617,254474624,2677634,1595456,13129940,936018515,187679,443863888,20993,10234,1366624328,2480,7.82,3.06,2.96,0.15,0.0,252331209,247067000,5001000,266340831,3
492044436,5285708,285549959,3103007,288330700,3105506,1946941,15252029,1422330846,409147,487452908,25665,635283,1526104344,2674,11.81,4.44,4.29,0.22,0.0,384493169,315093000,69020000,398887157,3
688175895,5305275,397715564,3368088,397984961,3379705,1688212,15841470,1632982367,418413,689168611,566823,622014,2103569686,2473,13.65,5.24,5.09,0.25,0.0,442094178,369820000,71965000,456340902,3
630596384,5450152,362454925,2917952,367257707,2913087,1827223,14620463,1155294105,187726,640016300,29156,11592,1889052255,2668,9.66,3.84,3.72,0.18,0.0,309676925,304263000,5004000,323892487,3
695665022,5368053,407077164,3424660,408666587,3452026,1746883,15676194,1658147950,409257,701075661,253887,612073,2130535756,2473,13.93,5.37,5.21,0.25,0.0,446599960,383436000,62907000,460935623,3
768778103,9413065,428813349,5891659,428628595,5894207,5913577,28693416,2218694858,934269,775617431,334063,816172,2415305039,5017,18.21,7.03,6.82,0.37,0.0,600077980,516768000,82962000,614299589,3
874073366,9101027,498605988,5812749,497738761,5793256,5428562,26272445,2250674709,915874,878582952,265610,632369,2681647611,4820,18.74,7.2,6.96,0.37,0.0,607856868,538580000,68946000,622060158,3
435760456,5074128,246380290,2672431,244344759,2690011,1672351,13401861,913039302,202330,427577400,19621,13996,1328259495,2480,7.73,2.98,2.89,0.15,0.0,246372234,241047000,5000000,260578083,3
503789635,5285298,302492793,2662258,307514382,2644428,1633396,13319696,928741776,215649,505555777,23934,15355,1518037205,2864,7.99,3.15,3.05,0.15,0.0,251151933,246809000,3996000,265201985,3
706055023,5498155,409131178,3399366,408954585,3399074,1805202,16892524,1678038659,419135,706809901,284480,612050,2149338581,2473,13.84,5.42,5.25,0.26,0.0,455931011,388439000,67075000,470026731,3
703149046,5357856,407013957,3586605,406468602,3574943,1818437,16221288,1676457411,408642,706159203,638489,620259,2137640730,2472,13.68,5.44,5.28,0.25,0.0,453887451,392460000,61071000,467966933,3
630829665,5209838,363821277,2875092,363537113,2882437,1686674,14205869,1117059169,215861,617610290,24777,11922,1877415502,2669,9.53,3.78,3.66,0.17,0.0,302158789,294849000,6996000,316146249,3
436157556,5233237,249102458,2614352,253783462,2649955,1645025,13357008,934839099,183838,437235200,27028,10050,1340645704,2869,7.68,3.06,2.98,0.15,0.0,253247545,247877000,4997000,267448543,3
451769831,5350895,258106858,2699889,258067044,2680207,1748908,13521552,968698342,189249,456998761,26063,98448,1414602434,3262,8.19,3.15,3.05,0.16,0.0,265057622,257766000,7020000,279263436,3
733774791,5879326,417516619,3019842,415146731,3040055,1880321,16666298,1293582118,200604,733724512,28879,15918,2183527487,2866,11.05,4.44,4.31,0.2,0.0,349371124,343102000,6001000,363580916,3
436298378,5125039,250375277,2665157,250292564,2697050,1584498,13097873,923333082,204689,432227212,19201,15154,1341831398,2480,7.73,3.01,2.93,0.15,0.0,249371132,245948000,2999000,263607209,3
752786982,5597061,430073242,3647119,431500071,3642439,1788253,16828671,1772132325,392976,769844560,56638,617752,2316539984,2669,14.8,5.83,5.66,0.27,0.0,477698142,416344000,61050000,491987565,3
445633058,5239038,255286887,2615317,257800842,2634577,1774791,13605026,941009821,181612,447972024,19050,11176,1388380022,2871,7.98,3.11,3.03,0.15,0.0,254468041,243089000,11004000,268576474,3
716794313,5406535,416795081,3370922,420622831,3360351,1866990,16136555,1682291610,420106,714372219,54769,631559,2168700340,2865,13.81,5.51,5.34,0.25,0.0,455415617,384151000,71027000,469464143,3
492759489,5192840,283705223,3120534,283867717,3143796,1780405,15181384,1419003772,402036,494569272,327807,630818,1545227187,2479,11.78,4.52,4.38,0.21,0.0,383832304,315599000,67913000,397983282,3
795813384,5444488,442918412,3131967,443091902,3159800,1919992,15550438,1558035640,197812,798983865,30703,14834,2429131779,3263,13.11,5.1,4.95,0.24,0.0,422747035,416375000,5991000,437011383,3
714488024,5512591,412322346,3414430,413196918,3434614,2114531,17116085,1696957238,421380,716368098,241766,612275,2170440966,2863,14.08,5.44,5.27,0.26,0.0,457001449,388662000,67941000,471401765,3
439617096,5206079,252658874,2648856,253548987,2680327,1585663,13249794,934512099,182686,444857880,21873,9468,1369608044,2480,7.72,3.08,2.99,0.15,0.0,253043358,245656000,6990000,267417805,3
1049887529,5478513,593624249,3882746,593232716,3893813,1804249,18021637,2246077307,428875,1052745301,105736,626749,3196830985,2475,18.79,7.45,7.24,0.33,0.0,607260537,531873000,74982000,621634833,3
765327508,5874398,448768309,3482952,449087202,3493818,1960973,18411412,1779238953,411798,767651982,408028,633802,2329339797,2474,14.8,5.85,5.67,0.27,0.0,482194558,419924000,61988000,496375365,3
738659059,5396706,409137793,3076364,406031181,3110136,2150164,15740888,1423709707,213912,731363366,20849,17933,2255324769,3266,11.82,4.65,4.5,0.22,0.0,383912931,375507000,7989000,398185737,3
674760617,5300451,391898193,3363316,391749028,3379916,1830394,16059559,1629552489,411324,678859695,303071,627340,2053040990,2474,13.6,5.32,5.16,0.24,0.0,440129189,359894000,79976000,454093211,3
439609198,5146241,253033085,2653133,253929148,2682285,1608617,13055400,933552125,185270,443781519,20926,10302,1366844723,2481,7.8,3.08,2.99,0.15,0.0,252871837,245464000,7013000,266923698,3
440692396,5132940,252558820,2634072,253452660,2662748,1590907,13248883,932586182,184900,444685956,21870,11553,1367303601,2481,7.85,3.1,3.0,0.15,0.0,252331300,248895000,3010000,266465332,3
701065140,5467148,408194679,3363176,411771924,3353138,1658668,15604799,1651495606,413949,697862429,393362,614099,2128608343,2863,13.8,5.38,5.23,0.25,0.0,447216638,382912000,63985000,461425368,3
702165871,5368267,408175676,3841940,407921595,3828741,1811310,16064096,1690688491,419036,703481584,191082,619431,2133649922,2475,14.09,5.47,5.3,0.26,0.0,456287389,388025000,68004000,470466232,3
512909722,5667944,284543496,2797467,282722326,2789216,1941979,15541680,1054143358,186820,513223729,22320,19778,1557780843,2481,8.89,3.51,3.4,0.17,0.0,285025702,280657000,4009000,299131104,3
422394453,5111012,243405570,2655500,244342371,2671446,1752187,13128425,920216014,211528,415197474,20939,10353,1296337374,2480,7.61,3.01,2.92,0.15,0.0,248434478,242087000,6002000,262544041,3
442429047,5138222,253467755,2661303,254321313,2684556,1592632,12963821,934912254,182639,448172825,19807,9419,1385901958,2479,7.96,3.1,3.01,0.15,0.0,252422747,242141000,10005000,266592652,3
1270676685,9819405,712924567,6530932,713732875,6539993,6234179,30072995,2970207064,1041811,1274616915,110128,631960,3889172106,5988,24.82,9.71,9.42,0.48,0.0,802605485,734232000,68021000,816922264,3
423883432,5058774,243575002,2633317,242711885,2650992,1613119,13317764,914939353,209373,416780135,22563,10078,1302804865,2479,7.81,3.03,2.94,0.15,0.0,246624766,242353000,4005000,260516385,3
694153307,5341530,402745957,3355152,404160898,3387956,1595136,15850949,1647565096,420435,696377097,249281,615084,2100472746,2474,13.66,5.38,5.23,0.25,0.0,444642790,376354000,68064000,458899394,3
493293534,5180708,283869659,3124597,284133473,3155136,1756000,15195946,1432596116,408590,495019446,389916,624648,1549235176,2478,11.86,4.56,4.43,0.22,0.0,386209593,323827000,61966000,400421911,3
444630134,5101745,252087629,2629130,250881053,2656208,1640996,13195513,937885698,174484,449259613,19673,9687,1383351430,2477,7.72,3.11,3.01,0.15,0.0,253715026,249398000,4006000,267936828,3
487421857,5205032,279488373,3117148,280136762,3148469,1763849,14914196,1417720040,394957,490385995,455399,632789,1539733695,2480,11.8,4.57,4.44,0.21,0.0,382482747,321273000,60862000,396869724,3
1319595356,7381461,634003945,3661991,631488102,3671886,3120117,21592560,2101988112,486548,1312816880,35731,25391,3821151455,4037,17.97,7.16,6.96,0.32,0.0,566874225,557518000,8992000,580994006,3
620691016,5810735,338763461,2871903,346390068,2857123,2003702,14843268,1253137029,190749,632204801,42350,12261,1901736366,4433,10.4,4.16,4.03,0.2,0.0,338095414,332803000,4997000,352241229,3
434378836,4990120,246394088,2664026,244734202,2689568,1616450,13130024,916897427,207341,427465028,18753,9792,1348753609,2479,7.6,3.04,2.95,0.15,0.0,247361036,240066000,7001000,261600434,3
440288890,5223747,252791248,2635402,254168753,2663442,1708223,13424197,940412789,184716,445975395,17778,15205,1371844500,2481,7.86,3.09,3.01,0.15,0.0,253738307,247310000,5983000,267975375,3
714213487,5435595,412272411,3367427,412011223,3379689,1801308,16611449,1685386776,420801,717204922,431464,618987,2178134357,2669,14.35,5.47,5.31,0.25,0.0,455487075,381067000,74013000,469660511,3
412042941,5233626,243555076,3149141,243496910,3142013,2518964,15075631,1330306123,547468,414400405,175564,618315,1332393445,3259,11.32,4.22,4.1,0.21,0.0,359182981,274728000,83916000,373419933,3
703644866,5457791,406017070,3380189,406439699,3379027,1741820,15867124,1661344942,399866,709542333,279261,611498,2137309393,2861,13.97,5.44,5.29,0.25,0.0,449432979,375996000,72999000,463671052,3
501176835,5455077,279947720,3410412,280729896,3444582,1781829,16009479,1432401022,415638,502509136,333466,616035,1571095547,2478,11.69,4.56,4.42,0.22,0.0,387963295,323631000,63927000,402284070,3
448181594,5054925,256584906,2633615,256482272,2651664,1743049,13149658,944693646,186336,449997476,21764,14501,1392918206,2479,8.16,3.15,3.06,0.15,0.0,255244011,251772000,3009000,269402455,3
422631652,5048985,238461130,2647778,236194812,2658654,1713166,13496961,899516004,189718,420638903,18842,14388,1310736346,2482,7.5,3.0,2.91,0.14,0.0,243961048,237618000,5990000,258186492,3
425265582,5168749,244564347,2717424,248640983,2704384,1573154,13096588,923221121,198226,423411562,20908,14657,1301368432,2677,7.67,3.06,2.98,0.15,0.0,250257378,244795000,4995000,264692239,3
444848376,5139906,248909274,2689303,248884078,2725284,2024514,13394135,941325614,178221,447790575,18989,16217,1378163430,3260,7.79,3.05,2.96,0.15,0.0,253542074,247001000,6000000,267773933,3
500481621,5257125,290906514,3063745,288271990,3096924,1906563,15187839,1421361344,409014,491834907,47881,630692,1558919951,2868,11.63,4.49,4.35,0.22,0.0,383656531,318374000,64872000,397994449,3
688765275,5471582,400932124,3360285,401728095,3362740,1653181,15829983,1651117219,417234,692853557,228382,603037,2099077348,2475,13.83,5.43,5.26,0.25,0.0,445398193,379009000,66001000,459734233,3
442042324,5176102,253896124,2628690,254125764,2655446,1564178,13451319,932466233,180902,445965011,18487,10866,1377976682,2479,7.92,3.11,3.02,0.15,0.0,252709623,244418000,7981000,267036161,3
958510282,5517142,525407888,3651926,526172470,3642577,2704252,16886549,1880476346,329021,966361152,32960,18286,2945461242,3261,15.96,6.27,6.1,0.29,0.0,508043410,504514000,2997000,522344800,3
441728023,5158566,253279251,2639288,252577480,2673361,1632042,13282689,942495691,176572,445995621,16487,9693,1374099331,2481,8.04,3.14,3.05,0.15,0.0,254976717,251639000,2995000,269283497,3
492947922,5216001,283945158,3134809,284281802,3163927,1861595,15093205,1422772010,400511,494629131,81472,630019,1545737716,2478,11.62,4.53,4.39,0.22,0.0,384588228,310177000,74042000,398704692,3
698800765,5408372,405458991,3346343,407073998,3359777,1548685,15695408,1655733254,405483,705874968,388562,610108,2124770203,2472,13.95,5.47,5.3,0.25,0.0,447964691,391439000,56062000,462098814,3
696590839,5405810,406823506,3423836,406558896,3424832,1891494,16407692,1672545430,410255,701213724,606354,624814,2134711155,2475,13.94,5.53,5.37,0.25,0.0,453722158,392437000,60912000,467973476,3
439150228,5179873,253395582,2645490,254216795,2675204,1523979,13286474,929288381,191145,442128577,18134,13415,1365253898,2479,7.71,3.07,2.98,0.15,0.0,251248866,244895000,5997000,265347306,3
698781846,5454737,405578170,3363216,406855106,3382900,1683484,16042460,1657616790,399982,705911013,461835,614973,2126619873,2473,13.81,5.47,5.31,0.25,0.0,449821207,377566000,71917000,464223597,3
443328457,5246717,252940775,2624194,253894135,2654110,1752447,13391754,936540591,186477,445043977,18918,14612,1362790342,2871,7.69,3.07,2.97,0.15,0.0,253089532,246716000,5993000,267475792,3
411690868,5245909,254618128,2664175,257616581,2660341,1526420,13081757,933034007,185956,417052837,17746,9526,1364398480,2475,7.77,3.12,3.03,0.15,0.0,252441956,247150000,5003000,266761081,3
492272678,5135983,283262686,3131205,283819915,3158080,1733866,14797857,1417213788,396535,495240177,149000,631109,1543999805,2479,11.8,4.53,4.39,0.21,0.0,382691226,313395000,68867000,396986124,3
355977019,5208248,212555030,2885706,213271729,2917650,1514701,13981346,1187389466,392511,360023509,71040,609395,1148311173,2477,9.81,3.78,3.67,0.18,0.0,321706914,251483000,69856000,336086525,3
660937168,5259829,383724201,2906183,384762970,2903536,1875197,14422655,1169461213,213074,654036666,29836,13216,1983936457,2929,10.04,4.0,3.88,0.18,0.0,316489019,309054000,7001000,330758262,3
719219119,5458895,416813630,3367025,420060186,3372500,1839119,16724142,1678760170,419980,721591355,33923,634229,2188019700,2680,13.95,5.5,5.34,0.25,0.0,455188590,394825000,59973000,469595040,3
782738533,5954096,450124436,3504742,450149447,3504046,2032200,18434745,1789348824,415361,782222840,301575,632285,2360084705,2475,15.03,5.96,5.79,0.27,0.0,482855661,401478000,80894000,497213670,3
437563850,5185162,250229793,2647244,250989181,2676370,1584569,13335414,932242774,185992,441048917,20662,13941,1360722047,2480,7.81,3.07,2.97,0.15,0.0,251673099,246320000,5006000,265822580,3
493550201,5186819,283663038,3133912,283777245,3167146,1772729,15213729,1423641125,406168,495066049,60775,623075,1548084297,2478,11.67,4.5,4.37,0.22,0.0,384348059,321942000,61989000,398820097,3
428110518,5150019,243307275,2649313,241922771,2670229,1677816,13634758,906024712,207523,419851873,21963,14544,1308360470,2478,7.66,2.97,2.89,0.15,0.0,245815275,240463000,5009000,260051747,3
417591513,4607343,236693407,2535713,236226932,2554749,1284589,11777932,849596374,117436,414916716,15065,10067,1281360135,2479,7.01,2.84,2.76,0.13,0.0,229322544,221933000,6997000,243464940,3
690604716,7260748,403525375,3400330,405132848,3419281,1721348,16122020,1664345912,404645,697708015,747451,212618,2129122003,2475,13.98,5.42,5.25,0.25,0.0,449493386,380106000,69019000,463693114,3
434766329,5209027,249815396,2672202,251257376,2700929,1665834,13378495,931284261,191161,438795550,18434,16541,1362329691,2480,7.77,3.08,3.0,0.15,0.0,252028902,244555000,6987000,266187331,3
506779369,5694361,293151682,3053054,293704409,3044514,1458407,14550387,1449348836,398317,510561531,168608,602615,1602261988,2478,12.15,4.68,4.53,0.22,0.0,391591984,330366000,60883000,405887435,3
360450926,6037047,192154813,901252,191833074,898795,6729829,16530493,880298708,639933,365446465,52922,21747,1120291983,7555,7.24,2.74,2.65,0.2,0.0,238011026,224639000,12979000,252154201,4
317000277,5724140,173921341,878424,171332272,849353,6772211,15572419,798304898,654928,308621696,45291,23549,984853143,7555,6.42,2.43,2.35,0.18,0.0,217337022,204933000,11996000,231642181,4
454811530,7798694,241459797,950134,240495157,968405,9484574,21456245,1125608598,868769,454651007,52765,39602,1410039082,9822,9.26,3.47,3.34,0.26,0.0,305350668,284855000,19989000,319589181,4
508044981,6615830,276495005,816349,278076055,816843,6680404,18688679,1178807851,653712,503831918,81807,26820,1593526255,9501,9.46,3.73,3.6,0.24,0.0,318364311,296863000,20990000,332571854,4
522065803,5606758,297422666,927886,297923252,924265,5375522,15872767,982153438,564364,515343462,75891,25158,1546577820,8723,8.3,3.2,3.1,0.2,0.0,265143201,250718000,13984000,279429088,4
306213043,7058218,166103444,835909,164119946,859462,6853844,18520891,798921295,685306,308644816,37147,13515,965402563,7017,6.6,2.44,2.35,0.19,0.0,216164432,200797000,14984000,230679953,4
741174291,9218550,413129934,1536947,416613484,1502551,10921846,26115094,1695942321,1200795,742180130,49536,28228,2240487576,10038,13.67,5.34,5.17,0.35,0.0,457326158,444762000,11993000,471795897,4
447894576,7023677,238370438,943338,239464657,957715,8145191,20241065,1076535529,769916,438644670,88220,36020,1380655464,8588,8.67,3.37,3.25,0.24,0.0,290685189,272191000,18012000,304909157,4
677429580,5960185,351932066,1224230,352042457,1220156,5459422,16093525,1240002239,646371,674342908,61011,25131,1987542737,9125,10.34,4.06,3.93,0.24,0.0,335649697,314189000,21012000,349934916,4
637218697,9184786,352841051,1360382,354054161,1366048,10566732,26242888,1361883302,1203303,630518777,88433,25396,1906384763,7766,11.12,4.38,4.23,0.3,0.0,367232925,353769000,12991000,381369092,4
490947010,5344625,248529968,810976,247542941,802973,5281448,15046782,1007608722,494352,484489062,58674,43001,1497867314,8818,8.38,3.26,3.15,0.21,0.0,272292776,258985000,12999000,286567460,4
338125508,7333589,182110893,868824,181363012,875798,9085163,20850924,879270006,755155,337813929,58068,19456,1043342761,10439,7.08,2.71,2.61,0.22,0.0,237903774,215469000,22047000,252123488,4
363364950,4460589,188693674,758222,188102955,768578,4601122,13836957,836777615,641267,360569129,21332,16395,1108801692,3262,6.95,2.58,2.49,0.17,0.0,226119175,220668000,5015000,240389111,4
575664968,6697870,328243337,1136318,329713441,1150408,7676053,18621008,1145239573,654691,577244867,66309,23710,1742121114,12236,9.44,3.7,3.58,0.24,0.0,309081922,282735000,25975000,323331116,4
372559570,4893582,190511891,731392,188856377,722582,5245298,15526186,833910661,668639,363587911,25377,11738,1122956586,3064,6.68,2.58,2.5,0.18,0.0,226313563,220797000,4995000,240648247,4
412666002,4695919,219591257,750705,216418922,742301,5076088,13820203,878668136,483864,407533320,50555,39925,1280656228,7579,7.23,2.8,2.72,0.18,0.0,237465539,219193000,17934000,251630065,4
322175944,5998946,176303690,923420,175768402,937103,7051886,16929069,800136035,663005,317745479,52461,31743,1006362210,6777,6.48,2.5,2.42,0.18,0.0,215996792,201664000,14046000,230278919,4
469032381,4466724,245883766,767006,244721798,761615,4865996,13030144,967916351,466691,465564627,46652,26533,1443789544,7805,8.05,3.13,3.04,0.19,0.0,261643673,237295000,24029000,276072422,4
373522173,6864077,195266994,922245,192117195,959523,9117217,19066660,916520162,724106,374341780,60170,23977,1162903146,9509,7.43,2.87,2.77,0.22,0.0,247906232,229387000,18030000,262103050,4
379696808,5308684,198180224,750250,196699613,753821,6246743,16321000,919906507,874345,369037229,27439,16516,1149676204,4432,7.36,2.83,2.74,0.2,0.0,249169233,244903000,3982000,263406923,4
580050907,5018724,316496706,1029062,317712677,1022554,5206393,15748970,1100671281,727874,575294563,31055,14530,1704368952,3257,9.06,3.55,3.45,0.21,0.0,297003000,291643000,4993000,311362365,4
620963477,4867629,333260007,974989,332018444,962600,4917337,16235092,1126694471,672600,614639073,31491,23059,1811739713,3256,9.38,3.64,3.52,0.21,0.0,303243738,295883000,6997000,317820218,4
912489714,21571618,488103288,7624648,490417821,7572816,17329422,54241573,2667901604,2554171,921028604,62442,33311,2831911353,12391,21.83,8.31,8.05,0.54,0.0,720179391,698581000,21017000,734537613,4
444654961,5339745,233270897,784825,230605549,781910,5981657,15340895,973679652,512128,436389656,54655,22835,1381428847,9852,7.86,3.05,2.95,0.2,0.0,262706261,240337000,22030000,276920533,4
408363805,6835088,215244284,973019,214905142,962917,7117851,17150018,993364663,667920,409525489,65628,19770,1275246942,9131,8.17,3.05,2.95,0.22,0.0,266717801,250164000,16010000,281037134,4
521873797,5530367,293122654,1276104,292899456,1266788,6239067,16190074,958647602,524551,521921755,34556,24696,1547585484,7965,7.99,3.11,3.01,0.2,0.0,258792114,236401000,22037000,273136745,4
330033460,6973007,177931402,902746,179796445,903541,8635339,18866601,858567295,722531,333876648,52222,21285,1027428601,8729,6.99,2.64,2.55,0.21,0.0,232443053,217245000,14948000,246668074,4
542920059,5966533,290734520,800330,288915521,804265,7446662,17479915,1173188870,662462,529606890,79131,32272,1690966460,9922,9.6,3.72,3.6,0.25,0.0,316619364,293274000,23021000,330944989,4
592543266,4941575,323626795,1007428,321385244,1004402,4955853,16151796,1066560572,664936,580333116,26488,20986,1735229605,3058,8.85,3.45,3.34,0.21,0.0,287771174,280306000,7007000,302043828,4
443372079,4701696,234959504,768386,233791977,762342,5271455,13630473,952103261,467175,438837701,69735,32719,1370947103,8421,7.78,3.02,2.92,0.2,0.0,257790614,244495000,12973000,271961875,4
423726227,4176742,218921929,1016648,217818042,1009627,4301935,13809093,952193675,590892,421712370,23514,19503,1287647089,2869,7.73,2.98,2.88,0.18,0.0,258422448,255102000,3001000,272707421,4
506477517,4719939,288636381,925549,287514226,919165,4744562,13805286,893139959,481099,496504051,40816,23540,1501846547,6338,7.47,2.91,2.82,0.18,0.0,242757805,228479000,13968000,256865166,4
535917845,9481104,287100262,1229565,288535101,1223747,10816295,27163827,1535519400,1262897,539917755,55918,26390,1678442832,9458,12.28,4.64,4.49,0.33,0.0,414189005,396830000,16992000,428297139,4
1264142467,18319272,574106726,1403011,571472405,1439008,20441048,47191106,2438455210,1211870,1389442898,147064,85804,3952313869,36525,19.99,8.01,7.73,0.54,0.0,657170238,588802000,67977000,671368230,4
498996101,7547626,235031413,985262,234684108,976143,7180745,18664779,1135859025,874288,503776705,66984,17292,1518044525,9179,9.16,3.49,3.38,0.24,0.0,308082349,290742000,17043000,322211004,4
511505460,5153003,290815593,921965,286932730,912457,5025800,14715353,895388202,479095,496602680,54217,14571,1513757441,6337,7.66,2.95,2.86,0.18,0.0,242169482,228858000,12991000,256437089,4
697935810,4477059,357403933,1339267,356038808,1334135,4031331,14369885,1256105884,597916,692895976,31724,36160,2017166146,2872,10.52,4.04,3.92,0.22,0.0,340597300,337270000,3002000,354925639,4
370216991,6762545,191114833,2240473,190715101,2255005,7686801,18165366,935390542,698294,381215659,42131,13114,1128169715,7165,7.58,2.89,2.79,0.21,0.0,252398685,238885000,12993000,266538847,4
284602760,4983394,156949784,650487,157084370,654881,4536324,13662329,670138024,468121,289609656,38901,17866,895997678,6831,5.5,2.1,2.04,0.15,0.0,180649921,173333000,7013000,194882132,4
317466113,6733390,165317204,712728,161777967,712037,8453237,18726715,819827886,1044691,318800557,53013,13617,1001869588,7515,6.72,2.46,2.38,0.2,0.0,221192291,205875000,14990000,235444167,4
455172640,7020152,240052514,974982,241315987,971419,7541847,20165269,1071702455,673861,461179372,55547,36674,1412065055,8195,8.82,3.34,3.23,0.24,0.0,289819567,277424000,12018000,304101126,4
698088609,4442715,352682782,1100591,352888477,1090267,4088752,14381018,1232295364,618669,695610471,29143,98803,2029620428,2869,10.4,4.02,3.91,0.22,0.0,332351603,324055000,8001000,346597647,4
321920447,6879436,176074776,880404,177694287,883280,8246261,17834182,841233367,741440,319623380,76145,22960,992544555,9119,6.83,2.56,2.47,0.2,0.0,228519497,210229000,17934000,242834524,4
917784547,13821236,415944554,1722338,415272185,1730866,15435336,36349370,2007740015,1267000,911822544,63331,34838,2741786144,12326,16.33,6.34,6.12,0.46,0.0,542228449,511855000,29991000,556614131,4
313723826,4683400,171560205,730104,172598935,723155,4641983,12543572,726001440,450757,317704381,32815,20585,979829305,7805,6.12,2.3,2.23,0.16,0.0,195815583,177540000,17953000,209998172,4
309401548,5885841,168037235,852532,166413146,802941,6522388,15457176,789740290,632073,306966217,57494,26749,960711032,7558,6.42,2.44,2.36,0.18,0.0,212612175,199286000,13018000,227064726,4
306487535,6380272,167126562,825160,166058913,826307,6799171,17193113,787171183,663579,311119827,46032,13910,956305166,7166,6.35,2.42,2.34,0.18,0.0,212999536,200696000,11981000,227365940,4
532042285,4651641,298274130,975860,294897505,947916,4719525,13836804,925029620,463038,521794433,42686,16459,1571309197,6565,7.82,3.07,2.97,0.18,0.0,250452160,236997000,12999000,264674206,4
528036790,5834351,301727917,1108491,301002011,1129958,6868936,16880276,1015639919,666996,522252003,49905,47437,1568882554,6769,8.35,3.29,3.19,0.21,0.0,274216256,261893000,11995000,288441210,4
316559885,6114268,172580293,820720,171578512,818643,6804703,16210145,784998993,628743,320297937,44576,12974,978609895,7555,6.38,2.43,2.35,0.18,0.0,211924719,199610000,11976000,226108235,4
757414316,5451493,382110312,892964,380614921,889442,5641812,16554179,1455723089,488119,754267221,79345,25163,2331485828,9654,12.14,4.74,4.6,0.27,0.0,393901241,371530000,21972000,408439829,4
325055607,7768663,177319067,883544,179072671,905200,9232467,20773891,924139710,955815,334901514,61014,45614,1021338391,8337,7.43,2.82,2.72,0.23,0.0,249978683,229629000,19967000,264362669,4
333381946,7792998,181323298,847030,181044819,841168,9413977,20562905,897285426,955428,325314630,46014,21518,1024348817,8338,7.27,2.71,2.62,0.22,0.0,242133025,230781000,10989000,256375618,4
482086033,7996263,265712724,967873,270252210,961439,9702769,21260610,1118875527,720724,482064757,73725,29817,1525928477,12243,9.21,3.53,3.4,0.26,0.0,302704235,277420000,24947000,316789785,4
537084296,6114213,305727979,1075505,302403626,1053500,7315842,17690039,1019517196,681778,521514863,61690,24767,1591888593,7550,8.53,3.27,3.17,0.22,0.0,274640076,258287000,16017000,289127610,4
1189056552,26632707,651820458,9957163,652205609,9931480,22522623,69410025,3344997780,3495930,1191145311,86778,38094,3595075403,9503,27.54,10.53,10.18,0.68,0.0,903492796,884024000,19000000,917737732,4
431170043,5269433,231436947,768101,229251244,768496,5781308,15315269,952260562,550348,418974696,57854,26862,1334914663,9202,7.71,2.98,2.89,0.2,0.0,257924403,239580000,17968000,272327619,4
498738632,7055122,256728127,1004101,254985149,992069,8001408,19848310,1193578485,951993,500094390,56174,36260,1535013803,8977,9.51,3.68,3.56,0.25,0.0,322580688,302276000,20018000,336888241,4
998836098,12907102,547546302,7157793,547986748,7109634,8567875,33966642,2271181992,1128398,996281457,63413,33146,2996799566,9527,18.63,7.39,7.16,0.42,0.0,612665900,589241000,23009000,627000350,4
389086105,5639726,198771290,726466,201224975,717930,5974977,16596436,905543809,678230,388066623,38759,14435,1193190696,4488,7.42,2.83,2.74,0.19,0.0,245033776,239690000,5014000,259340739,4
396504659,4982578,221964129,876305,221316089,873813,5588287,13916283,911205896,473401,396033907,100258,21400,1256892650,9656,7.45,2.89,2.81,0.19,0.0,247634794,230277000,17020000,261998683,4
618528900,10651360,351488768,1534578,351552415,1510289,13010779,26078734,1312650905,803096,618375991,133437,591117,1865380360,23956,11.06,4.27,4.13,0.31,0.0,354418001,307028000,47004000,368678075,4
291763188,4576576,159420989,668859,157621965,656774,4607841,12316094,672667910,453197,294262756,37628,12611,914721249,7188,5.46,2.13,2.07,0.15,0.0,181896987,164613000,16960000,196222823,4
363554406,6950549,194329814,899524,197314687,855032,7866913,17884005,902722761,749074,370499127,43295,20052,1125696614,7945,7.33,2.82,2.73,0.21,0.0,243469567,230177000,13010000,257745748,4
312679683,7349661,171439408,856562,169788053,823754,8879574,19344057,829305150,836521,308406809,52113,21281,975133060,8338,6.7,2.57,2.49,0.2,0.0,223541785,207292000,15945000,237894335,4
431987514,4555328,229280439,755176,226814767,742136,4817308,12985990,914506611,468086,430726736,45474,50450,1349349018,7803,7.55,2.93,2.84,0.19,0.0,247618301,231273000,16018000,261749091,4
293836468,4517896,159934125,677012,158323871,657351,4664372,12087150,677150061,448728,292037313,35548,13419,917565351,7188,5.54,2.08,2.02,0.15,0.0,184121225,171733000,11981000,198542902,4
693189896,5857948,380596763,1021810,384062632,1009770,5472388,16638723,1264558922,541181,694117788,93558,47580,2075241358,9003,10.61,4.19,4.05,0.24,0.0,341507069,319195000,22013000,355889211,4
507601287,7250273,270509522,964148,268444599,958102,9081908,19813072,1168550473,700248,499330593,105317,38890,1582612776,17258,9.68,3.71,3.59,0.26,0.0,316177530,277864000,37981000,330526136,4
284605556,4828408,156995775,655161,156007273,660827,4429687,13330749,668534381,448226,287961887,23394,33796,896848504,6196,5.43,2.09,2.03,0.15,0.0,181344830,172028000,9001000,195524140,4
623000038,8682085,331988120,1142447,333041356,1138052,9745273,24899455,1583537014,998197,620093382,117471,57762,1968095724,15039,12.95,4.96,4.79,0.33,0.0,426871254,386481000,39946000,441260853,4
345145070,4752375,181363843,708907,179577848,705461,4789201,14675769,803052978,637915,341791165,19533,21251,1059472023,3260,6.47,2.49,2.41,0.17,0.0,217183547,208854000,7994000,231302869,4
535040842,6731785,300289088,1105608,301773907,1103119,7410280,18541758,1050408713,683033,538719747,53840,19503,1585600218,7746,8.81,3.39,3.28,0.22,0.0,283309735,263967000,18997000,297719916,4
540509255,4722789,305681690,972657,306542435,972792,4952707,14094380,991427012,466555,543658416,51886,65089,1611473243,6567,8.44,3.27,3.16,0.19,0.0,265567821,252085000,13004000,279914617,4
700948951,4598845,354965028,1052301,352865147,1046463,4279558,14924699,1207301183,595023,691405888,41277,16001,2033115143,2868,9.93,3.97,3.86,0.22,0.0,325228744,322000000,3000000,339393395,4
329452212,7152855,179407263,906289,178637743,862194,8491961,18223943,852480058,752302,328925367,67962,24414,1021998502,9510,7.03,2.63,2.53,0.21,0.0,230005132,209669000,20064000,244361655,4
387836331,7122090,202913019,950476,202987365,921452,7885923,18596031,939950070,764166,385266650,51378,26500,1181577813,9118,7.81,2.9,2.8,0.22,0.0,254964466,242741000,12036000,269175024,4
501614735,5062676,235034014,1030183,235881172,1025501,4545776,15247841,1035536300,639203,499313608,25614,24220,1495860076,3069,8.5,3.26,3.17,0.2,0.0,280395689,278056000,2000000,294687625,4
844510454,4823842,452570189,1023698,449886651,1022079,5273017,15920088,1421483031,511844,830258347,71387,48760,2520618810,7994,11.95,4.78,4.63,0.26,0.0,383943599,368728000,15029000,398084944,4
422628500,9397154,227079099,1208697,227077384,1193452,10613947,23241034,1115225330,803359,414149170,119458,468818,1303178470,17518,9.11,3.43,3.31,0.27,0.0,301007973,274794000,25980000,314928680,4
524368390,10276316,283258682,1259400,283865254,1259981,12353530,27163861,1347625552,1319594,520902863,84708,30533,1658715183,12675,10.82,4.17,4.03,0.32,0.0,362440540,330889000,30989000,376729123,5
1038959351,8674553,519863658,1259766,515700755,1236549,10571622,26385244,2023043335,1019400,1036102974,50966,96157,3200713974,9161,16.63,6.6,6.38,0.4,0.0,547201835,525586000,20983000,561590743,5
701356521,8672540,367812231,1308165,364182627,1302959,9335296,28080745,1417311116,1194290,694268159,24723,13963,2109009274,3451,11.55,4.41,4.28,0.3,0.0,385320462,377809000,6996000,399590459,5
665861204,6885859,365454077,1082941,365167145,1076130,6975169,21700837,1313651996,978427,663063861,35779,56988,2002318884,3453,10.82,4.12,3.99,0.26,0.0,355480790,345809000,8995000,370040352,5
346772590,7914516,194880173,804352,193648076,807029,7738307,21284246,850066772,798089,338198720,46584,18757,1094360199,6624,6.82,2.63,2.54,0.2,0.0,230070276,214656000,14976000,244328898,5
666489648,6900566,365413184,1068692,366288876,1063205,6920816,21531088,1310653622,976072,662526137,35403,53872,1994536480,3453,10.78,4.15,4.02,0.26,0.0,354733867,347189000,6983000,369115639,5
580498810,8692925,313120468,1097148,312714789,1075326,8833747,22393278,1288019034,755386,581892966,76073,59107,1834683055,13404,10.46,4.1,3.97,0.28,0.0,347711719,321239000,26019000,362057751,5
447937622,6562761,231884218,843825,230469560,834653,6570666,19598587,1075635681,967209,448976243,27623,33072,1381908706,3460,8.67,3.29,3.18,0.23,0.0,290570645,283169000,7004000,304807945,5
365328541,7928194,199904188,1110092,194868430,1099558,9653994,22513315,937802641,906567,356326863,47100,19130,1141576498,7165,7.57,2.86,2.74,0.23,0.0,255448921,239964000,14997000,269568506,5
901320157,11199596,509108129,1424419,508683430,1407888,13957200,31251025,1989860735,1471046,902378227,85914,89016,2822002732,14724,16.19,6.31,6.11,0.43,0.0,537714802,507201000,29952000,552047791,5
389771636,8135310,209546011,1076006,208357162,1032293,9631211,21684577,985064999,943594,389816912,42581,22226,1231060920,7753,8.05,3.04,2.93,0.24,0.0,266577708,251248000,14955000,280811967,5
645429189,9833677,334021427,1038491,335532427,1050219,12086850,28285966,1458321465,1237974,650085157,62140,36650,2009938496,8099,12.05,4.57,4.41,0.33,0.0,393802100,375353000,18016000,407919993,5
414370091,9483710,224428263,1205705,218351719,1183215,11953834,25844375,1107692791,1115506,396168833,46073,41794,1290539639,8733,8.95,3.36,3.23,0.28,0.0,299155838,281751000,16984000,313528337,5
818769160,6099965,426743831,1681901,425428278,1683554,6009149,20607319,1570134084,860798,809903738,40915,18101,2448305428,3257,12.8,5.02,4.87,0.29,0.0,424174994,415744000,8014000,438416998,5
1001064739,6863697,478998713,1553382,480905818,1493960,6166048,21424890,1818316912,1051172,990826898,45612,18451,2913517322,3456,15.08,5.92,5.73,0.32,0.0,490628999,485158000,4991000,505056471,5
614842178,9688209,348809656,1455375,350227004,1455318,11484867,26477497,1302528086,1077462,611984694,80005,25918,1858646932,9116,10.65,4.17,4.04,0.3,0.0,351645475,326262000,24943000,365937284,5
802189584,13025216,454932925,1751982,452111238,1745316,18818955,38855677,2050029183,1968104,793131638,113676,49391,2483366749,13556,16.27,6.33,6.12,0.47,0.0,554890455,525472000,29026000,569087419,5
549090456,9028606,317257809,1156477,318394285,1172210,10438783,26365613,1142151000,1407874,542632987,63349,19953,1681963119,8179,9.31,3.64,3.53,0.26,0.0,306299644,288792000,16987000,320451635,5
387882541,10505857,235464101,1208454,235889855,1204223,11234827,27861107,1144701392,1127438,388763881,41694,21928,1332559062,7249,9.21,3.49,3.36,0.28,0.0,310635758,293198000,17011000,324740336,5
701169550,7617477,364354248,1205824,362120073,1191210,8275655,22019441,1476824962,763277,690647355,86842,56341,2155177346,9602,12.23,4.78,4.63,0.3,0.0,398465433,377883000,19993000,412764494,5
736026804,11614328,385735013,929603,384844115,942733,13788926,31472142,1669601842,988490,745963908,117678,56436,2293127570,14436,13.64,5.3,5.12,0.39,0.0,451110540,427623000,22979000,465344111,5
527089567,18014492,279602007,2145288,282423859,2070384,24082281,44419068,1507542069,1467991,515223386,140023,1071721,1627360171,21619,12.31,4.64,4.44,0.44,0.0,406649583,367222000,39023000,420945851,5
563385845,7491805,303204669,943494,302403139,956505,9837932,21880327,1255151504,914943,557299252,62945,28646,1756769068,10819,10.2,3.99,3.86,0.28,0.0,338445250,316943000,20996000,352725756,5
444302190,5621195,232055141,933357,231746449,934130,5837157,17166506,1035689550,854947,443255253,25364,24936,1367211805,3459,8.43,3.17,3.08,0.21,0.0,279655609,276265000,3002000,293931973,5
808760331,8611186,449093501,1374409,450039400,1345363,9432306,23592743,1537169171,790392,806133207,97498,36320,2498004847,12761,12.82,4.97,4.82,0.32,0.0,415638390,393184000,22010000,429932931,5
374890679,9352517,206604806,1148575,202222481,1135589,13069071,24645247,998315824,1070272,367069535,55477,23183,1190220642,9511,8.26,3.06,2.94,0.26,0.0,269906421,246513000,23048000,284125702,5
630388370,10969590,351332999,1462617,348074988,1461732,11531170,30812387,1366835344,1102530,627878013,52617,27399,1915501091,7257,11.26,4.3,4.16,0.31,0.0,368946882,354467000,14018000,383288015,5
393030285,6701982,212183550,948214,210461506,922149,7885041,18815539,937601341,799636,386183042,56861,22529,1238409988,7261,7.68,2.88,2.79,0.21,0.0,253631066,240310000,12962000,268004742,5
463628456,13741753,251638246,1845909,250341286,1906398,17516668,35152707,1339053999,1196078,457705574,105567,673837,1447556698,19864,10.75,4.07,3.91,0.36,0.0,361219727,321859000,38982000,375531457,5
634237262,12024775,345899085,1440344,341819952,1446816,13788351,31230552,1537435061,934818,621114890,163583,187267,1997297016,23547,12.62,4.89,4.72,0.36,0.0,415250753,371808000,42977000,429465290,5
413337019,7554274,225901148,947282,225495216,939398,8798244,19891785,1038254410,879715,414537770,62313,24292,1288541014,9991,8.5,3.15,3.04,0.24,0.0,280969185,262634000,17975000,294968619,5
334734596,6633840,180611724,863289,179837882,878975,7627285,19372251,824962588,775442,349870494,24246,22260,1077346166,7013,6.85,2.57,2.48,0.19,0.0,222455586,206071000,16005000,236604585,5
504985910,6828536,256277278,1002730,255537663,989628,8077117,20355323,1226153229,1149321,499737220,32106,19039,1534575946,4826,10.06,3.74,3.62,0.26,0.0,331592743,322203000,9005000,345799210,5
675610217,8788704,352030504,1049344,352396223,1034496,10538798,25334310,1493667856,1083267,673709813,95368,28326,2096531402,10434,12.01,4.59,4.43,0.32,0.0,406986033,386577000,19978000,421211547,5
639380227,12958247,342768005,1482088,346382343,1480078,15277536,36565151,1925412142,1767714,643930202,59897,32443,2002390743,10436,15.26,5.7,5.5,0.44,0.0,520712466,506204000,14005000,534862357,5
671683726,6970736,366072104,1072441,369420518,1064988,6757788,21777422,1322544111,970225,668432388,35155,25505,2021829793,4040,10.99,4.15,4.02,0.26,0.0,358291404,352960000,4999000,372307973,5
261513226,6936220,207938288,806968,211173221,796817,8775833,21802362,857416886,1108387,270034597,30495,11117,965555542,4436,6.84,2.55,2.46,0.21,0.0,231391185,220928000,9996000,245625155,5
437237069,7140310,232072387,1289791,228263421,1299077,8216432,20954385,1004790800,815718,429302473,54628,25478,1356595554,6822,8.21,3.1,3.0,0.23,0.0,271669084,259304000,12014000,285841899,5
587513553,9794208,317208566,1110098,320019063,1107207,12464255,26864143,1371839321,1004691,573654571,92877,42698,1830808520,15694,11.39,4.26,4.11,0.32,0.0,372467279,347128000,25009000,386545644,5
1292919698,13590778,678524739,2192177,677785223,2216929,11400010,40371853,3011049600,1530891,1306286173,60595,31265,4011995645,6952,24.62,9.37,9.07,0.56,0.0,812849823,799377000,12989000,827014434,5
401576834,11640022,217367017,1390432,219179583,1409295,13665576,30861538,1168446997,1253436,403243230,71832,37687,1272780221,9020,9.44,3.54,3.41,0.3,0.0,315560929,286129000,29013000,329819010,5
412978284,8632343,227528461,1163791,225967926,1175316,11171072,23423673,1069608722,975853,410523197,49518,21388,1297033569,9120,8.78,3.25,3.14,0.26,0.0,287199246,273776000,12989000,301565362,5
373141066,7979840,203167513,1232299,202804930,1226573,8940289,21828550,967118911,915203,369967887,47520,154216,1176414789,7947,7.79,2.97,2.87,0.23,0.0,261913224,247497000,13971000,276254633,5
1391015599,30624777,743656272,11852135,743583219,11856907,25106110,76999117,3968875642,3700761,1401326890,124742,62241,4332144688,17405,32.32,12.37,11.96,0.8,0.0,1070412834,1038790000,30993000,1084632319,5
448876315,7033813,237727512,967479,240049363,963715,8413346,20977262,1125756353,1150645,446182918,39334,26925,1386051030,5218,9.2,3.43,3.31,0.25,0.0,303669856,291248000,12010000,318015860,5
618884134,9713925,347851790,1737706,346425701,1766732,12520500,28532043,1347833533,1108003,615136563,50596,32701,1874205973,8725,11.1,4.25,4.1,0.31,0.0,363892015,342537000,20971000,378276531,5
508908082,6828776,267086809,1029590,267436554,1005216,7510900,18836049,1130965892,793478,516500399,68119,27405,1589233733,7894,9.18,3.52,3.41,0.24,0.0,307368747,287950000,18996000,321648678,5
930925790,6048931,466244573,1537803,465771905,1541216,6074699,19896142,1787850639,1021792,931131196,46823,26605,2741874753,4430,14.9,5.68,5.5,0.32,0.0,484300333,472935000,10998000,498610902,5
388741532,9000179,213055333,1144025,211474486,1134663,11515520,24148163,1010260750,1021543,378930909,50700,22772,1211960210,9523,8.29,3.09,2.98,0.26,0.0,273105135,251555000,20962000,287498868,5
375062362,6764683,205823397,940418,204402755,885357,7020390,17728826,887507597,715485,375958019,50810,21815,1190224112,7065,7.31,2.74,2.64,0.2,0.0,239657416,222360000,16951000,253855215,5
572140899,9043419,313030092,2246959,305331462,2372661,12201192,28035532,2072271498,1385615,567680292,427418,428280,1827500548,10189,16.66,6.24,6.03,0.4,0.0,562676380,441125000,121034000,576865447,5
596059585,10039418,312577297,1258213,312643247,1141790,13567854,29465496,1601925338,1787971,599331232,91700,31534,1856820096,8338,13.25,4.85,4.69,0.38,0.0,432113215,415646000,16024000,446459377,5
1024184129,18605467,558759933,1271858,558426648,1284150,23475199,49506061,2248449017,2590532,1020422701,117759,37010,3198094657,18238,18.88,7.15,6.9,0.54,0.0,606726685,575285000,31015000,620988675,5
406450951,8819784,216150127,1216398,212514196,1227956,11649206,23812721,1044344955,966664,407438253,76987,29425,1276721453,9119,8.63,3.18,3.07,0.26,0.0,282426293,267052000,15002000,296507483,5
588011852,8050830,336104316,1360757,335080290,1354299,9372370,23064237,1200786865,930817,579102724,41046,32245,1765938067,7159,9.94,3.85,3.72,0.27,0.0,323602360,304268000,18954000,337976496,5
1291352111,15045556,688603775,2366030,691574049,2299205,13490462,42512843,2885276592,1749881,1294129958,97445,53356,3961456225,11635,23.41,9.19,8.9,0.57,0.0,778622706,763043000,15000000,792981086,5
603312407,7332107,340387687,1111884,339077225,1161660,8496081,21516469,1173112709,739308,607270407,49136,24694,1835982792,7888,9.78,3.82,3.69,0.25,0.0,316751580,299398000,16965000,330985638,5
242576547,7752836,193167571,866910,194363967,857549,9075708,20675987,746898274,822329,252208344,44871,17514,879296239,9113,6.08,2.25,2.17,0.19,0.0,201159528,186750000,13981000,215561077,5
244612074,9934909,192879316,1116007,194553555,1127408,12989844,26464264,899608845,1129175,255523965,55010,19562,880705670,8729,7.26,2.67,2.56,0.25,0.0,242360117,228992000,12999000,256856717,5
607479138,8859017,347416211,1561572,342453247,1520014,11095318,26572844,1279795427,1083667,595198214,66316,25338,1830453694,7160,10.74,4.06,3.92,0.29,0.0,345910654,327623000,17979000,360288171,5
406622615,9164566,214651213,1188867,212687432,1173311,12170237,23988147,1044606717,978896,407298531,47612,28303,1277893051,10294,8.38,3.17,3.06,0.26,0.0,283593756,267269000,16016000,297748119,5
609160652,7505767,339996621,1181339,342783681,1207425,8720739,21799453,1176059572,762906,608586309,53162,24376,1844194723,7694,9.87,3.79,3.66,0.25,0.0,317563785,304224000,13009000,331922612,5
739055186,11011074,382084522,1304152,381938575,1311279,9180360,32321466,1517743603,1218962,734634779,38888,16841,2232836640,6490,12.27,4.82,4.67,0.31,0.0,411667422,396306000,15011000,425943800,5
483619702,15784861,262420873,1927521,261605963,1808047,18773773,36065110,1308226497,1132381,486755626,161776,771367,1540375286,24553,10.79,4.07,3.9,0.36,0.0,353547137,313088000,40011000,367761117,5
617831109,11401577,341826740,1280228,344292037,1271119,12260651,31921915,1295698600,1079788,628742216,73243,23623,1863552794,7943,10.79,4.12,3.99,0.3,0.0,349429291,331941000,16997000,363955196,5
564395292,7812312,326025431,1101672,324794644,1089232,7974592,23282869,1085066955,848597,552750922,66042,22483,1705290482,6617,9.05,3.49,3.39,0.23,0.0,293360333,281109000,11962000,307545329,5
369292208,7049236,202515119,900026,199664677,922132,8082093,19908025,893380032,737089,370278874,55688,15953,1181503148,7696,7.45,2.77,2.68,0.21,0.0,240959894,228653000,11981000,255145196,5
398733974,8153686,213492216,919065,210772144,904547,9689585,22769707,977041270,1005942,396085342,43659,24548,1258257064,8922,7.91,3.04,2.93,0.24,0.0,263737613,246439000,16961000,278020561,5
394459420,8164024,214346859,1180625,212908012,1120979,9801223,22385966,1009512734,932858,382836744,46230,20418,1214834838,8144,8.29,3.1,2.99,0.24,0.0,272542842,259154000,12957000,286861799,5
359428621,7389413,226952955,884060,222741377,851585,7966957,21386138,910693699,764056,352618550,41759,20746,1257018167,7646,7.41,2.82,2.73,0.21,0.0,246461178,235005000,11000000,260742204,5
424221347,7957846,236801619,909804,231122878,915640,8609693,21693401,1052899280,861087,413029370,44384,28504,1353685774,10230,8.51,3.27,3.16,0.24,0.0,284400154,258141000,26014000,298728365,5
394654570,9036191,218513105,1054371,219659307,1048059,9689967,23913626,1032210278,981954,390500885,53953,16843,1249468026,7803,8.48,3.18,3.07,0.25,0.0,279706909,265385000,14020000,293899663,5
611056002,7027302,342632553,1112979,345208708,1140478,8511942,20733220,1180666499,721565,609203062,41648,20673,1852974831,8326,9.78,3.77,3.65,0.25,0.0,317713857,300468000,17026000,332225827,5
607811695,7830289,345415833,1192611,343234129,1172735,9417894,22340744,1194304607,835089,598848285,77056,25552,1834082101,9985,10.15,3.86,3.73,0.27,0.0,323198001,297980000,24998000,337406327,5
378287515,11372684,208133901,1124389,207846810,1115983,14506813,29758475,1095244545,1414353,374588464,52338,25732,1192981412,8928,8.86,3.36,3.23,0.29,0.0,295715471,277401000,17961000,309964879,5
1194264915,13854268,663539060,4801618,662384673,4792725,12509563,38238146,2524224626,1143339,1183872920,89306,43247,3679040607,13672,21.0,8.31,8.04,0.49,0.0,680219740,655819000,24030000,694567982,5
814869080,10167850,432908964,1196874,428085071,1198113,12231956,27484764,1723886171,928877,816235787,135927,70527,2571367604,19498,14.08,5.57,5.39,0.37,0.0,465396997,432137000,33010000,479696658,5
423479429,8675382,229442091,1181235,229153460,1183458,10689455,23616020,1069827069,925573,422634910,42625,19815,1322556225,8925,8.84,3.32,3.19,0.26,0.0,289290081,273014000,16000000,303264856,5
622096617,8740299,337141379,1126424,330895513,1140343,10501182,24376889,1373045011,810298,606502228,102277,55858,1955089934,16284,11.11,4.35,4.2,0.3,0.0,370825727,340492000,29955000,384991894,5
486067769,7821280,236211935,1027599,234870333,1014031,8452949,21291022,1063521884,959432,476944014,44463,15059,1493450567,7219,8.77,3.36,3.27,0.23,0.0,286706566,269469000,16966000,300903903,5
629094823,1385552,329710433,1822525,330120008,1833279,452983,5604916,998294837,32573,628258380,24285,10370,1879687036,2364,8.33,3.32,3.22,0.14,0.0,270018341,261801000,7993000,284260257,6
1156214148,16373727,639569276,9258369,638807310,9250149,13639758,45453372,2961523616,1654962,1158176111,58142,40845,3584344428,10097,23.84,9.28,8.98,0.55,0.0,800433483,783349000,17007000,814506018,6
887858432,6804635,410846643,2808595,410977949,2810176,5307462,21624802,1546807018,178487,891548449,30685,14113,2624507406,3653,12.4,4.94,4.79,0.27,0.0,418797366,410354000,8006000,432897724,6
354590253,2199528,188036385,1692351,188784157,1680162,596162,4851326,550368455,18057,358636183,14491,7535,1110444798,1697,4.45,1.83,1.77,0.08,0.0,148443058,143064000,5002000,162695006,6
1627141430,15452706,913924167,9728671,911683560,9696889,13430296,46046736,3400271074,1674868,1623444415,84095,34976,4900060938,10092,27.73,10.87,10.54,0.61,0.0,918144555,899069000,19001000,932380510,6
1116438886,13904969,615583073,2683917,612066920,2691028,1467892,10528209,1909232325,68647,1108049136,42950,16038,3360894727,4431,15.29,6.34,6.16,0.28,0.0,514869096,507690000,6995000,529152367,6
1422298048,8918749,767639479,3653181,766078602,3662246,1433713,12107929,2089298483,70238,1424041719,60726,19134,4200117674,4232,17.18,7.02,6.82,0.3,0.0,563782027,557355000,5993000,578035138,6
1887823460,11797346,948328583,3282113,948832253,3302040,7379824,34793566,3134905392,321575,1880140943,78158,34799,5595335552,11764,25.4,10.15,9.85,0.51,0.0,837879091,811600000,23988000,852066696,6
1612745284,16014210,903927162,10021820,902364948,10011072,13921402,47380589,3478849787,1698357,1614651671,96860,41390,4859744199,9704,28.82,11.05,10.71,0.62,0.0,928454958,905339000,19007000,942748015,6
348682460,1988827,156966103,1546823,153163221,1553276,625988,4787286,465894333,25333,339908710,12100,4768,999295140,1695,3.85,1.56,1.51,0.07,0.0,126576535,119276000,7016000,141000546,6
1621414739,15793025,914195083,9768019,914681124,9792977,14106137,47249778,3429716126,1683136,1628566600,92368,50078,4899743563,10094,28.29,10.9,10.55,0.62,0.0,925961732,905592000,19991000,940438220,6
1625788292,15730000,914320285,9736964,911703265,9707510,13754752,47002441,3419016314,1697453,1625018032,68339,37882,4901685343,10092,28.73,10.98,10.64,0.62,0.0,921850941,900673000,19992000,936183175,6
1518282937,13633492,845712330,10867531,843341591,10846306,10299384,40237656,3661477835,1336084,1512849046,56917,44287,4684273566,5921,29.39,11.45,11.08,0.61,0.0,978869250,962552000,13993000,993091288,6
564454701,1177585,276467828,2386117,273054683,2405045,515523,4768989,830354657,25698,564023748,11651,5957,1623654668,1307,6.92,2.76,2.68,0.12,0.0,223872550,219623000,4011000,238173246,6
1144582690,15996220,632504312,9391222,629850567,9393822,16051235,46231673,2991171387,1979600,1142370187,89737,40832,3545342415,11773,24.39,9.41,9.11,0.57,0.0,807869103,789665000,18015000,822002105,6
1164540487,16136830,641469051,9376323,639849353,9385332,16097957,46488104,3004235028,1999938,1164263681,91293,49471,3636726700,11773,24.4,9.43,9.13,0.58,0.0,809973914,782799000,26993000,824125494,6
3902389360,8294390,2015496142,4279135,2012855043,4252048,6247912,39339636,6613664148,326198,3895310374,144658,47942,12063541722,3646,53.94,21.88,21.23,0.98,0.0,1784248551,1773916000,9999000,1798553388,6
306653463,2059471,157012854,1627647,156314680,1624227,532584,4686308,443520711,17298,310324966,14558,6168,919307848,2086,3.62,1.49,1.45,0.06,0.0,120080625,113841000,5991000,134321935,6
1519223086,26199031,786167754,5149185,787525336,5106429,1579970,14018877,2634159917,82848,1534283946,51335,26308,4591366961,6318,21.37,8.75,8.49,0.38,0.0,711106684,698747000,11011000,725251997,6
550291584,3311860,288618146,1716956,288964071,1710818,1807104,8126624,850183559,43174,563246163,49125,12923,1664387015,7141,6.9,2.86,2.77,0.13,0.0,229916861,212673000,16973000,244211172,6
1643984113,14240929,895921002,13968866,895127902,14006713,10262546,41409319,3380719154,1365327,1643670620,111146,33604,4857585861,7402,28.09,11.06,10.72,0.57,0.0,909739815,900537000,9005000,924183450,6
1024390428,2115880,496597495,3613675,494460430,3671228,873239,8333537,1600014396,50314,1016585043,35096,15847,3005729107,2608,12.99,5.32,5.16,0.23,0.0,430830434,427283000,2994000,445074576,6
1567194163,22841014,827719929,8117929,830019587,8104969,18106923,45591140,3398802289,1024940,1575949831,100903,47391,4788841295,14501,26.8,10.63,10.29,0.61,0.0,903627778,880092000,22002000,917773926,6
780365316,2170025,430826732,2489494,431119865,2488559,625723,6242513,922527781,26566,784176959,25121,9635,2192404175,1690,7.99,3.3,3.21,0.13,0.0,249362053,246155000,3001000,263627189,6
522929733,1934693,246546193,2409108,242983945,2460816,884069,5650075,820770574,27649,523012785,19503,8202,1494748717,2088,6.65,2.71,2.63,0.12,0.0,221280960,214005000,7033000,235551127,6
411229949,2074909,210841054,1701955,204628641,1777309,686667,5180796,570721781,22839,397869883,10085,4961,1257127307,1696,4.62,1.87,1.82,0.09,0.0,157040144,152723000,4019000,171402817,6
419574768,1923299,216354223,1715821,216347658,1729460,431436,4552550,628488291,19158,415046103,40783,5819,1272542592,1306,5.09,2.1,2.04,0.09,0.0,169704444,163374000,5977000,183909704,6
531569313,15883870,546749222,9202115,542615154,9195147,15778611,41135621,1974124279,1944442,534832429,82419,30091,2093086703,12519,15.75,5.92,5.72,0.43,0.0,534923442,515679000,18988000,549511872,6
1727597604,25631633,929398546,11991003,924250019,11965780,16320689,53699954,3883153390,1236562,1722731865,78185,37616,5300228182,10373,32.0,12.41,12.03,0.67,0.0,1040877626,1015450000,23987000,1055108802,6
1607296322,15770879,906961003,9781160,904801549,9757115,13561701,46639990,3430357554,1677136,1601003652,95617,70608,4846885685,10120,28.2,10.95,10.6,0.61,0.0,917513349,898233000,17004000,931832844,6
676518229,3494452,359348935,2848785,362161175,2876138,1394875,7610114,1186581914,55902,685634955,35599,100404,2068081070,9481,9.53,3.88,3.76,0.18,0.0,319923775,300683000,18979000,334043449,6
613309732,1243855,306331191,1844510,306060480,1807822,452383,5003405,934908182,26317,615465513,7676,7146,1894829960,1109,7.69,3.13,3.05,0.13,0.0,252831353,249602000,2995000,267129416,6
1625360889,15567684,916259781,9726388,912856931,9712983,13555039,46388867,3406290833,1679797,1620925587,65278,60620,4888509240,10091,27.91,10.93,10.59,0.61,0.0,921501890,904232000,17004000,935800415,6
1148994127,16281132,634836148,8455664,634012630,8447598,17332811,48024983,3029635935,2177568,1149811255,98112,54162,3562264954,11776,24.35,9.43,9.13,0.59,0.0,814896801,793369000,20983000,829197342,6
893925619,1235615,486728668,2443049,482430122,2428400,536662,5236797,1031622683,31332,896740036,30780,8528,2626132359,1107,8.85,3.71,3.61,0.15,0.0,278229681,276971000,999000,292346538,6
733842168,2039368,396336921,2195551,395350370,2196695,830899,7531347,1304007053,40018,739884637,57154,11899,2254355169,2848,10.44,4.24,4.11,0.19,0.0,353594750,348389000,5005000,367816697,6
1319198601,5361565,723635006,3811540,718351920,3814612,5132062,18667657,2003617544,354195,1294927037,62004,28219,3853970231,9332,16.77,6.76,6.56,0.33,0.0,539686834,522360000,17011000,553968595,6
1978549485,6455164,987330577,4826015,982322762,4741335,5015608,24459873,3200891896,201277,1963567433,60131,44824,5795015362,3452,26.08,10.57,10.24,0.5,0.0,864046728,854665000,9007000,878190860,6
1984544910,8998802,999239080,3231138,989478373,3300894,6894027,32241934,3320182771,280906,1971038060,85742,45104,5878847633,9587,27.16,10.86,10.53,0.53,0.0,889458090,864220000,24006000,903882495,6
2989753735,22991830,1500529065,8220346,1503415421,8270437,8298487,38270681,5310509911,379681,3004239721,178088,55375,8992056641,15757,44.03,17.62,17.09,0.82,0.0,1426842912,1399404000,25988000,1441113119,6
344670353,1971630,167386386,1562648,162943115,1537571,830810,4870470,473454017,30515,334445615,14456,5717,951034883,2282,3.86,1.54,1.49,0.07,0.0,129745216,125523000,3984000,143910925,6
1447005672,16343953,770600371,10811459,770428116,10800107,14352409,45746890,3368100503,1684876,1443874768,140358,73659,4403133369,20357,27.4,10.79,10.46,0.61,0.0,912483500,881306000,31010000,926813840,6
1414511855,11600814,794498818,3288580,792617963,3265607,1415078,18791831,2114928296,78944,1410425533,68718,25998,4178576603,5933,17.53,7.12,6.91,0.3,0.0,569433454,560246000,9003000,583538173,6
623223999,2378103,300568931,1910812,296416402,1895078,1283350,7437602,959419720,41331,613026122,21135,17577,1774866320,4117,7.87,3.17,3.07,0.14,0.0,257109051,247774000,4995000,271410202,6
971899391,2277565,518117759,2372457,514405002,2417919,934487,7523433,1190472109,45916,961365949,45156,22442,2731157685,4104,10.28,4.22,4.1,0.17,0.0,320560949,313289000,7006000,334832100,6
1516299399,8890428,722424730,2089439,719508028,2079826,5193523,26630432,2665649133,255264,1502931897,38978,100024,4516174685,3261,21.64,8.67,8.41,0.42,0.0,719090345,710683000,7996000,733664192,6
1878245182,2583335,978039291,4188481,976500648,4215436,1252350,15210334,3447505001,102803,1875684418,63427,32653,5665431952,3205,27.12,10.83,10.5,0.48,0.0,921962945,917502000,2998000,936370764,6
3510091047,10698799,1770493482,2693419,1768188062,2708389,6410224,41432460,6276003192,325957,3509842975,55406,54485,10997842675,3266,50.56,20.73,20.11,0.93,0.0,1681247738,1670539000,7997000,1695581342,6
672826049,2083910,317041601,3834754,315498602,3741767,1085892,7164971,1047825134,36167,665871551,23527,12811,1911729246,2871,8.51,3.49,3.39,0.16,0.0,284191501,276984000,6999000,298400328,6
1119707099,2700814,597535352,2547359,593266025,2500545,1024615,9087071,1442435577,53478,1110428341,84492,19727,3201601434,5785,12.21,5.02,4.88,0.21,0.0,389521047,379292000,9981000,403666905,6
953953249,2092526,513673775,2300466,507068383,2306066,2115623,8173775,1167860691,55354,945350104,78018,17936,2766931123,7347,10.09,4.16,4.04,0.18,0.0,315515041,303307000,12012000,329722286,6
1065521189,8986582,505288129,2058902,506041066,2032507,4643010,23972860,1788212465,210686,1074299010,45200,20813,3198505846,4753,14.79,5.93,5.76,0.29,0.0,482529723,470223000,12005000,496871856,6
1628637631,15665453,915843230,9717204,911871554,9722070,13805234,46478784,3423785089,1687389,1622199082,76849,36769,4904279960,10093,28.27,11.09,10.75,0.62,0.0,922439415,901163000,20003000,936800002,6
1146367140,16451262,634748994,9053643,634766639,9036456,13546349,44771733,2957679732,1679162,1145960199,72836,33581,3562321266,10096,24.1,9.4,9.1,0.55,0.0,798068621,781671000,15993000,812342961,6
1823766761,10441260,945032341,11069342,944067579,11045096,7910247,32404616,3610434458,864532,1823244057,65125,36185,5469604098,8162,29.4,11.73,11.38,0.58,0.0,967658373,951253000,12003000,981939524,6
987727387,11590184,539174924,2437264,535784393,2425237,970251,8336892,1641261050,60892,979076054,33426,15944,2957527220,3844,13.35,5.47,5.31,0.23,0.0,442953827,439683000,3004000,457300859,6
1943986228,6354225,917764038,3652701,916102886,3658992,5007329,25725767,3549201794,210431,1937316846,40518,31066,5840046359,3262,28.51,11.55,11.2,0.54,0.0,957365160,950022000,6000000,971590654,6
1000199322,6885990,492999464,6956007,493310990,6998526,4715521,21196093,1969574913,302010,989026562,89445,36852,3000426447,11293,16.09,6.36,6.15,0.32,0.0,530903126,508766000,20949000,545348181,6
738846744,5335858,346392204,2474046,348356192,2451403,3981961,16110043,1299781097,144773,742273886,27053,25852,2201149238,3261,10.4,4.19,4.07,0.22,0.0,350742932,347348000,3003000,365016108,6
1356894402,10334640,748393081,3297831,743004652,3263583,1447384,12053908,1942798317,69310,1344980700,102689,30507,3995906051,3923,16.26,6.71,6.52,0.28,0.0,521631067,514223000,6989000,535807221,6
1888808922,9655480,959893023,2953312,957422792,2943497,6560766,30289974,3057719673,281177,1880349130,77122,32929,5608616704,5605,25.04,10.03,9.74,0.49,0.0,821794641,812453000,7994000,836194909,6
1537981034,3593043,867511396,3928704,872255763,3973238,2772997,14705811,2700295513,101877,1559439323,86062,36509,4658833340,11048,21.81,8.9,8.63,0.39,0.0,720187711,693903000,21996000,734263007,6
1087266854,19525889,593762790,6328406,592585628,6323357,20860467,55376418,3228983990,2774095,1093809441,86834,41698,3378089720,18074,26.11,9.85,9.52,0.67,0.0,870825705,838544000,32020000,885008314,6
1314053546,6026287,620865552,2504574,619721738,2448790,4806037,21036751,2343321366,186926,1302794387,35843,22117,3931063181,3259,18.86,7.55,7.32,0.38,0.0,631547780,627247000,4001000,645851953,6
449191266,1050922,232123229,2432557,232577432,2400937,352906,4008337,730285656,23402,454536370,15913,8041,1347960712,1499,5.89,2.41,2.34,0.1,0.0,197091999,192848000,3996000,211256440,6
948057661,1496903,505324897,2281009,505863345,2272311,594686,6236818,1162137668,40005,959920062,84151,16188,2742726551,1876,10.02,4.13,4.01,0.16,0.0,312240464,311026000,1000000,326526968,6
1175222907,16192756,646677395,9143083,645243846,9134038,16256805,47989537,3044427902,1947377,1176955627,90451,35528,3646634367,11663,24.92,9.6,9.29,0.58,0.0,820849289,799354000,19983000,841237917,6
653677472,1353337,349302454,2609808,347813106,2540238,720212,5937683,1067486697,46136,649056159,17267,9990,1963126510,1894,8.69,3.51,3.41,0.15,0.0,288051765,281799000,5995000,302294354,6
1506531213,4154492,674428700,12433790,671708376,12529082,1445034,16326817,2566566701,86463,1499082677,42136,21342,4349473678,4809,20.79,8.52,8.27,0.37,0.0,692601712,684347000,8004000,706879746,6
1036885199,1998708,555502944,2565345,557472105,2602199,1022996,7940203,1355752248,45847,1037576411,63708,12329,2992143860,2726,11.46,4.71,4.58,0.19,0.0,363936786,356572000,3995000,378211325,6
332699186,2073762,161681152,1648963,157815017,1647134,706527,4853199,474448793,17585,329238665,9761,4040,931040644,1698,3.92,1.58,1.53,0.07,0.0,128611235,123278000,4970000,142738139,6
2763806518,17445243,1410684845,16041399,1411217012,16041512,21212645,60048349,6121871745,2354612,2764422073,87996,66639,8373859204,9555,49.23,19.39,18.79,1.06,0.0,1647645244,1625098000,17001000,1661980413,6
374165675,1638748,312131197,4483387,310780992,4530159,652333,4942304,708788017,24628,370477775,15666,6713,1307672919,1696,5.88,2.35,2.29,0.1,0.0,191054454,187725000,2995000,205374484,6
521078405,3790996,254181312,1601956,256688641,1610762,1276561,6822825,770119939,43832,527644148,63701,16939,1489226326,8700,6.32,2.63,2.56,0.12,0.0,208175229,191926000,15993000,222483783,6
3238393606,10506138,1736909343,3662946,1736251555,3689340,1349796,21078887,5369979824,145501,3248807413,68099,42709,9803845959,3843,43.58,17.72,17.19,0.75,0.0,1446887235,1438565000,7997000,1461214024,6
2079124569,22600255,1072852170,7734155,1069152185,7737432,2359779,18176260,3576610753,115498,2084159548,49497,30791,6256243264,7376,28.91,11.75,11.4,0.52,0.0,967770892,951499000,16008000,982043764,6
504448570,1027881,243727838,2204664,242124264,2159954,567715,4267090,723313068,22206,505774769,15779,6197,1492814359,1502,5.94,2.48,2.41,0.1,0.0,195465048,193103000,2001000,209812259,6
1512151760,2201634,861477169,3885913,863328363,3886205,1078286,12131550,2576530693,82925,1515263266,65770,23864,4546050657,1723,20.86,8.45,8.2,0.36,0.0,694745335,690928000,2999000,708949067,6
521356344,2087250,253751376,1823786,249743310,1828051,894682,6194413,774783794,31737,517693631,28996,10120,1537736579,4112,6.47,2.54,2.47,0.12,0.0,212037673,203727000,8028000,226122556,6
2783729054,11941807,1465593952,3071629,1464385895,3110925,2073098,21424569,4965653221,154754,2787034683,46726,41365,8527993503,4465,39.82,16.05,15.56,0.7,0.0,1332602924,1323156000,7000000,1346842362,6
2950787653,16925939,1047458038,1001597,1046508455,990137,8651583,34988142,2924740193,180547,2939096572,373007,119551,8645474894,97884,24.99,9.9,9.6,0.47,0.0,790967674,644681000,145927000,805320515,7
4374550326,7445105,1625570879,1847261,1629066902,1858449,381111,27718477,4146598690,109902,4387828106,16818,27412,12702440688,234,34.59,15.01,14.62,0.57,0.0,1119062908,1116526000,1999000,1133232688,7
2952856225,30076032,2106170447,1057507,2100310079,1066655,19357398,68058987,5163855957,407251,2944910439,414767,159031,9115341910,98338,42.45,17.61,17.09,0.99,0.0,1392598595,1215034000,177005000,1407014160,7
3306506004,21246011,806979290,930699,807463469,940115,18820612,47210924,3067047445,745388,3300951598,503832,117155,8910162440,97884,26.1,10.85,10.51,0.66,0.0,826818966,640345000,186100000,841256313,7
3897558301,7243858,1156499786,669175,1156068662,690775,252455,22259954,3123013432,142743,3897307353,12539,18318,10262510498,226,26.21,11.4,11.1,0.43,0.0,844186543,841575000,1998000,858243263,7
4498686763,13695090,1445607554,758658,1446687154,765581,373208,40102701,3770685894,119178,4502196591,13472,22718,13360150937,329,31.83,13.9,13.54,0.52,0.0,1016990567,1014392000,1998000,1031314723,7
5853761598,29489947,2160661948,1363309,2157837915,1348984,19490430,69726799,6024693465,430762,5852915382,537275,158086,17995093897,98334,50.55,21.42,20.8,1.11,0.0,1625346536,1452735000,171968000,1639630495,7
4604265819,18630058,1192334446,1452455,1191575000,1453789,8777399,41816728,4630708019,653942,4604566864,1499395,225585,12687755980,195551,40.14,16.01,15.55,0.71,0.0,1249941852,975446000,274125000,1264084596,7
3309390474,29209122,825477074,977946,821257655,983167,30026465,63869449,3314772016,815034,3321468935,363630,127147,8933765968,107664,27.89,11.41,11.0,0.78,0.0,896044069,688817000,206945000,910100320,7
1420831864,6141851,390694417,1447064,390585437,1427338,170633,13581619,1085738930,29200,1426153599,6322,7699,3337524471,332,8.73,3.58,3.48,0.15,0.0,293730045,289381000,4005000,307861874,7
9048676713,30551856,3055033968,2078465,3051499958,2079194,19829255,84026150,9804043536,551421,9030955416,618061,197044,27851143015,98333,82.48,34.93,33.94,1.59,0.0,2643786542,2472154000,170941000,2658249229,7
3309614061,24842234,549947232,694508,550112670,714054,296943,47282860,2403182795,65964,3302907580,10011,16750,6467161176,330,19.3,7.99,7.75,0.33,0.0,648835588,645493000,2997000,663177437,7
4063417580,28662901,727665986,1079767,727386010,1091415,25782120,55994231,3730140566,748667,4042187947,330522,136235,10412779034,107657,31.7,13.0,12.57,0.8,0.0,1005678468,791521000,213870000,1019994207,7
2237055921,13092997,505852219,1448768,507155848,1459037,199684,32172378,1896348712,47903,2239523650,7443,12108,5809507479,336,16.08,7.06,6.87,0.26,0.0,512160410,510993000,999000,526128351,7
2635984149,21237453,750985358,851171,752048276,833764,18910544,46203765,2786621107,274743,2636732233,441084,312051,7924407190,98776,23.55,9.7,9.38,0.61,0.0,752076972,586841000,164955000,766389726,7
4808212434,27774006,1200380292,1216224,1199656338,1214121,29450218,66062972,4557095510,762501,4797023438,612419,128019,12507339475,97882,38.65,16.01,15.5,0.96,0.0,1229689922,1040268000,189048000,1244047595,7
7345450762,30508086,2554212656,1637718,2553111161,1647605,19665778,77645795,7894518166,494320,7344334833,761665,189874,22156558547,98333,67.06,28.17,27.38,1.37,0.0,2130996331,1959440000,170951000,2145359667,7
2649986331,16755040,747434498,1006654,746606066,1000099,8346016,34419837,2782025971,177409,2637185181,407150,115743,8148191350,98377,24.03,9.46,9.17,0.45,0.0,750074596,607733000,141937000,764645432,7
2702343232,6944224,548322359,583914,547268381,571136,320140,20002636,1932108024,50080,2705040747,7597,11748,5364996447,227,16.04,6.74,6.56,0.27,0.0,521688810,520188000,998000,536052306,7
4143249428,16841584,947359813,1185226,947550905,1188652,8620757,39660893,4117576392,281768,4146255909,420619,129870,12546331981,97889,35.45,14.01,13.58,0.63,0.0,1110494273,955177000,155028000,1124833164,7
9642496496,30542492,3252081943,2059599,3250506722,2082060,19714908,87868519,10403344004,542492,9635052873,541920,177670,29842940771,98340,87.31,36.55,35.51,1.67,0.0,2818048001,2640657000,177044000,2832220855,7
5946978337,29854072,2153733410,1529650,2153673360,1499891,19554930,73253431,6170697266,639445,5941175468,806256,156031,17760813775,98331,52.31,21.95,21.32,1.13,0.0,1667851443,1493233000,173910000,1682172047,7
4052823256,30147436,3105796069,1476156,3103027719,1484722,19272501,76115346,7590377751,556494,4046421121,424877,180850,13221382394,98333,62.36,25.29,24.51,1.3,0.0,2052320909,1866693000,185068000,2066573502,7
6554243092,30105470,2352423602,1514932,2351451999,1502086,19363110,75662359,7062746461,472411,6528979472,392479,160086,19961824361,98338,59.62,25.17,24.45,1.26,0.0,1914742392,1738134000,176013000,1929070871,7
6602749067,33408319,2259312407,1218717,2260212569,1209228,394244,81344961,6557911243,179454,6602629561,24881,41057,17983131232,425,56.17,23.02,22.38,0.9,0.0,1772137267,1768468000,2999000,1786461112,7
4916014044,21850389,1799765051,1260042,1800018583,1269585,19648228,54941682,4895704863,924032,4910018704,404093,130410,13728657446,97885,41.97,17.73,17.22,0.95,0.0,1319712869,1129595000,189932000,1333988723,7
4026191327,28045069,910014422,1148333,909897384,1135368,29837382,66216125,4267120676,769440,4004476431,475455,125625,10842292782,97896,35.27,14.19,13.7,0.95,0.0,1153922752,962627000,191124000,1168128056,7
1999226974,6819545,447714712,454228,446936494,463134,233930,17262260,1645603927,44353,2000096126,7404,10327,5851738449,330,13.48,5.71,5.56,0.23,0.0,443190101,441037000,2000000,457251913,7
7146277191,30742353,2562401020,1582098,2560757227,1575391,19866760,76448935,7576267598,551901,7129510887,402757,166611,21949851129,98335,63.52,26.8,26.03,1.33,0.0,2043209321,1868733000,173975000,2057619544,7
3141807164,21065771,953222767,848832,952457529,833942,19179679,47036467,2966109874,278225,3154908530,229791,118118,8351088475,97886,25.24,10.4,10.05,0.64,0.0,802007330,640847000,160961000,816565963,7
7351995101,29973603,2450391119,1662071,2448805993,1667024,19379265,78242696,7808466535,466917,7343260447,553107,180384,22278964113,98339,65.31,27.61,26.81,1.36,0.0,2118470484,1937040000,181003000,2132790923,7
3140127812,16792738,646370599,1004014,645620031,1021869,8769011,36193868,3331165793,236993,3147323813,401300,137599,9631001429,97896,29.03,11.82,11.48,0.53,0.0,898795089,752437000,146084000,913029642,7
2503880255,13376983,659386213,612764,658441281,616655,289858,36238260,2601050050,67290,2505520287,10468,16223,9682022791,429,21.32,8.93,8.67,0.36,0.0,702374882,700950000,999000,716720550,7
1996987817,6818678,447831999,586153,447097797,587326,173242,17816007,1642001820,42876,2000563494,6483,10071,5554069250,324,13.32,5.64,5.48,0.23,0.0,443096265,441798000,999000,457377597,7
9639660169,30569330,3251205328,2032967,3249590961,2004052,20094839,85346971,10349494419,573132,9640103018,386586,179408,29845674010,98332,87.19,37.24,36.2,1.67,0.0,2790573559,2612068000,178004000,2804888663,7
9645539957,30608359,3255419926,2066451,3253058205,2064666,19919851,86460058,10411946270,572682,9622035972,440717,202053,29538423432,98340,87.43,37.01,35.95,1.67,0.0,2809612090,2631983000,176998000,2823719824,7
7105782704,33421928,2550117365,1314360,2548930463,1333186,589631,83308963,6961958583,239008,7107972956,29496,43130,19292688149,423,59.05,24.13,23.44,0.96,0.0,1880124287,1877965000,999000,1894401483,7
3502377693,21235686,999926505,1011307,1000165699,996818,19247018,47839903,3214905537,759575,3498001721,500175,147137,9102752516,97890,27.57,11.43,11.07,0.68,0.0,868047223,667539000,199862000,882561447,7
3132947622,16764037,646617256,1052958,646180035,1050391,9032558,35567215,3210030762,224332,3143844017,326015,119340,9611983555,97889,27.48,10.68,10.35,0.51,0.0,867777244,701152000,166036000,882158087,7
11650615934,31099879,3958472183,2413463,3955740927,2412896,20403292,93307785,12711244822,654750,11621725020,447004,226557,35745883798,98331,108.51,46.47,45.21,2.01,0.0,3428943180,3254382000,172914000,3443386096,7
5305225526,26577016,1758252122,983857,1757751445,982380,496443,62181750,4832378866,131040,5306503612,19835,29250,14893415449,328,42.59,17.74,17.27,0.67,0.0,1305121063,1301240000,2998000,1319367805,7
2304859048,32322174,1405077963,563954,1405727573,565695,309889,67434002,3101485105,81501,2306988987,12719,20103,6460986985,433,26.84,10.63,10.34,0.43,0.0,836367796,834737000,999000,850678241,7
4003984322,27554649,698599288,1085901,697714285,1101772,25647875,55713630,3623219744,743927,3975186692,524988,219143,10484185201,97885,31.13,12.9,12.48,0.76,0.0,975752195,778039000,197009000,990161549,7
5207252656,14286251,1762854604,1031968,1761103826,952557,377216,43543054,4619940049,127841,5212827825,24101,31020,14506409862,327,38.93,16.44,15.99,0.64,0.0,1244717404,1242968000,999000,1259147314,7
892714236,16929921,322684521,579739,323324300,586010,8965227,29076191,1317344199,147456,892563389,292757,110418,2498564151,97900,11.63,4.59,4.44,0.25,0.0,354868125,210646000,143759000,369303128,7
9648060735,31128906,3252441083,2054266,3249249508,2060525,20279623,87221716,10450652033,708005,9633039890,565109,181896,30047169402,98342,88.49,37.25,36.19,1.68,0.0,2819175889,2640947000,176929000,2833407822,7
4802350242,21841065,712290756,1191466,710398355,1194976,18765034,53183574,4910458738,766720,4793039024,324303,129770,12997112670,97886,40.86,16.65,16.12,0.9,0.0,1327957762,1132410000,195070000,1342183873,7
7160460676,42880254,2563751620,1584603,2561628829,1600494,26638849,93905324,7545968595,665778,7140736717,809304,179937,21693757674,98438,64.35,26.8,26.02,1.36,0.0,2037173996,1860366000,175940000,2051387938,7
9643059727,30676522,3254414562,2090013,3254072137,2088735,20075242,87346024,10436138734,614669,9622029686,677232,184833,29532755602,98333,88.15,37.23,36.16,1.68,0.0,2826704932,2639613000,185972000,2841120190,7
5422458411,21893515,1143910672,2115843,1143700476,2069793,19165496,54046277,4598265524,229363,5453603323,379711,151022,12623856443,98130,38.43,15.65,15.16,0.88,0.0,1245168311,1090671000,153953000,1259412043,7
2636301807,21186885,646095215,809099,644971102,803686,19301268,47659441,2752014480,283651,2661764058,207805,311296,7833536953,97885,23.79,9.77,9.45,0.61,0.0,743572787,569372000,173808000,757847028,7
2648786046,10256569,486495969,2007366,483623229,1954100,1191466,28974250,1990228516,68274,2654529871,97471,37760,5364675247,2814,15.18,6.23,6.05,0.26,0.0,493120336,490801000,1999000,508177752,7
2017070007,13189327,451003327,465121,447308818,468140,478806,31430337,1616471225,48574,1994304215,12520,12565,5794009666,2092,13.52,5.75,5.6,0.22,0.0,437643190,432222000,5002000,451741299,7
2400782258,6891617,556065441,553089,554880825,563339,234935,17912474,1804636127,47713,2403842026,7699,12961,5465959781,329,14.81,6.09,5.92,0.25,0.0,486284284,483851000,1999000,500370020,7
8445332531,31774534,2653701411,2004934,2651114107,2012287,19898011,82139702,9028691906,620291,8443663354,631596,170934,25157162207,98338,77.2,32.8,31.88,1.49,0.0,2439603756,2259402000,179111000,2454034276,7
6040653626,30001999,1953557591,1463158,1950983920,1472131,19656293,72747601,6229290758,485212,6035330018,567494,158773,17240927355,98334,53.42,22.4,21.76,1.14,0.0,1680429701,1496540000,182943000,1694607767,7
3318196886,21539227,697874808,897660,699129582,898050,19169392,46888274,2989444153,697727,3284220716,307051,173273,8314782336,97893,25.51,10.37,10.04,0.65,0.0,806840397,614315000,192098000,820968184,7
5200486325,14080830,1747453285,989627,1747799299,972218,379788,43163364,4913441881,124677,5206028322,20145,32072,14268005475,336,41.1,17.53,17.06,0.68,0.0,1325142586,1323476000,999000,1339453218,7
7253225617,30138364,2467260379,1612817,2465500250,1618674,19508273,77409133,7866844450,924972,7229921751,791260,183323,21967248283,98333,66.45,27.85,27.05,1.36,0.0,2126520955,1941836000,183889000,2140869179,7
12432488602,31780737,4453308392,2512291,4450255466,2512425,20379166,96340265,13183002142,696337,12415075748,841295,396775,38403874209,98333,111.62,47.97,46.67,2.07,0.0,3555556555,3383461000,170972000,3569868595,7
9648647384,30737184,3253918659,2035424,3251293033,2048034,20251595,86909727,10503590793,588935,9628652572,340566,178382,30043593693,98333,89.65,38.37,37.31,1.7,0.0,2836829743,2664999000,170999000,2851244311,7
3500185673,7194864,1044105892,679703,1045265500,686273,324709,22608545,3020450931,117707,3497401150,12705,17908,9949190163,325,25.4,11.0,10.71,0.42,0.0,815901962,814284000,999000,830399846,7
1897166505,13353190,1147586918,457162,1147434596,456577,231151,35963414,2583162351,64320,1903452471,10819,16450,5407607884,336,21.57,9.1,8.84,0.36,0.0,698607593,695279000,2996000,712869608,7
9041481853,31812041,3051229013,2063984,3053270741,2082985,20289757,85218081,9818057434,552808,9035315754,579736,196494,27825483350,98332,83.5,35.65,34.65,1.6,0.0,2651513063,2485826000,164988000,2666053542,7
4001477671,26359874,652705756,749858,651042682,713919,312181,66039734,2854802861,77203,4008109580,19333,28543,7284142992,447,23.38,9.87,9.6,0.39,0.0,770024049,768611000,999000,784405865,7
3431064378,17008799,647380229,1088963,646969387,1105462,9114622,35742949,3159886025,240198,3444851382,361829,140249,9318541159,97885,27.55,11.05,10.72,0.51,0.0,853440417,684183000,168798000,867831329,7
7001730225,14686128,2448384707,1287538,2449156522,1288348,465950,50988783,6716156435,233148,7005536810,28845,41821,20870567568,426,56.69,24.2,23.55,0.92,0.0,1813086655,1811417000,999000,1827257082,7
5300055704,51569164,1757455693,1031567,1758628931,1017187,479029,111416185,4887492086,122877,5304472587,20682,30149,14277517836,531,42.91,17.7,17.22,0.68,0.0,1322793346,1320181000,2000000,1337190697,7
2648991280,16476426,644167848,1030030,645597115,1014014,9221432,34877370,2713820404,183365,2637899433,354740,115051,7846178740,97883,23.3,9.16,8.88,0.45,0.0,735160020,573871000,160963000,750006952,7
9643620308,30508022,3252127973,1996455,3250491172,2011348,19902348,86489737,10282865997,636050,9612917221,633599,176118,29838486209,98337,86.77,37.02,35.98,1.66,0.0,2782407344,2605626000,175974000,2796789134,7
4003553223,27786604,697836754,1077080,698056056,1077437,25546318,55962971,3611609469,749109,3974120870,312617,121527,10581988001,97885,30.26,12.31,11.88,0.76,0.0,976036607,777740000,197933000,990375415,7
4990729027,14257339,1644823822,1049435,1644979736,1039747,392383,43986153,5275259159,131867,4993047734,20602,34153,14037352709,335,43.97,18.97,18.47,0.72,0.0,1422946495,1420270000,1998000,1437421401,7
5208301416,7859078,1874878500,1950842,1876244561,1939935,283265,29646187,5272873732,134081,5207344514,23078,32819,15045963334,228,44.66,19.44,18.94,0.73,0.0,1423110529,1422563000,0,1437371422,7
5306308152,51914103,1758943231,987802,1758931444,987250,359237,106929565,5152031005,129271,5301454183,20849,33587,14382343351,530,45.51,19.25,18.76,0.71,0.0,1391938692,1390438000,1000000,1406114363,7
4425329345,17500183,946613135,1279472,947004452,1278082,9184196,40592939,4400583459,314711,4443640644,340166,129927,13698144683,97893,38.58,15.73,15.27,0.68,0.0,1190456022,1031085000,159013000,1204935100,7
3134511185,16955299,645002088,1213387,645898627,1220885,8965639,37191428,3487721878,250253,3149390323,333924,208972,9824029836,97901,30.49,12.32,11.94,0.55,0.0,941044434,793571000,147105000,955354094,7
4423439009,7457619,1393951229,759614,1393738735,763272,310126,23838058,3480530602,95399,4423310361,14681,23666,11383154984,234,29.24,12.52,12.18,0.48,0.0,940012788,936610000,2998000,954231390,7
2830334352,16406612,644459148,938209,644720263,927563,8856157,34205836,2945252384,243534,2830325618,389629,116592,8302078496,97903,25.43,10.14,9.84,0.47,0.0,794401189,621022000,173006000,808794663,7
5955323172,30231709,1855022421,1523983,1852882723,1523945,19566921,73603747,6962733122,455575,5949163600,635832,158305,16877643986,98333,58.51,24.51,23.81,1.24,0.0,1879427872,1697815000,180980000,1893753802,7
10145596766,23898003,3353243952,2225357,3351672920,2225468,19853806,78545838,11495347187,465836,10131997779,519025,507890,30442113621,98239,96.82,40.52,39.35,1.82,0.0,3101496745,2944874000,155993000,3115904253,7
1239265782,23019343,571571882,8510916,573090586,8519978,9546645,47649124,2256608337,380279,1242596314,290482,383877,3688037185,6625,19.31,7.74,7.51,0.4,0.0,611176272,544247000,67030000,625381234,8
855878360,7943783,327781430,4288505,328518427,4303171,4087837,21844093,1466738920,62157,858141047,33089,15826,2346294830,4627,12.22,4.83,4.69,0.25,0.0,395619955,387571000,8011000,409800347,8
998713524,9114791,502267991,7392171,505177490,7347284,4282818,23780090,1869003222,275339,1011664705,513489,238514,2851537301,4424,15.74,6.19,6.01,0.3,0.0,504897654,452673000,50963000,519270917,8
708810200,11081137,308193938,6055945,307805938,6072487,5672363,25898761,1693555232,282173,701950046,98814,343318,2003222948,16914,13.78,5.41,5.26,0.29,0.0,444761524,366190000,76039000,458939182,8
1091677589,8564976,431638922,8145412,432310210,8081789,5526326,25990743,1911905516,97848,1091077360,155864,21403,3862950501,6792,16.29,6.51,6.32,0.32,0.0,522482180,502411000,14834000,536782605,8
959039398,8380485,322727998,7361647,322160120,7382052,4377538,22285362,1320106720,92583,964169922,74776,23064,2416810380,6266,11.39,4.54,4.41,0.22,0.0,358118970,345702000,8940000,372650042,8
807765750,8099176,333151127,6663542,329369966,6735473,4901164,22953435,1457162513,75688,802582604,53906,32546,2281740355,7360,11.45,4.72,4.59,0.25,0.0,387841738,372978000,8951000,402182729,8
1579095709,7335064,654954677,4775093,653605274,4750854,3977668,23336766,2527649272,89456,1582710974,33784,25520,4530865747,4826,21.26,8.43,8.19,0.39,0.0,684925448,671045000,9941000,699392257,8
1227843933,10061426,487396979,6947997,490414178,6950896,4755752,26605643,2322380825,305229,1226947017,278655,638119,3361223577,4428,19.55,7.68,7.45,0.37,0.0,629829406,570888000,55696000,644366074,8
1118163691,7363554,493680928,5083688,497576056,5094101,5029411,24288878,1835345724,124297,1120195376,35079,19392,3357988791,4237,15.34,6.19,6.01,0.3,0.0,496100246,481023000,8963000,510518657,8
1582009920,9758218,633173009,8844865,630949251,8832708,4245665,23058482,2265961350,76998,1581864129,45842,23533,4333296467,6777,18.31,7.65,7.44,0.36,0.0,614359258,599244000,12962000,628764938,8
1094349761,18566342,522066227,6368493,522188927,6367239,8914168,44222431,1975089125,337722,1101691409,208499,217014,3422942070,3286,16.87,6.75,6.54,0.35,0.0,534228841,471608000,60820000,548362849,8
997485767,9237764,499922900,7287593,504897934,7263423,4276852,23555716,1869226668,330992,1009224312,46290,217620,2847328117,4618,15.78,6.22,6.04,0.3,0.0,505780739,429393000,74894000,520153800,8
1887309981,8736665,819062499,9022681,818696665,8999605,5281155,28605102,2831643119,293725,1882645247,238048,231408,5656108033,6380,24.06,9.72,9.44,0.44,0.0,767313653,695663000,69865000,781560328,8
284637971,11672047,162939930,2797278,166040083,2763227,9297319,28399787,622564861,3561805,292023317,43069,12131,1013410754,6671,5.32,2.13,2.06,0.16,0.0,169427938,157832000,10988000,183631677,8
1118392049,8071902,540750611,5821528,544141542,5795567,4000304,21630941,2014032556,294990,1126271675,53016,221947,3193042326,4621,16.98,6.74,6.54,0.32,0.0,544280740,489318000,53924000,558582047,8
755093615,14913056,316053287,4669251,318774816,4644232,9312444,37262909,1164729193,59034,757652064,29708,25281,2247638673,4236,10.05,4.11,3.98,0.24,0.0,313831632,301186000,12007000,328156914,8
547784979,7583518,388695645,3222962,389321120,3228846,5425932,22081156,1028240635,48797,552749356,24907,17054,1971334676,7952,8.74,3.48,3.37,0.19,0.0,278853003,264262000,13961000,293147890,8
718090146,8003566,271129879,6189701,274931025,6176439,5357653,21603886,1191501227,55975,726762740,91003,22586,2172554624,4624,10.27,4.03,3.89,0.21,0.0,322128482,314340000,6985000,336520552,8
1363219519,7527446,569729382,7228515,573097490,7190528,4908790,22129025,2204226870,77806,1370915016,31893,28472,4109487770,6781,18.42,7.37,7.16,0.35,0.0,584221277,569403000,11987000,598734824,8
1050122899,9282456,403511295,5855755,400329824,5818835,7709624,26031913,1519160492,783466,1036328792,35106,24595,3165896732,9902,12.46,5.23,5.07,0.28,0.0,410781683,390122000,20006000,425084569,8
953714761,8653547,303923390,7295876,304200236,7207156,5507999,23452253,1313649541,101350,951916825,60954,158959,2332352047,6776,11.31,4.49,4.35,0.23,0.0,355377024,341627000,12985000,369611871,8
887361425,29041419,437287691,7192785,442104957,7173957,22900005,66214385,2091956418,1039274,894485180,58982,25465,2767503847,7755,17.33,6.85,6.61,0.46,0.0,561991816,546200000,14005000,576563588,8
900843866,5824561,329611943,4984353,329934196,4995191,3998894,17653726,1240455234,56381,896050401,45737,20515,2327166520,7951,10.63,4.22,4.11,0.21,0.0,334382381,318839000,14992000,348659665,8
949046931,16362941,443453881,6579977,437265270,6564886,10085685,43007941,1719297509,323755,948057921,52255,25106,3079331983,6572,14.33,5.76,5.59,0.32,0.0,450792238,439806000,8996000,465024410,8
524169470,5873418,203052425,5869649,206522055,5812912,3095652,15783875,861295623,45990,528582658,26922,13582,1415793048,4621,7.45,2.92,2.84,0.15,0.0,232324552,224111000,8003000,246644384,8
310482721,9044282,202734650,7275462,205849885,7097791,6747511,22065014,687298228,52486,316248128,50036,14303,1141832268,6672,5.86,2.34,2.26,0.15,0.0,186275733,183115000,3001000,200424071,8
626422883,5997587,260542604,6472779,261531248,6467281,4014811,17619246,1047580384,62582,620920832,35058,82208,1706317978,5019,8.94,3.6,3.49,0.19,0.0,283702940,275564000,7987000,298005803,8
841457144,8067788,341088944,6560853,344035464,6568241,4369087,22488725,1418532771,88997,844198261,36634,31119,2350767202,4630,11.63,4.74,4.6,0.24,0.0,384131068,375701000,7993000,398555499,8
779497340,13290600,319443902,6052339,323309464,6026203,9885488,29425509,1499175510,127366,778543120,433302,78098,2237423396,63027,12.63,4.98,4.81,0.29,0.0,405703081,304590000,100864000,419928977,8
1354168418,11369665,632753112,7849573,633006883,7876281,11514263,36184338,2530017252,1180957,1368997323,102567,229959,3752034069,9895,21.21,8.34,8.08,0.44,0.0,685541476,612333000,73039000,699722027,8
544612128,5627524,264458897,6006646,266416102,5971098,3424432,16148749,923893375,56493,548716671,39605,12262,1695000446,4424,7.7,3.15,3.06,0.16,0.0,250322993,244020000,6000000,264485810,8
386157110,5607192,232054729,2997505,234002659,2976851,3938308,15533073,718574950,44154,394980419,39933,14840,1329483881,4625,5.82,2.3,2.24,0.13,0.0,184025533,174748000,5991000,198358918,8
1676494221,10340061,1080095413,2036258,1076439275,2017633,4931911,26150879,2627739287,87673,1675355652,29098,23155,6000946954,5801,21.44,8.93,8.68,0.41,0.0,709294656,700017000,9000000,723769634,8
680419555,6364631,284254350,6340021,287954376,6321481,3677140,18398159,1248461141,56427,688522077,50192,16879,1948197322,4621,10.57,4.15,4.02,0.21,0.0,336291509,326959000,8998000,350724878,8
515520149,16740895,221994564,6159538,225732999,6119541,10552455,39446753,964723210,125583,524298101,33315,18136,1663520113,4630,8.06,3.23,3.12,0.22,0.0,249822848,240456000,8015000,264263571,8
1136865004,27544366,541583977,6184801,544103343,6198373,17049534,62945676,2199718211,781903,1144040246,612508,631225,3421912412,6789,19.02,7.45,7.2,0.44,0.0,597383755,512916000,83986000,611548907,8
515831244,5950110,209305222,5853791,210643128,5781042,3252349,15547732,891002031,45657,513239538,36722,18253,1424727638,4630,7.29,2.93,2.84,0.15,0.0,234510374,219109000,11005000,248794573,8
912030953,5569812,332264243,4553274,332347974,4555930,3172989,17065271,1219745553,61980,913695299,19655,14205,2399687919,3266,10.55,4.21,4.09,0.2,0.0,328865047,324533000,3994000,343178794,8
1033633345,14332342,404421005,4783815,405285898,4731694,8779100,38039373,1564672140,191446,1037221859,36119,408666,3017399150,4883,12.88,5.34,5.18,0.3,0.0,425434726,416106000,9002000,439835405,8
642177820,17789017,273462227,6366320,277403628,6354312,10460910,44897415,1192121151,160724,650250524,30925,16001,1972459182,4625,10.3,4.05,3.92,0.26,0.0,322201653,313814000,7995000,336604309,8
1265128746,6498692,464812030,8383227,468195248,8337733,3485642,20346912,1860342437,69813,1270769460,37063,22146,3435989664,4625,15.6,6.26,6.09,0.29,0.0,502511626,494107000,8001000,516739068,8
1324047317,7406011,496272945,7779111,494167201,7737775,5496915,22969096,1733808688,69620,1311007861,56845,19034,3843640444,6387,14.79,6.12,5.94,0.29,0.0,468306210,458905000,8998000,482772179,8
462233069,7650322,199077664,6079471,202783272,6015872,4178897,18933670,875990172,49838,469626237,39758,12862,1564782098,4628,7.53,2.94,2.86,0.16,0.0,236511988,229094000,7002000,250690203,8
493527283,5046485,203932302,5647302,206402981,5581231,3481338,15423284,839428513,58023,495213841,46065,13764,1569970657,4623,7.01,2.88,2.79,0.15,0.0,228371985,216740000,10986000,242700827,8
519071855,8765474,207023579,5789062,211197793,5755890,4993741,20640013,937035107,320900,526923676,36617,20542,1423227693,4622,7.92,3.07,2.97,0.18,0.0,251726642,244377000,6982000,266106113,8
3380078943,37614691,1521315173,2762840,1525092145,2717271,4849930,67468835,3617820920,131579,3377450078,48463,37108,10586443341,1731,30.78,12.99,12.64,0.55,0.0,973881881,970346000,2997000,988380095,8
1268685790,9499560,411613968,7567951,411706414,7530991,6142365,26590047,1726419118,368952,1262963837,39467,22662,3287110894,5646,14.39,5.84,5.67,0.29,0.0,466730353,457272000,9005000,481168337,8
1841172738,17407382,716793670,10669468,716389935,10695305,6844371,41629711,2938848363,1178697,1849764676,116936,248539,5705628049,8089,25.15,9.99,9.69,0.47,0.0,793261687,724574000,66960000,807473069,8
1038859749,8251746,405734826,8053735,406305641,8026415,5122703,23566553,1705477531,101843,1047999652,97885,27477,3277091946,8711,14.35,5.69,5.52,0.27,0.0,450533134,437091000,12002000,465014119,8
1093658741,17061396,439429532,5476696,440132437,5435782,9973827,44648781,2073199816,274730,1096475414,109588,236244,3167635387,4630,17.52,6.87,6.66,0.37,0.0,560363692,492877000,66983000,574607071,8
757032174,6384111,301957891,6634192,307890741,6638115,3585118,18648893,1323999761,55040,761948641,27358,20232,2133302649,4622,10.75,4.47,4.33,0.22,0.0,356428673,345765000,8993000,370784410,8
611146669,9038802,250888226,5879718,253558735,5859261,6212393,23613043,1164542839,1532294,612412066,34749,17535,2203235860,5377,9.88,3.86,3.75,0.21,0.0,314486894,306087000,8002000,328829561,8
758461539,9177666,303679691,6582514,306428412,6532656,5572933,24151525,1347704102,117834,763379299,35876,18502,2149582954,4427,11.0,4.46,4.32,0.24,0.0,363565950,357143000,6002000,377969137,8
728555565,7796711,290365090,6366769,294248983,6374095,4476956,20653428,1182443081,109615,735436692,46814,15442,2253925562,4426,10.15,4.06,3.95,0.2,0.0,319527905,307155000,11967000,333787225,8
1438666880,16458498,671634269,6281967,672473961,6292169,9191569,43548818,2420512746,365933,1438131976,195531,634147,4232785030,3292,20.86,8.35,8.1,0.41,0.0,652955340,583236000,68909000,667165866,8
448213606,17919949,194839033,5649580,198504883,5663688,9503759,41314076,833683944,168659,453668555,18663,14628,1439809411,4748,7.28,2.91,2.8,0.2,0.0,225528785,215152000,10007000,239866574,8
969980360,6303776,494755253,7756924,495308950,7750717,3477157,19540910,1847223009,263163,979116268,97174,220204,2753592325,4620,15.63,6.21,6.04,0.29,0.0,499599466,423962000,74993000,513865306,8
1112226097,16679774,529944992,6765974,534447395,6775476,7716194,38426503,2130810444,1215902,1125563209,71695,229147,3433847796,6039,18.15,7.17,6.95,0.37,0.0,572837605,503305000,66040000,587180750,8
722431582,7329443,317475985,4634374,320361449,4588117,4454638,20000722,1082760677,49587,726151955,41403,12727,2237348373,4237,9.31,3.8,3.69,0.2,0.0,292748957,279460000,12974000,306940568,8
3702114251,26888899,1636387489,8217799,1639943852,8214484,16439182,74413127,6319790788,1363736,3698918188,62448,55781,10875661997,8736,54.02,21.6,20.97,1.01,0.0,1704055216,1686961000,14990000,1718486775,8
1099169233,17908958,499232022,5042242,499434183,5069070,14804879,45338240,2284713678,853483,1102560079,62888,226295,3341782880,9354,19.27,7.43,7.2,0.44,0.0,616711587,553003000,61888000,630896690,8
1086117853,6605487,343995972,7326741,346827047,7296802,4494161,19937052,1405750886,55914,1089241670,36470,27727,2769981015,6584,11.92,4.87,4.72,0.24,0.0,380323029,370886000,8997000,394694734,8
987545859,6633325,495552346,7015015,498065441,6985153,3731105,19787050,1826172983,264552,998891945,66552,624872,2790140816,4616,15.64,6.17,5.99,0.29,0.0,491484012,425813000,64971000,505779569,8
357261077,8226009,218423447,2941451,220865144,2980034,4975836,20237386,656271765,42156,361550401,44488,12976,1247590893,6778,5.62,2.25,2.19,0.14,0.0,177480201,165115000,12008000,191747771,8
1577322008,9098707,619648520,9330528,619495653,9339193,4745522,27417617,2498923397,120956,1583193908,84654,33236,4478674594,8316,20.84,8.4,8.16,0.39,0.0,673842495,663311000,10004000,688093594,8
954447153,8581452,332860466,7297726,333267900,7261306,4695290,22938104,1306212536,85862,948595406,23703,25699,2461941374,4232,11.24,4.46,4.33,0.22,0.0,351956509,345783000,7015000,366198937,8
2297873384,11361106,790603893,10471490,790321141,10475453,9354318,37723178,3329304575,291692,2302076575,107242,38174,6112257535,11073,28.66,11.33,11.0,0.55,0.0,895136524,874302000,23060000,909489103,8
659721851,5117385,283156066,6062013,282104366,6057163,4089406,15640306,1388255414,220419,668899388,40039,16426,2166946930,5166,10.11,4.18,4.06,0.2,0.0,310005939,299380000,9011000,324125649,8
1650743683,8078002,763368758,8122107,760331942,8114251,7385505,29037822,2820042756,526219,1660372720,94563,221318,4731241617,4038,24.25,9.59,9.31,0.46,0.0,759498010,692747000,68171000,773716337,8
1226727376,10012255,588000468,7408804,583546694,7394260,5681901,26316184,2106765640,385216,1227202366,159407,221890,3449219801,6771,17.97,7.12,6.92,0.35,0.0,567157670,497895000,70126000,581380911,8
4019755392,17762686,1642236533,27968819,1642678497,27978385,14240794,63494223,6283440142,1052760,4023387985,67746,51671,10919093574,4045,51.24,21.06,20.44,0.97,0.0,1690976413,1690208000,3003000,1705165973,8
1260251886,7538916,570881811,8408981,572466530,8387605,4782046,22929566,2155018382,325987,1267925073,41519,225535,3465076336,4615,18.43,7.28,7.06,0.34,0.0,580417579,515893000,65112000,594480039,8
1191446243,18462626,559416741,9245039,560742078,9234826,9919841,46040741,2177452770,288933,1199996384,46336,225065,3676134331,4621,18.82,7.52,7.3,0.38,0.0,587690879,525978000,61997000,601970623,8
1079812131,9578598,530967420,7464952,535865199,7471993,5470781,25649796,2030652140,314393,1092045216,68034,610535,3041260213,6847,17.07,6.84,6.65,0.32,0.0,537763605,465990000,72153000,552112654,8
1408186852,12621605,634052314,8585938,634058306,8568881,13306420,39253663,2438834363,858378,1420154924,53938,230163,3592887818,7942,20.89,8.25,8.0,0.44,0.0,658830816,593973000,65106000,673085729,8
2459460710,8295716,952274824,6990664,955508485,7004938,4013265,27497799,3618247254,257599,2464885427,32767,480843,6574404375,3654,30.28,12.22,11.87,0.55,0.0,976926794,971222000,5001000,991180303,8
970098305,5307068,503558267,7057379,496281530,7038209,3657620,18181188,1847122613,258366,953750704,68352,224171,2939735519,4619,15.76,6.3,6.12,0.29,0.0,496566575,418522000,73091000,510734922,8
1626989387,8716941,583172458,5715894,581301477,5693450,4867195,25692401,2292764882,85613,1630004832,36255,20482,4356002023,4430,19.18,7.74,7.52,0.36,0.0,618416730,610489000,8006000,632643628,8
809106868,9031956,323194005,6603818,323190397,6585902,5543296,25473163,1469846397,87452,816935194,28844,198822,2293930895,6584,12.05,4.93,4.78,0.26,0.0,398718737,391712000,7012000,412848091,8
150697698,201512,76533947,65322,74628747,72750,154684,1175567,162553461,6344,154781148,1957,2836,388815496,376,1.36,0.5,0.49,0.03,0.0,46735520,44400000,2018000,60991022,9
168445929,227526,84836954,71563,84520757,69419,134339,1209104,180776868,13261,172557371,1758,1938,454320530,384,1.6,0.64,0.63,0.03,0.0,49068825,46816000,1992000,63109112,9
38518620,178946,20339146,59770,20306676,61432,156626,823392,50761334,2510,59163284,888,7697,119366726,2340,0.42,0.18,0.17,0.01,0.0,13563253,9516000,3806000,27516678,9
930770881,2283901,451692387,379288,451393906,381884,2368790,9054817,1572934757,162928,926153098,76143,101764,2777778556,6239,12.57,5.21,5.07,0.24,0.0,420538166,408113000,11003000,434877231,9
54552512,381896,25639399,58832,24413707,58748,435377,1245685,64093558,8072,53073908,11470,8210,147735356,2087,0.51,0.18,0.18,0.01,0.0,19353878,14059000,5021000,33503664,9
72997173,597931,41046011,71654,41638654,72550,577268,1488537,107302693,10536,69760374,21937,3991,218636012,3122,0.88,0.36,0.35,0.02,0.0,29041324,25760000,2972000,43339071,9
46852538,202310,20626526,57843,20627586,58205,143232,726178,49128860,2026,55576040,2081,660,131605911,382,0.39,0.17,0.17,0.01,0.0,13169827,11946000,995000,27275218,9
25425263,175022,10645617,79388,9221067,53062,140986,545530,32675715,2527,26425037,838,805,80405968,454,0.27,0.11,0.1,0.01,0.0,8551250,7285000,1040000,22545469,9
147989032,234759,74503895,72665,74456287,75092,142452,1142055,156842077,4759,151732178,1733,1511,391016372,370,1.36,0.55,0.54,0.02,0.0,42634816,41344000,1008000,56730867,9
159016303,201189,78913199,72255,75086728,75612,351200,1437677,168173253,10922,152824033,3243,1657,418124259,1372,1.38,0.58,0.57,0.02,0.0,45399477,42107000,3007000,59567491,9
121303371,240804,45452592,80840,45198719,79587,195672,1236929,154642285,4763,124956932,605,998,354145563,452,1.27,0.52,0.5,0.02,0.0,41636996,41332000,0,55754491,9
64721301,378915,23931631,60356,22997388,60234,307893,1007839,63050649,6159,75658338,952,620,198939186,1353,0.53,0.22,0.22,0.01,0.0,17032533,12813000,3942000,31336926,9
73772062,217531,31145067,57916,31978290,51692,134298,841415,73265797,4372,81774123,1404,1200,221956056,433,0.57,0.23,0.23,0.01,0.0,20499414,18245000,2027000,34742235,9
12079548,285285,9645724,53592,12306647,38344,83454,408872,23723945,3143,20109873,984,1983,44231562,381,0.18,0.07,0.08,0.0,0.0,6501883,4195000,2097000,20527101,9
159295775,161918,78745499,71913,76362628,77467,163940,1214587,166795637,22632,153103520,3351,3966,400686224,2347,1.37,0.55,0.53,0.02,0.0,46780434,43451000,3031000,60961006,9
167693656,228627,84315117,81736,86153261,74192,158975,1169159,190428212,7147,169935580,1811,1822,448933920,385,1.58,0.67,0.65,0.03,0.0,51403628,49154000,2006000,65377050,9
86316285,272474,45940127,90116,47689150,76058,148363,830462,83474734,4244,87160444,4724,1717,234468078,613,0.68,0.29,0.3,0.01,0.0,22594126,22402000,0,36662085,9
148815087,339964,76872521,71080,75487932,75875,346615,1534487,171222948,7750,157046043,3625,2560,405471337,1363,1.46,0.59,0.58,0.02,0.0,46258406,42970000,2997000,60654953,9
3724248,261769,6758021,42128,8831498,33916,106567,476403,19112993,1859,18003158,811,2000,36615319,408,0.18,0.07,0.06,0.0,0.0,5298780,4064000,1016000,19399021,9
158472571,233846,77269489,75775,76290407,77181,174088,1279034,162977101,7093,156646501,4769,2940,401734563,623,1.45,0.58,0.56,0.02,0.0,44535054,43312000,1007000,58631447,9
149205731,246961,76459016,71811,75501571,73307,165587,1187097,166027901,6399,149141186,3374,2385,393781648,626,1.44,0.58,0.57,0.02,0.0,45318607,42983000,1999000,59411786,9
176519484,311900,73767328,100154,74677488,100906,184886,1398760,204296227,6533,181222351,2723,2327,499904436,656,1.68,0.7,0.69,0.03,0.0,55266474,53005000,2000000,69577481,9
94093288,364641,48497994,83110,46102370,85135,362831,1219343,97475476,6342,94289978,5662,1757,276982619,1599,0.8,0.35,0.34,0.02,0.0,26193333,22910000,2988000,40357942,9
149326114,212047,75786135,75289,74812259,74238,180015,1185774,166008020,7083,149250715,2453,1595,388453517,624,1.43,0.58,0.56,0.02,0.0,45062251,42750000,1988000,59069882,9
483659303,963549,252103259,327821,252088042,328109,782589,5640507,972123734,36352,505212930,14875,11006,1498654415,2367,7.63,3.16,3.07,0.14,0.0,258907810,254684000,4010000,272984689,9
95781403,365151,49324663,84959,46318962,85701,380894,1294926,98480810,6638,91991577,4499,1521,275777475,1600,0.84,0.36,0.34,0.02,0.0,26496885,21224000,5053000,40597544,9
145510543,235521,74437891,72863,74230163,73244,144258,1111638,156793398,4631,151742105,1759,2015,391257687,375,1.34,0.55,0.53,0.02,0.0,42318559,41097000,1002000,56459505,9
277104215,224264,103391372,119676,102535005,124189,167969,1657595,327767765,9929,279498508,2855,2561,773542932,176,2.71,1.13,1.1,0.05,0.0,88497819,87297000,1003000,102658818,9
32296234,205618,16561869,66247,13277729,58092,159392,603148,39056841,1685,35163690,715,706,108080725,453,0.35,0.14,0.13,0.01,0.0,10381612,10158000,0,24365695,9
55640209,385569,26370873,56539,25071857,58853,429231,1242475,66109799,7923,55123654,11357,8603,158766130,2088,0.56,0.23,0.22,0.01,0.0,17790138,8752000,8752000,32015260,9
150351212,223121,76888290,72612,76944502,73780,146293,1136156,163091991,5664,155465730,2392,1571,395060149,417,1.46,0.58,0.56,0.02,0.0,44244676,43021000,1000000,58227153,9
83930567,271562,36650229,65160,33458029,61897,404038,1123441,82831062,10294,71943301,14801,2548,229875601,2353,0.7,0.29,0.28,0.01,0.0,22500785,17197000,5058000,36817021,9
80583058,856926,39350095,73532,40666887,78427,848961,2027466,101647610,12436,70873044,31320,5811,228783269,4065,0.83,0.35,0.34,0.02,0.0,27069352,18573000,8254000,41176340,9
52432232,198333,22368209,55634,22300522,55474,129494,729923,55902233,2136,63654205,1847,1459,159558856,1360,0.49,0.2,0.19,0.01,0.0,15180992,12978000,1996000,29254281,9
51027294,160163,22975987,57949,19747817,58856,264994,946946,50210891,3986,48825288,1883,505,147221098,1125,0.42,0.16,0.15,0.01,0.0,14307189,10014000,4005000,28459608,9
72070044,219981,30280432,51183,29182452,54753,138054,800815,67287713,3720,75056534,1668,761,212567879,386,0.58,0.25,0.24,0.01,0.0,18529574,16357000,1924000,32548734,9
77055946,469173,39964972,83784,43697006,89031,357347,1161102,101322185,14872,87349536,8638,6835,235702269,4047,0.84,0.35,0.34,0.02,0.0,27108011,23882000,2985000,41285801,9
15507506,249275,8848606,66470,10887747,48563,119394,490080,29069613,7775,19177866,484,2258,59887735,1394,0.24,0.1,0.1,0.0,0.0,7896096,5757000,1919000,21906872,9
33823271,172941,13607249,45700,15723519,48342,266071,696998,39630841,5791,30168972,7681,2631,83183059,1284,0.33,0.13,0.13,0.01,0.0,10529251,8230000,2057000,24606163,9
152709146,215575,77991470,69759,77921222,72418,141455,1119156,163167186,5968,155283988,2253,1582,396780854,373,1.39,0.58,0.56,0.02,0.0,44549347,43257000,1005000,58578494,9
154486119,252286,80412691,76193,80403070,75992,168896,1199876,163199484,6128,154963052,2603,1844,402602433,621,1.39,0.57,0.56,0.02,0.0,44298361,40063000,4006000,58324754,9
13004146,258515,7392624,51936,9551564,38888,105264,480091,26017065,1888,24738801,1632,1275,74172748,380,0.22,0.09,0.09,0.0,0.0,6726782,4329000,2164000,20699461,9
23647977,139699,4100439,71874,9148052,47307,114982,528464,24714944,2884,22989263,858,911,70776835,401,0.21,0.09,0.09,0.0,0.0,6816772,5658000,943000,20995793,9
51964101,193532,21191311,58486,21192213,58143,136212,772870,57858298,2851,64260724,2657,2712,154239729,1355,0.48,0.2,0.2,0.01,0.0,15125813,12887000,1982000,29125172,9
23722931,205990,11602620,75584,10422441,52636,136381,533427,32066947,2248,25271144,776,748,79146392,452,0.29,0.11,0.1,0.01,0.0,9008463,7786000,973000,23246722,9
79519137,226523,40808428,76188,40600732,68953,141648,882739,72376774,4788,78378209,4032,2322,216200155,610,0.64,0.28,0.26,0.01,0.0,20160963,17908000,1989000,34324304,9
84693452,212179,43555817,69665,43489922,61208,144895,795716,82313440,6320,80751498,7400,3334,237336643,880,0.71,0.31,0.3,0.01,0.0,22325687,22096000,0,36508159,9
48768062,207205,20828333,57268,20383942,57239,141294,618369,45509903,1938,54995836,2186,910,141322625,378,0.39,0.16,0.15,0.01,0.0,12571680,10291000,2058000,26581578,9
246745589,223725,86570620,98845,87071432,100229,134487,1473474,304303176,11362,249410667,1612,2406,674345610,180,2.5,1.03,1.0,0.04,0.0,82010690,78782000,2991000,96102696,9
98371282,385245,43080279,71669,37992898,74917,623712,1548279,95690490,11852,88337018,13841,2446,268289312,2350,0.78,0.33,0.33,0.02,0.0,25761348,22350000,3047000,39851252,9
42468932,873426,20963841,112465,22474732,105808,1186118,2738499,94061903,24642,43927939,23691,29940,137069719,6338,0.71,0.29,0.28,0.02,0.0,22329290,14057000,8032000,36570320,9
76098808,269535,43422463,80883,44145666,73357,140690,877570,79089858,11962,79261926,3291,3552,207212842,1589,0.65,0.28,0.28,0.01,0.0,21061054,16666000,4166000,35058063,9
12190739,314913,8097877,52257,11242467,38209,111693,519977,24664690,2146,24669494,715,952,65865860,404,0.18,0.07,0.08,0.0,0.0,6597146,5260000,1052000,20729056,9
191913571,301395,92627986,88404,89128198,89888,390271,1661732,202564167,14990,184813320,7872,1671,523892206,1368,1.76,0.73,0.7,0.03,0.0,54868745,50708000,3977000,68963341,9
82349266,200809,42776359,63080,42037201,57096,119073,814663,75533577,5825,80065344,3392,1716,227466329,634,0.63,0.27,0.28,0.01,0.0,20572007,17251000,3044000,34721826,9
148387127,263362,74745817,72632,74684318,74961,180242,1162675,159658401,5900,151755035,3115,2032,384973023,619,1.35,0.57,0.55,0.02,0.0,43499373,41171000,2008000,59626273,9
1183194,144741,3882081,34584,5594077,33545,101608,445149,15045283,4162,8163551,1326,?,?,625,0.12,0.05,0.05,0.0,0.0,3808671,2392000,1196000,18017408,9
17083980,248071,8490967,64246,9289801,45384,116720,526589,28588879,2165,21524280,934,758,61049890,455,0.24,0.1,0.09,0.0,0.0,7591605,5202000,2081000,21892359,9
153614066,200566,75254226,74412,75319946,74646,138297,1125185,155752240,5315,153699426,2734,1586,399453446,623,1.34,0.57,0.55,0.02,0.0,42649727,41361000,1008000,56869329,9
175953038,227820,65935139,84275,63844095,84728,190751,1357328,201608885,8331,174399023,1284,1627,494164582,432,1.63,0.66,0.64,0.03,0.0,54962652,53747000,1014000,69008665,9
62458343,293313,24136260,57333,23103254,59177,290506,1041359,62942766,4691,70131548,2706,2115,180117153,1365,0.53,0.22,0.22,0.01,0.0,17341953,12032000,5013000,31422183,9
72187814,198777,30295140,53858,29559026,55594,139868,814194,65629900,5020,74153619,1057,706,206773796,391,0.56,0.24,0.23,0.01,0.0,17751686,16460000,1028000,31842209,9
50374869,199287,21505768,59032,21590287,59264,138119,758165,52082321,2249,59251424,1666,1048,152582965,622,0.43,0.19,0.18,0.01,0.0,13725742,11385000,2070000,27560082,9
148579009,214334,74653640,73566,74539999,73441,146221,1135625,158410819,5011,150420684,1975,1530,386251019,375,1.33,0.56,0.55,0.02,0.0,42865766,42647000,0,57003106,9
158083476,238984,84298039,72316,84772203,70618,147123,1416495,183109155,9936,162803931,3694,3133,430648551,448,1.55,0.63,0.62,0.03,0.0,49152389,47241000,1653000,63301561,9
75533920,252650,41567872,71757,41305699,64584,121457,812146,75147660,3320,78022027,2140,1585,219094310,392,0.62,0.27,0.26,0.01,0.0,20171650,19907000,0,34379999,9
96622719,233790,37484554,75183,34523864,74559,372857,1266265,90593003,8046,95108805,980,1639,285700835,1376,0.81,0.33,0.32,0.02,0.0,25874424,23347000,1015000,40020523,9
123047460,204503,73279980,70813,71969933,71962,139227,1136346,167594210,6158,124604892,2401,1921,444269976,375,1.43,0.61,0.58,0.02,0.0,45837710,44630000,991000,59946184,9
150307980,327089,76383259,81236,75865627,80851,248202,1325839,166505818,7771,151681980,5583,5634,401610717,1360,1.37,0.58,0.57,0.02,0.0,45097952,42771000,1989000,59209753,9
125999828,182982,43924931,83734,44637727,84917,268943,1389861,154510304,5969,123942933,1438,1529,354250746,446,1.24,0.52,0.51,0.02,0.0,42095162,39834000,1991000,55944359,9
221505989,1142863,118777606,122821,118288042,123696,1487595,3764159,340080237,29074,219496775,50124,16630,633068703,6294,2.77,1.12,1.09,0.06,0.0,89976392,74682000,14936000,104132340,9
25659345,125680,5360249,67405,10196052,45591,92013,432491,25118214,2836,27312440,1224,982,69912652,148,0.21,0.08,0.08,0.0,0.0,7148246,5924000,987000,21483677,9
147505277,229424,74291561,72700,74370970,72777,138680,1116787,159227342,4855,150931340,1956,1552,386029594,372,1.35,0.56,0.54,0.02,0.0,42781839,40547000,1977000,56788848,9
49517752,330465,22999463,62479,22968270,62868,230206,942740,54709342,3425,56871637,5549,2528,147156459,1119,0.46,0.19,0.19,0.01,0.0,15056231,11789000,2947000,29149514,9
80464270,192452,35579845,61300,31759821,56556,290759,1042411,73846278,7502,71841606,4540,1168,222855330,1374,0.64,0.26,0.26,0.01,0.0,19810451,16682000,2944000,33864937,9
30605986,514283,14978404,61350,8616242,61851,488150,1056500,42017764,20824,26361367,18246,4110,84582006,2363,0.36,0.14,0.13,0.01,0.0,11038756,4911000,5893000,25339517,9
8639026,257555,6790564,48853,9922807,35465,106647,504131,23631169,3619,22725327,659,1766,63339163,656,0.17,0.07,0.07,0.0,0.0,6312756,4022000,2011000,20480393,9
246085498,232440,86629262,98284,87042748,97812,136169,1425219,303388959,11092,249733107,1745,2504,678470176,182,2.43,1.01,0.98,0.04,0.0,82355666,80104000,2002000,96433536,9
145874487,234895,74402611,75469,74522759,75857,212119,1220673,160807371,4674,151119538,2375,1565,386349267,373,1.35,0.56,0.55,0.02,0.0,42822261,40562000,1978000,57184169,9
22839670,260975,11033440,70572,11153160,49770,132515,515702,32151005,2012,27162396,648,765,83199821,452,0.27,0.11,0.11,0.01,0.0,8706679,8496000,0,22694743,9
587371993,2829457,302699159,1183705,303143333,1171276,2658302,9786190,998476391,204887,586808834,54788,149899,1737713496,3518,8.34,3.32,3.22,0.17,0.0,268740115,256409000,11972000,282874583,10
466582495,3230446,245694180,618744,245203646,626071,2397043,9881656,890004743,158997,463006365,36769,26948,1438510482,4375,7.2,2.9,2.81,0.15,0.0,241079114,228756000,11987000,255196464,10
466876554,3137208,233799681,675614,231551109,663259,3051552,10729666,911257169,200106,466502527,37907,28759,1427720364,5798,7.43,2.92,2.83,0.16,0.0,246427283,238986000,6999000,260794239,10
339623056,1477824,181784576,492398,183124331,488174,860053,5818165,588146529,28872,340238742,17268,15638,1049468326,2024,4.82,1.97,1.92,0.09,0.0,159005211,153575000,4986000,173317202,10
398513807,1509691,191763936,1048132,191776568,1063308,626253,5042350,678158496,28541,399976149,15582,17490,1215931572,1891,5.54,2.26,2.2,0.1,0.0,183040580,179601000,2993000,197296552,10
534706209,3684573,266102934,1149765,264989429,1133031,3959553,11798603,1030461793,250020,533098404,34672,32622,1644996852,5751,8.46,3.38,3.28,0.19,0.0,278081069,266713000,10988000,292418318,10
346574701,1118397,168226926,974196,166793701,960533,663692,5189389,589814887,23791,343466791,19489,8027,1069180065,1987,4.76,1.98,1.92,0.09,0.0,159552478,157172000,2002000,173732304,10
364171977,2738806,185848614,670373,185173188,666826,2721106,8615344,724295036,209141,362244528,18428,20456,1117016310,3524,6.01,2.31,2.24,0.13,0.0,195042173,187688000,6988000,209274264,10
385626451,2419219,195450705,621711,194193885,628610,2197989,8052998,736365766,147676,385314883,27831,29264,1184277368,3261,5.89,2.35,2.28,0.13,0.0,200244260,196965000,2999000,214306889,10
437111777,2432504,215191523,1087146,214261988,1093850,2180195,8437505,810160480,186686,434947118,22540,25247,1340646454,3521,6.5,2.68,2.6,0.14,0.0,218458781,210721000,6990000,232847855,10
362833413,1397848,179221575,894256,177448416,896613,781675,5050922,627752300,32351,360247186,21569,13584,1102211160,2025,5.04,2.1,2.04,0.09,0.0,170012793,160709000,8983000,184260690,10
363972307,2748081,185282686,645828,184058537,637869,2800104,9141260,709756126,216510,357756700,19175,25561,1119422768,3618,5.68,2.27,2.21,0.13,0.0,192115300,185800000,5993000,206412798,10
592479685,3451254,307642398,928140,308375214,930406,3128587,10556543,985008605,206287,584502559,30802,119687,1759790613,5035,8.32,3.31,3.21,0.17,0.0,266680751,256361000,9975000,280958562,10
1063524039,2004713,517692965,1675046,516842623,1686528,1429002,9665799,1963017162,67466,1067924781,31981,30230,3206059864,2993,15.98,6.51,6.32,0.28,0.0,530618350,524114000,6001000,544872818,10
380592978,2637777,206408364,656631,204385206,660569,2693677,8874290,754470038,204353,376407787,45662,29327,1182429997,3521,6.05,2.44,2.36,0.14,0.0,204487272,200135000,4002000,218823462,10
413670724,2425662,206777456,686964,203979564,686524,2410745,8652375,793756982,150038,410471442,32074,18475,1273512585,3308,6.45,2.58,2.5,0.14,0.0,214763224,205111000,8961000,229127244,10
422146410,3411865,214120306,676686,212763186,677613,3190406,10065708,836085630,222697,419960667,36790,32734,1295690115,5991,6.72,2.7,2.63,0.15,0.0,226138949,217813000,7993000,240345491,10
571876653,3091255,301264345,1023926,299647782,1022608,2673958,10655075,942849367,160597,559880259,31629,22168,1692027553,3840,7.85,3.17,3.09,0.16,0.0,254955817,246660000,7988000,269445504,10
691152133,5109787,362790986,3932559,362412835,3907364,2908488,15327606,1426235989,176418,693974768,46873,116202,2154471299,6450,11.77,4.74,4.6,0.23,0.0,384848772,367516000,16977000,399083222,10
608683715,3572826,336677867,1017631,336665177,999572,5246861,12673208,1206237492,427131,604727912,53002,27771,1959554744,5993,9.98,3.95,3.83,0.22,0.0,324126922,310342000,12972000,338225693,10
692999901,1716825,341187224,2138122,339087760,2116611,1539338,8118164,1117449251,110296,686898133,27948,22310,2073247488,2764,9.14,3.79,3.68,0.17,0.0,301752194,297345000,4004000,316056549,10
1117706924,2952454,521775962,1436476,520328671,1430671,2472973,12441355,2116567211,152517,1115581562,39500,34443,3432886212,6316,17.12,6.97,6.75,0.32,0.0,570706852,560289000,10005000,584987395,10
371733757,3258384,188172323,624696,187407053,629541,2827424,8741462,719443137,193521,369431987,23350,21730,1142663767,4694,5.89,2.35,2.28,0.13,0.0,194198221,181867000,11991000,208480517,10
606322087,2987713,313230774,1133205,314275473,1123344,2844868,11121302,1013749628,204014,602020994,22452,34643,1789462676,4301,8.27,3.36,3.26,0.17,0.0,274499199,265108000,9003000,288792075,10
327884357,1562568,167617834,513051,165735103,518431,844359,5447480,564482780,33517,328000481,14773,7912,1015411490,2227,4.51,1.88,1.82,0.09,0.0,150858721,145551000,5019000,164993618,10
622185209,3170971,318499214,1254507,316844622,1233268,3125226,11627005,1067350254,213712,625504586,35660,36367,1845334049,5988,8.99,3.55,3.45,0.18,0.0,288182945,276739000,10989000,302402361,10
421261124,3367256,214383819,650654,213206099,662230,3269945,10086262,839617790,200353,417629264,36284,31423,1292085612,5992,6.66,2.7,2.61,0.15,0.0,226567804,215231000,10960000,240737165,10
595241103,4602190,297029842,1047608,297764614,1045699,6428687,14914351,1250922798,644167,592247433,40736,29020,1835524012,6254,10.36,4.01,3.89,0.25,0.0,338644641,330298000,8007000,352924189,10
738914269,1720993,392232345,1406985,391319802,1418210,1431606,8126318,1256625291,46540,737343974,24829,21604,2235466036,2992,10.29,4.25,4.12,0.19,0.0,341432838,327088000,14003000,355802329,10
477475286,1219226,248758135,1016709,248479565,986930,598165,5769855,695915278,32741,471953009,26142,11800,1424264910,2016,5.83,2.43,2.35,0.1,0.0,189570638,185240000,4005000,203784868,10
531983978,1327735,277636804,1538215,274547076,1509898,759961,5781129,813111528,38515,526495348,20444,96961,1570651741,2019,6.71,2.8,2.72,0.12,0.0,219703688,212216000,6974000,233982162,10
489831087,1271841,268474414,1089801,267148902,1076036,763926,6645032,963825467,33338,488445564,25020,13899,1580123520,1889,7.73,3.19,3.1,0.14,0.0,260195081,257769000,1998000,274545225,10
521691463,1395660,270607625,1430475,267807365,1416281,705915,5750967,783843393,31796,520189795,46878,25691,1538203686,2020,6.58,2.71,2.64,0.12,0.0,212857316,205574000,6985000,227312715,10
517402750,4271428,272129971,718795,270742239,702731,4849062,12107482,1072427139,193879,509488523,114837,54084,1626179586,17323,8.63,3.39,3.29,0.2,0.0,291056447,268709000,22058000,305064618,10
445141703,3146868,218304096,627099,215212499,624396,3012126,10574102,869409331,209896,437385858,25534,21193,1368811225,5802,7.22,2.82,2.73,0.16,0.0,235451014,225140000,10006000,249610086,10
356385516,1564438,177138993,694953,175580015,677181,1061726,5867691,597095579,32824,352991365,14939,11767,1128026653,2868,4.95,1.98,1.92,0.09,0.0,162850864,150679000,11974000,176947584,10
353364511,1133112,170738200,930975,170435513,930483,830036,5912763,604622928,32823,352064957,16242,11688,1082215925,2069,4.83,1.98,1.93,0.09,0.0,161524644,156164000,5005000,175888738,10
378874448,1675119,190556639,933121,189723907,925929,1279502,5653229,667337524,44645,377572011,16812,15865,1173944405,2999,5.49,2.22,2.15,0.11,0.0,180670713,173375000,6974000,194840597,10
554250802,2740310,291429116,1156410,290747249,1152269,2813508,9797795,938094469,203228,546732011,30192,31775,1639124641,3518,7.79,3.06,2.97,0.16,0.0,257007301,251757000,4995000,270971321,10
549326251,2747391,290894942,1167053,292312469,1156835,2673754,9616277,929208940,207787,547400072,43780,20200,1628152739,3517,7.65,3.12,3.02,0.16,0.0,253336376,247899000,4997000,267552651,10
539418058,1524897,278886944,1423435,279076215,1441026,687170,5406990,828815057,44059,542561612,23801,25170,1600474763,2018,6.87,2.85,2.78,0.12,0.0,223447730,219146000,3984000,237606493,10
532364557,1488191,278012474,1717572,274680448,1715882,785666,5325128,818581530,42514,527263695,26025,16564,1567346717,2018,6.81,2.8,2.72,0.12,0.0,222331829,218082000,4001000,236523853,10
590722243,2215417,307254225,1201354,309085345,1193535,1391722,7581019,919580021,50384,598610088,35530,21014,1768076498,3451,7.63,3.12,3.02,0.14,0.0,249484234,241152000,8005000,263705568,10
612173598,3454366,324767234,1129990,323725141,1125457,3233578,11493110,1050339688,205627,603843985,69592,38700,1823597151,5798,8.71,3.54,3.44,0.18,0.0,284733185,274359000,10013000,298945365,10
883234169,5154637,482631606,1640148,483784235,1645242,6194905,16690159,1713997599,557914,889326471,69109,46737,2751488142,7686,14.39,5.7,5.52,0.3,0.0,462280014,440918000,20996000,476513453,10
421080768,3416832,214005879,653900,213082630,659642,3137617,9989937,833642018,222810,419553239,46574,30746,1293527025,5990,6.8,2.71,2.62,0.15,0.0,226178100,213858000,11992000,240643155,10
690831194,11573225,361363196,3865010,361426229,3877007,10852245,31498219,1780090324,1345624,689175815,49276,33199,2126411218,7146,14.51,5.59,5.41,0.36,0.0,480218547,466434000,12984000,494530478,10
426998888,3712194,223192240,804753,223386134,805413,2981468,10222984,839558679,200498,420716341,48826,62440,1319988597,5797,6.8,2.76,2.69,0.15,0.0,226460783,214166000,12009000,240709408,10
493862218,3774319,263372399,665587,259521392,656618,5045632,13344835,1007488386,338868,488828579,42845,36693,1545850960,7032,8.28,3.25,3.15,0.19,0.0,272323022,261025000,11001000,286690244,10
420380644,3364079,212324848,646009,213088725,658501,3088946,10293437,836145841,208409,418480710,33953,34937,1292804252,5993,6.59,2.65,2.57,0.15,0.0,228728341,221357000,7011000,243145838,10
579002564,3791893,304969320,1138705,304278838,1137156,3068754,10505039,984481311,194875,573945127,39612,35767,1722588012,5789,8.17,3.26,3.16,0.17,0.0,267885964,255654000,11983000,281804461,10
510959095,1619886,257387080,1039629,255461411,1043526,664223,6304231,967761006,36776,512389130,17084,14717,1576889061,2070,7.74,3.18,3.09,0.14,0.0,262890243,260586000,2004000,277138403,10
420899931,3225071,214194995,651863,213572500,648391,3302508,10688519,844591108,229919,419274767,42363,32331,1291523773,5991,6.69,2.65,2.57,0.16,0.0,229897509,223592000,5989000,244155841,10
522947849,2259326,249745044,1046174,248850563,1041817,2719879,8617485,948927780,230048,518372796,17786,29765,1627778999,4140,7.78,3.13,3.04,0.16,0.0,256844403,249548000,7015000,270998245,10
420241793,3378277,213306911,647616,212720784,655559,3160928,10054972,838007349,207189,419157178,35179,35819,1293412576,5990,6.79,2.68,2.6,0.15,0.0,226765342,214491000,11971000,241121857,10
566953336,2749906,299207178,1104081,298034166,1092921,2666957,11290497,960572136,199198,565490079,38922,31842,1696452078,4631,7.9,3.2,3.1,0.17,0.0,259814814,253582000,5990000,273943765,10
691810608,2679585,379934247,1654923,377037388,1637741,2699273,10128262,1151291394,138564,682824051,38304,30393,2074809319,4233,9.51,3.9,3.8,0.19,0.0,312063442,303705000,7992000,326383587,10
669820037,3307782,336278367,1152687,334754082,1142343,3385197,11466103,1145814752,217618,673066735,42000,37592,1992352360,5796,9.64,3.83,3.72,0.2,0.0,309474719,300138000,9004000,323716977,10
367847979,2653233,185994667,662677,184834122,664100,2649465,8817386,721238320,219728,364174571,46920,26752,1123175063,3523,5.7,2.31,2.24,0.13,0.0,194400831,188083000,6002000,208599669,10
404969008,3444228,201108263,628685,198659904,630287,3356162,10671424,791427876,207629,399326972,21803,29528,1230916745,6185,6.42,2.58,2.5,0.15,0.0,213544495,202206000,11011000,227769135,10
374018462,1316493,182454952,973760,180229849,971689,763295,5415820,628157552,28118,369018246,10214,14955,1131776704,2022,5.11,2.11,2.05,0.09,0.0,170817903,168411000,2004000,185126828,10
385476366,2828306,195310543,615396,194812670,616678,2867168,9805846,735656876,198043,378389517,31783,30614,1170547516,4304,6.01,2.39,2.32,0.13,0.0,200109706,188802000,10988000,214321709,10
387721788,2686261,196991103,666696,195147601,669569,2761885,9014515,755940689,212352,385862835,29010,18776,1188847265,3520,6.11,2.46,2.37,0.14,0.0,203405723,194088000,9004000,217499408,10
583202791,7452921,315069886,2459084,313913675,2452371,7354621,21926126,1411791116,894816,583735272,41591,169999,1822643893,5605,11.26,4.55,4.42,0.27,0.0,380791618,372415000,7987000,395178479,10
460669466,14027880,476448042,2362416,475358025,2360919,3700775,12573707,1016117913,72428,449338424,32045,27384,1816600508,7927,8.49,3.44,3.34,0.18,0.0,273948848,259538000,14029000,288202825,10
709256493,4775388,374514447,1143569,377687628,1146344,4657743,13241376,1233959547,336346,701400273,53209,38115,2143433765,7034,10.33,4.16,4.04,0.23,0.0,333545988,321194000,12007000,347851944,10
506239540,1299410,263728916,1446378,264376416,1428426,699826,5908621,760954981,38775,503724089,20002,16043,1499644208,2017,6.13,2.6,2.54,0.11,0.0,205236021,196804000,7992000,219464095,10
350942410,1494152,172479726,914068,169988766,933522,675701,4519614,614199372,28731,353088409,21402,11263,1082804213,2219,4.99,2.07,2.01,0.09,0.0,166398232,163091000,3001000,180606513,10
505464733,3033294,253773158,1024398,253705023,1003735,3466812,10355718,974800017,233427,503020827,39465,31567,1555895501,6481,8.11,3.21,3.11,0.17,0.0,261949187,250624000,11027000,276234583,10
458502642,2655829,227550457,1072216,227584313,1053522,2850927,9239478,878760881,220678,456994688,24311,24872,1401542073,4138,7.18,2.87,2.78,0.16,0.0,237563932,229238000,8008000,251738911,10
734453226,1651521,388119302,1591093,385254747,1570581,1189450,8065072,1264111579,45270,732846407,23771,28381,2226286100,2994,10.27,4.28,4.15,0.19,0.0,343058043,333758000,8993000,357202978,10
481078306,1435400,253477214,1197196,250490507,1203121,677500,5076699,721438965,30627,482846349,22357,16128,1432798584,2019,6.09,2.47,2.41,0.11,0.0,196172241,189787000,5993000,210349493,10
1358098438,16943031,708053072,2534160,707404291,2510288,3394178,15666129,2296344086,216438,1358331310,58576,45915,3959041691,4821,18.9,7.65,7.43,0.36,0.0,619436971,607848000,10997000,633455960,10
552790712,1657007,283915366,1043761,282003540,1038735,1170623,7293582,1048871532,48468,547080093,25826,21452,1724704564,2999,8.54,3.43,3.32,0.16,0.0,287118533,283656000,2996000,301194464,10
290869721,1219274,154051442,417021,154459936,403138,657944,5303279,491643088,22846,291745245,12937,13616,904119695,2023,4.05,1.66,1.61,0.08,0.0,133918319,130519000,3011000,148044630,10
515483298,1651189,272067781,1132590,267540460,1150316,1058473,6139828,776389488,32822,517745603,28058,16811,1533678689,2865,6.63,2.59,2.51,0.12,0.0,213500765,207117000,6003000,227884437,10
356193810,1566094,175395549,959115,172978400,967002,810589,4937158,620609234,29124,352686180,23205,15969,1089672273,2803,5.24,2.1,2.04,0.1,0.0,168481756,162097000,5966000,182674305,10
450231439,2219792,230761206,947591,229672744,961762,1590513,7086964,831653732,39654,450289826,23663,34378,1418266186,7171,6.86,2.71,2.63,0.13,0.0,227102332,214594000,12033000,241206925,10
579424643,2732225,319071320,1158090,318259009,1157148,2804623,10002545,978340104,220132,573313583,46210,26424,1725871047,3521,8.19,3.29,3.18,0.17,0.0,264037237,252594000,10982000,278512139,10
397051095,3087033,212834286,652850,211277347,639954,3261356,10406025,788304347,198506,389208506,51531,143110,1227297148,5895,6.65,2.59,2.5,0.15,0.0,214080138,204670000,9029000,228160823,10
412614726,10547027,114215101,5812586,115169401,5797971,144399,2897187,635807363,17657,412969269,3343,4178,1106739513,200,5.28,2.18,2.13,0.09,0.0,172233698,170870000,999000,186352445,11
810614255,22557074,265334870,5931325,267740543,5871866,152502,21095375,1104127556,28771,812279915,6816,7308,2340693991,226,9.05,3.93,3.82,0.15,0.0,298456960,296989000,999000,312554885,11
673240913,13129561,237218627,5984478,237048869,5980690,266438,4682430,1134530235,28227,675235212,4606,8075,1862453387,174,9.14,3.75,3.63,0.16,0.0,306529760,305837000,0,320639435,11
1021312650,27025375,408988495,6286946,409089283,6262936,547979,8588141,2013647431,55733,1017972068,24725,40276,3117173346,2889,16.6,6.56,6.37,0.28,0.0,548045958,541405000,5993000,562209504,11
339404412,12841376,234642094,5906894,234016855,5898138,144472,5470134,682020167,17505,339354800,2907,4527,945995358,176,5.49,2.18,2.12,0.1,0.0,185905575,183288000,1992000,200190409,11
904385589,21440572,366399704,10402463,367377709,10381919,168634,10070786,1632156435,40374,906035514,6791,11026,2638044717,183,13.85,5.65,5.48,0.23,0.0,442266019,440749000,999000,456367203,11
4638927485,26049619,2283933376,6990081,2285140561,6989924,533050,47456394,7905087010,195945,4640831375,36522,67415,14470899965,221,63.99,26.97,26.22,1.09,0.0,2133855324,2130273000,1998000,2148209118,11
672729035,13044294,236674987,5986393,236838490,5987628,192344,5492423,1138042329,29208,675677449,5149,7544,1864054859,174,9.18,3.86,3.76,0.16,0.0,307689599,306247000,1000000,321521646,11
516022530,6559306,129445144,5498163,129999389,5500764,145389,3056804,730643252,18313,518751775,2817,4842,1470525824,183,6.08,2.58,2.51,0.1,0.0,197082355,195736000,998000,211435019,11
567591039,12434153,157334311,5876251,159077790,5838652,186958,5496010,772851710,18874,568535550,2893,4948,1577416072,243,6.36,2.77,2.7,0.11,0.0,208947691,208609000,0,222982664,11
224050809,13052865,29916117,4651428,29889613,4658253,132776,2941271,420349396,10865,224911180,1677,2671,474694187,177,3.37,1.43,1.39,0.06,0.0,113623830,113345000,0,127886399,11
1968687472,8212717,861078814,6247614,864606925,6239425,234703,13568998,3912297118,94535,1976326931,37620,26040,5757094284,175,30.68,12.47,12.1,0.54,0.0,1057821206,1055030000,1998000,1072060624,11
1619752565,9631697,697121261,6152165,698819259,6152573,307108,11364365,2900347763,75557,1621555844,57270,18618,4782429692,188,23.07,9.54,9.25,0.4,0.0,782633077,779851000,1999000,796868677,11
7249159,190928,4199294,61147,5985390,60846,70654,464689,21201698,2050,12928809,1317,1735,34868199,210,0.18,0.07,0.07,0.0,0.0,5656662,5412000,0,19681541,11
2977701206,48555022,1498888175,41053454,1502353058,41004498,315481,34189308,6813899154,165276,2985001340,32645,45679,8936507815,181,54.36,22.6,21.93,0.94,0.0,1841268652,1839044000,999000,1855522168,11
682752521,13791000,704800250,5768463,704672317,5760362,153937,7884170,1589750096,39487,683425971,7044,10594,2831351523,237,12.82,5.34,5.18,0.22,0.0,429721699,426298000,2995000,443736477,11
637244874,13031768,236793154,5974057,237206221,5965684,174416,9291927,1098318656,27790,638108842,5073,8097,1832477187,223,8.94,3.86,3.74,0.15,0.0,297098509,295698000,998000,311115657,11
673351623,11382151,238225442,5990850,241730838,5947146,154463,7754229,1130076950,28556,680946381,5797,7414,1878107879,208,9.06,3.72,3.6,0.16,0.0,306891567,305792000,999000,320907841,11
496706966,6622552,155061074,5769278,155110397,5756279,145812,4555417,900698943,22500,497244809,4254,5954,1239870974,180,7.13,2.99,2.91,0.13,0.0,243617573,243443000,0,257739860,11
1050010960,21111418,366863924,5928094,368384743,5915527,143770,20859442,1473642099,37340,1052007562,6169,9908,3278282046,211,12.13,5.22,5.09,0.2,0.0,398453687,398318000,0,412571241,11
1310152874,14436041,470423423,11908577,470553397,11894973,239908,8306927,2079268163,54114,1311114556,9951,15604,3634044015,174,17.13,7.0,6.79,0.29,0.0,565344508,565164000,0,579656053,11
1194675294,13392556,537998145,6027850,538201392,6015318,191298,10494879,2135164200,54570,1196678318,10644,14425,3596598521,223,17.0,7.11,6.9,0.3,0.0,579153964,578031000,1000000,593276655,11
959750878,26317724,362908384,10848354,363753098,10840500,166421,22963293,1715383101,73087,962326618,6960,11358,2545807269,217,13.82,5.81,5.65,0.24,0.0,463907471,460759000,3004000,477839017,11
422853566,6460457,112207607,5199949,112803960,5193657,125054,2678852,632582213,16661,422586009,2497,4235,1096803929,198,5.32,2.27,2.21,0.09,0.0,170716862,168525000,1994000,185042951,11
431962698,13690379,154245414,5746249,154838132,5737662,140089,5297258,832080503,21906,431656510,3719,5362,1188090230,222,6.67,2.71,2.64,0.12,0.0,226561481,224345000,1994000,240627188,11
2146195883,14438867,941862083,6360715,942912035,6362186,334616,17354456,4243018439,103382,2149520748,17017,37356,6417469300,213,33.4,13.6,13.19,0.58,0.0,1144693794,1141524000,2998000,1158936170,11
721437608,23174990,289023507,6114546,290110025,6119911,218767,15157422,1384813845,34838,723121613,7517,9288,2110344380,198,11.68,4.64,4.5,0.19,0.0,374723860,373447000,1001000,388605034,11
970808249,12675475,333529852,5892279,334033302,5889804,131546,5916873,1208127481,31508,970991745,5342,8248,2968391907,174,9.9,4.24,4.12,0.17,0.0,328725352,328532000,0,342676114,11
710824336,21246342,281054113,11110893,284539350,11048004,208310,9047657,1502298116,38276,718216494,7411,10460,2049209275,179,12.28,5.06,4.91,0.21,0.0,406278954,405131000,1000000,420155369,11
921842536,21536305,361185243,11338738,362537364,11291082,275318,20563785,1593992602,39039,922278582,7338,10254,2617497298,221,13.06,5.41,5.26,0.22,0.0,431243772,429909000,999000,445262372,11
919748644,21430619,360310588,11255798,361652751,11251228,148898,22600223,1586006919,39285,920845320,7633,10703,2615338406,222,12.96,5.4,5.24,0.22,0.0,429395293,428194000,1000000,443694211,11
4852045525,37797519,2385563253,7002374,2386542648,7015732,698656,67538727,8241778676,449002,4853796539,82687,51666,15265206917,262,66.75,27.82,27.01,1.14,0.0,2225941213,2223556000,1999000,2239966011,11
792092328,24747247,235767515,10732374,237837004,10689047,167431,8735185,1255549812,33581,792469966,5586,8167,2161345001,197,10.37,4.43,4.31,0.17,0.0,339710022,338508000,998000,353887339,11
217276626,7584588,30505266,4266631,30407968,4273048,108368,5237445,373555443,10083,218307412,1519,2434,614416583,160,2.98,1.25,1.21,0.05,0.0,100895247,97627000,2988000,115119845,11
1860137903,23989144,1765732770,6211452,1764494283,6213951,340476,33682450,3335807876,81251,1860987783,14365,20497,7195360165,238,27.22,11.5,11.18,0.46,0.0,899812183,898556000,1000000,913915900,11
473898169,6563454,159077784,5949536,160228043,5948756,145313,3597377,923009760,23153,476056772,4127,6148,1293041630,190,7.42,3.09,3.01,0.13,0.0,249370606,247054000,1992000,263411727,11
2142063914,40174742,1122988101,11984156,1120345480,11937634,22269586,45322240,4809217349,358023,2141512783,515738,146755,7032547500,117354,38.9,15.35,14.85,0.83,0.0,1299194774,1137778000,160968000,1313455513,11
673737772,13045725,235861481,5986114,236703364,5975624,166054,4522859,1132568746,29459,676128690,5706,8296,1863600536,176,8.95,3.72,3.62,0.16,0.0,306625927,305264000,997000,320647130,11
673797276,13143831,236092500,5985872,236716739,5982516,151518,4845956,1143402837,31426,675312517,5314,7927,1865821049,176,9.28,3.73,3.61,0.16,0.0,311067054,308729000,1998000,325116807,11
991530103,12933406,310972429,11502343,311571338,11488518,156933,6118808,1652243170,40650,994737758,7105,11291,2371382747,184,13.2,5.55,5.4,0.23,0.0,447387710,446155000,1000000,461513926,11
1274170077,13402679,616071068,6092234,619425456,6089725,238927,11191046,2518947350,64429,1281374619,13249,16405,3825923663,207,19.9,8.12,7.89,0.35,0.0,680179068,679904000,0,694621982,11
1105779116,16284673,450997046,5935026,454524545,5906408,197754,11197463,1574748379,41018,1110466350,8522,10647,3247820842,183,12.83,5.39,5.23,0.22,0.0,427682731,427261000,0,441862425,11
4643598014,26506180,2286938296,6948207,2289347931,6966594,665344,50087027,8205843793,243292,4647508972,72748,49552,14491195085,217,66.29,27.56,26.76,1.13,0.0,2215184369,2212491000,1999000,2229518802,11
678702545,13000387,238418225,6006758,241960386,5968310,150356,4930393,1164900813,30654,685435521,6338,8142,1882795552,215,9.47,3.97,3.86,0.16,0.0,314156934,311853000,1999000,328248357,11
597341647,13121965,241876768,5865222,241191458,5811864,256952,6282263,982153615,26208,597700752,6695,6353,1589786797,995,7.89,3.28,3.19,0.14,0.0,265749603,262385000,3004000,279992914,11
233426625,40535295,29815930,4820079,31346359,4720794,469502,52278660,687566650,9089281,232449643,20899,7841,679204451,3555,5.31,2.13,2.07,0.1,0.0,186365950,184055000,2000000,200544078,11
9284613458,45287549,4610645128,13828184,4613120714,13844809,1054555,91604198,15944030991,597748,9289980281,122163,100541,29098974672,228,129.9,54.32,52.77,2.19,0.0,4301524745,4298325000,1999000,4315742323,11
218184740,7658204,30635007,4252700,30633038,4259245,112340,1718205,374247427,10312,218436203,1539,2413,618591337,159,2.96,1.23,1.2,0.05,0.0,101073515,99686000,996000,115473785,11
673835083,13068075,235282086,5972439,236851362,5969098,155012,6510761,1130613138,28757,676407370,4256,7178,1861335490,174,9.09,3.81,3.69,0.16,0.0,306169605,304866000,999000,320309512,11
4596278267,26234041,2265476191,6942362,2266548148,6941176,491958,48337281,7990752716,195090,4597281398,36828,51111,14291823632,231,64.61,26.63,25.86,1.1,0.0,2163040099,2160855000,999000,2177269352,11
526917876,24296073,515497145,10519101,515730061,10502405,176354,24018411,1349041759,34331,528062516,6461,8876,1871509298,194,10.84,4.32,4.19,0.19,0.0,367939902,365626000,1997000,381952011,11
945854436,25452469,368615635,10604155,371750038,10556892,274834,14616989,1673817160,41202,951317634,7883,11243,2663089451,188,13.36,5.49,5.33,0.23,0.0,454116608,452716000,999000,468211362,11
671729141,7609370,256489599,7493396,256834944,7498546,277476,4848178,1194145611,28859,674500033,5668,8210,1914626348,162,9.67,4.04,3.93,0.17,0.0,322617951,321168000,1000000,336924124,11
965976665,11546580,356456556,6110868,353752753,6052643,384684,6842136,1571779562,43932,959391602,14770,12154,2744994636,1349,12.86,5.35,5.2,0.22,0.0,426089928,425672000,0,440020981,11
4667683393,27699945,2314490741,7262512,2311405001,7186145,627736,51519031,8490035969,208080,4656591171,82934,62976,14569457968,221,68.71,28.35,27.53,1.17,0.0,2301368266,2300481000,0,2315647006,11
869533302,21418605,313476877,5900313,317122070,5881794,153540,21512234,1330083871,32948,875043452,6592,9091,2456268383,206,10.86,4.63,4.5,0.18,0.0,359575637,357318000,1996000,373443407,11
655546468,8813280,270230112,5984837,270719740,5992447,154492,4469627,1070550933,27581,656088411,4843,7407,1939222646,175,8.85,3.68,3.56,0.15,0.0,289940687,288647000,998000,304158662,11
4739842834,26231784,2341552088,6982175,2343218408,6991734,559784,49151520,8231579983,638240,4742683083,32309,51870,14868744681,215,67.4,28.05,27.24,1.14,0.0,2227431673,2225799000,999000,2241673712,11
1394892194,20140014,494430953,12037633,498212989,11994635,195389,9493823,2248476026,57127,1400826439,9361,15450,3846431086,171,18.16,7.48,7.25,0.31,0.0,607274822,606836000,0,621516014,11
1270655552,13474390,612896155,6086408,614121545,6087659,355466,9897159,2495792286,62033,1273417614,11289,15530,3810306962,213,19.76,8.04,7.8,0.34,0.0,672612061,669078000,2995000,686855049,11
467389097,12790527,115407981,5385175,115451832,5386399,105508,4118927,650539393,17139,469296008,3251,4630,1175562915,173,5.44,2.35,2.29,0.09,0.0,175728330,173443000,2005000,189685878,11
674298821,13191429,236972949,5985426,236951848,5965659,185748,6508353,1153963809,30449,674715774,6197,8843,1803379924,211,9.42,3.91,3.8,0.16,0.0,312464640,312112000,0,326738695,11
4636660098,26947183,2288014040,7090611,2288852594,7097141,898787,49070741,8069112162,425958,4634963874,60515,49034,14463689543,222,65.3,27.12,26.34,1.11,0.0,2174172937,2172210000,999000,2188155878,11
806925807,23887672,247698559,6016299,248879469,5974831,163369,24314787,1092307820,27734,805327764,5012,6559,2245612832,229,8.92,3.82,3.71,0.15,0.0,295188340,292879000,1992000,309303266,11
417695768,8185984,111314130,5913629,115443788,5834768,161050,3067976,669247391,17140,424514091,3750,5119,1119912705,191,5.57,2.37,2.3,0.09,0.0,180549080,178107000,1990000,194730684,11
809681976,22607453,263503079,5902581,266825275,5857338,152487,20155737,1046239210,27352,811893988,5344,6451,2373427749,208,8.67,3.67,3.58,0.15,0.0,283585136,282209000,1000000,297461094,11
2144882257,14388321,942923917,6293552,946634842,6295712,448594,17755869,4129368626,99634,2152241173,17745,26721,6415600996,169,32.62,13.34,12.94,0.57,0.0,1114180341,1113502000,0,1128470331,11
2056852966,7981353,644431371,7890524,644678272,7900894,319107,9999718,2719202966,70263,2055895251,11927,17513,5815229505,183,22.03,9.26,9.0,0.37,0.0,733279339,730747000,1999000,747369141,11
1204977056,13177466,542159272,6029558,542845293,6017530,192534,10318873,2130441772,51245,1207540185,12819,13179,3574951772,223,17.09,7.1,6.9,0.29,0.0,575077310,573713000,999000,589338810,11
4771617069,26211381,2364588952,7002538,2365168733,7003078,702260,50125554,8358151708,379309,4772856834,221405,54838,14964745271,247,67.47,28.02,27.21,1.15,0.0,2260205401,2257027000,1999000,2274143691,11
1121385693,21285170,392626212,5949535,395593699,5925457,228751,21948947,1586234332,39749,1124362478,7763,10205,3514289993,216,13.09,5.69,5.55,0.22,0.0,427660108,426186000,1000000,441851416,11
724638564,18847968,331703962,4702218,332524510,4696354,166646,16165913,1365484262,35341,726241006,26348,9149,2130169983,329,11.3,4.56,4.44,0.19,0.0,369918782,367511000,1997000,384143460,11
862202111,22664285,313264230,5842378,314902254,5823854,228736,21125796,1296631433,32744,864031042,4857,7708,2398103072,262,10.63,4.4,4.27,0.18,0.0,351711616,350278000,1000000,367662422,11
878591092,20250907,196718349,13209586,201803445,13104782,137327,5122558,1326910979,33905,885634685,6757,8542,2346330436,174,10.65,4.53,4.41,0.18,0.0,358268908,355868000,1999000,372222895,11
1108926773,13695622,532035522,6040236,532934181,6034016,279300,10143572,2229527369,57795,1112282768,19951,14564,3139155404,223,17.69,7.22,7.0,0.31,0.0,599937822,596306000,3001000,614212370,11
1370087459,12912320,608522706,6426031,606784802,6338209,562881,9796780,2323754238,69016,1364430371,77906,37744,4111579071,1022,18.77,7.78,7.54,0.33,0.0,626281174,623775000,1999000,640400146,11
4722885604,32674930,2390751821,7956124,2396539581,7953544,1110533,62614110,8207907193,307049,4734951965,73445,71211,14916482938,1060,65.14,27.32,26.55,1.1,0.0,2143651787,2140612000,1999000,2157920244,11
786389031,12886392,263424164,5800719,264003548,5808769,529770,8347874,1095216847,31214,788965474,26148,10206,2417086652,2526,9.15,3.82,3.71,0.15,0.0,295345320,290979000,3999000,309529830,11
2081307788,9446273,895615786,6224798,896089627,6213349,275090,14541896,3771158960,90099,2083385054,20858,225405,6228914789,206,29.75,12.24,11.86,0.52,0.0,1017920594,1016156000,1000000,1032197400,11
4639725622,25194096,2283633942,6981240,2284486551,6986336,774571,47600847,8062890655,228067,4641899967,156845,48945,14483678067,221,65.39,27.48,26.7,1.11,0.0,2174529053,2170354000,2997000,2188807504,11
2053530514,26857684,893943670,1976101,892585252,1978674,1030643,17160990,3071829178,91659,2060344144,32088,33251,5932317295,4042,24.84,10.32,10.01,0.43,0.0,828994996,821702000,7005000,843337689,12
988735410,9404431,553927580,1837494,555623453,1844049,1326780,8281697,1616962735,53161,997066386,31564,26850,3008625152,4817,13.73,5.54,5.4,0.24,0.0,436453883,430283000,6003000,450790376,12
538335160,572740,284249166,747784,284628521,757576,249884,3136582,634817750,18823,545533593,15422,5472,1561748425,519,5.38,2.23,2.17,0.09,0.0,172143174,168927000,2998000,186311799,12
634263916,13842587,346998545,1005385,345467452,1014531,800459,5562727,1100367176,34154,636632376,15911,16498,1960306953,2479,9.2,3.73,3.62,0.16,0.0,297569635,294361000,3003000,311909038,12
836991934,19663519,444682596,1345275,446427195,1338817,1301143,8426629,1451132013,48583,845016647,40034,38674,2486430682,4821,12.17,4.75,4.61,0.21,0.0,392731586,379538000,12984000,407093662,12
406197674,1817703,219353553,355977,217726565,350654,629867,4874291,548734937,22955,399690976,8697,9806,1217800279,1697,4.48,1.87,1.81,0.08,0.0,148700248,147407000,1002000,162632803,12
536111038,586094,284300613,759518,285230775,767011,268295,3232106,637318247,18746,544678861,15358,8215,1557949974,522,5.32,2.23,2.17,0.09,0.0,171376486,168136000,3002000,185459436,12
557796354,758620,297480408,730654,295359996,751244,209287,3286106,668503023,20551,556090156,37218,8611,1616166207,995,5.74,2.38,2.31,0.09,0.0,180237879,178983000,999000,194333416,12
1281674933,18716164,695284100,1935401,695536673,1914331,5481980,17288403,2254680290,117823,1288944959,79247,55799,3875144208,10650,18.34,7.61,7.38,0.36,0.0,608727686,586436000,22016000,622973153,12
419208360,507049,222845830,642861,221951484,671609,215424,2425676,434772503,18460,408877030,15738,4327,1156752433,519,3.73,1.58,1.53,0.06,0.0,118475436,117230000,1001000,132670019,12
432728276,997149,204515431,321798,201317980,328315,320673,3451271,528806217,16210,424226047,6837,5228,1264060032,915,4.28,1.83,1.78,0.08,0.0,143280662,140035000,3000000,157353540,12
508319489,9344547,275130157,1047294,275893011,1040232,716159,5083325,884744417,32506,512527659,28776,16202,1544155038,2476,7.34,2.97,2.88,0.13,0.0,239404635,235151000,4002000,253640269,12
1843746165,1980878,920717555,4090370,922158560,4086860,452869,13718035,3556884179,94050,1847347537,25097,32641,5689937451,1945,28.4,11.65,11.29,0.49,0.0,959991152,956689000,2999000,974343434,12
495540577,1021411,279572557,704823,278117908,703083,320588,3750640,603670851,24407,489570515,12844,5735,1419219107,908,4.96,2.08,2.04,0.09,0.0,163671976,160366000,3006000,177804367,12
512610399,600278,284779478,655880,282861689,645556,240546,3098461,631222917,19203,516353183,18510,6881,1506309966,519,5.25,2.24,2.18,0.09,0.0,170053791,168814000,998000,184262543,12
489487964,1073241,275936790,697261,273398143,694846,302986,3675113,600188531,25013,488068199,25426,5632,1409062549,908,5.04,2.1,2.04,0.08,0.0,162022155,156766000,4992000,176024236,12
319528483,830932,158015039,298170,155007127,283935,385337,3027011,415432330,12616,313342247,3882,3124,943119758,918,3.52,1.44,1.4,0.06,0.0,111966628,107702000,3988000,126238684,12
666309967,1319457,364147420,792204,365700255,797187,303134,4826782,853900062,29893,682169659,27247,18807,1967607767,1939,7.14,3.06,2.98,0.12,0.0,230971152,223720000,6991000,245336363,12
260167186,918252,142563314,279417,139811073,289027,310683,2925922,374991985,21535,260710541,5796,2877,772754182,917,3.02,1.27,1.23,0.05,0.0,101890359,98494000,3015000,116200918,12
666148642,1347505,364584105,804419,365986646,805991,342433,4828641,853260628,26302,681970451,26764,14212,1969036443,1939,7.12,3.0,2.92,0.12,0.0,231413284,227140000,4002000,245797309,12
320466111,475798,156783152,304249,155213034,279463,225089,2436864,411974667,12558,313373935,4189,3120,935069787,527,3.48,1.43,1.39,0.06,0.0,112167792,109792000,1996000,126366001,12
663522919,1399143,365487942,813271,366378664,814747,324556,4922820,862210772,27390,682523474,27128,14187,1969823418,1938,7.18,3.01,2.93,0.12,0.0,231877722,225512000,5987000,246190817,12
184457322,421010,89794756,232791,89351102,229539,199275,1709857,213374332,8438,188163499,4593,3205,529318505,525,1.83,0.75,0.73,0.03,0.0,58298300,54973000,2998000,72678273,12
183533832,462976,91656222,231045,91429758,230389,191216,1699801,217559080,7310,191068163,4863,3836,532588786,526,1.78,0.75,0.73,0.03,0.0,58874363,57672000,1011000,73081043,12
998682531,9258015,559543248,1858270,559642235,1853338,1427407,8342160,1626629189,56239,998991589,26926,31848,3029364417,4816,13.78,5.63,5.48,0.24,0.0,441457906,430041000,11001000,455727694,12
2591807434,12343782,1376666991,2453630,1377610430,2456371,2045284,18606408,4447294240,125534,2600299767,50028,51136,7896174380,6378,36.91,14.55,14.12,0.63,0.0,1205001349,1191607000,12995000,1219144714,12
449995202,1307210,236284914,373754,236616178,358160,325131,3855074,629021100,20448,448481561,11723,10553,1355385807,1947,5.2,2.15,2.09,0.09,0.0,169613724,161313000,8015000,183956077,12
674582058,1194236,365196140,788230,364470661,792009,349275,4989591,850977841,27547,683999214,24441,13026,1995832951,1937,7.06,2.96,2.88,0.12,0.0,231078894,225714000,4993000,245464894,12
446443755,1184897,235253035,384945,235273939,377443,318349,3954461,628978527,23121,446814628,10299,11393,1348831277,1945,5.15,2.16,2.09,0.09,0.0,170678875,164401000,6014000,184754130,12
657288111,1590102,338102625,925266,332610783,900712,913692,5919673,741002706,26426,653334055,23288,9211,1925716071,1692,6.4,2.68,2.61,0.11,0.0,199822383,196470000,3007000,214364180,12
769181539,17721398,425042287,1390605,425616517,1398045,1262832,7945792,1381267762,52718,763627323,22571,29060,2382323147,4822,11.55,4.61,4.49,0.2,0.0,373167251,364787000,7995000,387505732,12
993522775,11545798,558005473,2113282,558546587,2113927,1866748,9478238,1703511809,59155,996364464,36661,198160,3010410135,6377,14.43,5.7,5.53,0.25,0.0,460723731,445497000,14983000,474925009,12
182687280,489371,91217674,230618,90715971,227253,212979,1737215,217635410,9693,191661962,4579,2541,534517640,524,1.79,0.75,0.73,0.03,0.0,59013621,55745000,2986000,73072758,12
664372266,1336798,364625224,795315,365851919,802862,293675,4818824,855018311,27085,681820796,23824,13741,1966419219,1938,7.2,2.96,2.89,0.12,0.0,231430966,225134000,6003000,245691962,12
666121123,1357909,364670642,806176,365450268,815180,333942,4819652,862947511,34183,682381762,24653,13874,1972484270,1937,7.14,3.0,2.91,0.12,0.0,233536767,225313000,7975000,247683713,12
362189098,674146,197644450,231758,196126989,232841,302499,3106346,531553216,18540,362284386,9254,6219,1119488160,1040,4.38,1.8,1.76,0.07,0.0,143210722,138944000,3998000,157460851,12
897990994,2568087,381815235,2104232,381379306,2069880,2155202,8416560,1378052662,101328,897707503,170627,68636,2612131834,20962,11.04,4.62,4.48,0.2,0.0,372091243,339769000,31978000,386549532,12
842214077,17928390,444439880,1317174,445196736,1313959,1424196,8278107,1456746639,55322,847941313,32998,25804,2499187756,4822,12.23,4.8,4.66,0.22,0.0,393733288,385299000,8006000,408107248,12
445539882,1232374,234135996,357335,235276918,359515,358145,4020975,629680522,21845,449951556,12527,10633,1349006961,1946,5.12,2.15,2.09,0.09,0.0,170344801,163009000,7000000,184676612,12
450349892,2177679,238529814,382913,237621818,375732,687623,5691395,638190379,25557,451589063,19532,44773,1361088012,3751,5.27,2.16,2.1,0.1,0.0,174363746,167040000,7001000,188580579,12
678059475,1241006,366274935,808534,365360147,805963,360356,4856050,863088539,37615,684699777,25888,11977,1996255747,1938,7.45,3.05,2.96,0.12,0.0,233127913,230704000,2006000,247403746,12
541692740,543394,285389810,748084,284304027,759212,229178,3143288,637240355,20073,546914596,19817,5620,1563459230,521,5.34,2.27,2.21,0.09,0.0,172064083,168736000,2995000,186317387,12
5614163102,20874233,2529440869,4851649,2525683231,4826227,13679618,68256087,9722091304,361405,5600693746,76931,106936,16682551462,5598,77.94,32.02,31.08,1.49,0.0,2625855356,2612305000,13001000,2640103391,12
1784889365,28222955,951923075,3297494,952658298,3369162,4607816,20161402,3304969768,145610,1786760797,94692,77819,5501165215,15926,27.2,11.09,10.77,0.51,0.0,893930840,871602000,21989000,908358283,12
640613093,10030032,350482787,989465,347998558,989082,1076521,6255569,1115437170,39702,636415975,19363,18421,1968628258,3260,9.37,3.72,3.61,0.16,0.0,300719295,293500000,6988000,315031955,12
660862594,1330425,365553300,793011,366751618,801576,301598,4754957,852835904,27028,677209887,30829,15957,1954368345,1940,7.26,2.98,2.9,0.12,0.0,231199236,225961000,4999000,245442142,12
478219749,1944746,248742051,858989,244323509,845365,897187,4804799,574844028,31804,472716670,24261,5979,1333655607,1692,4.83,2.0,1.94,0.09,0.0,154478011,149019000,5000000,168713199,12
315833160,536445,155554352,284155,154815719,274784,237103,2333535,412838568,11346,313375145,2941,3115,931602773,527,3.38,1.39,1.36,0.06,0.0,111450609,107163000,4006000,125777062,12
641407977,10176953,349755698,954438,346919059,956097,1095909,6183221,1103960749,38748,636118398,21333,17759,1967657919,3258,9.36,3.76,3.65,0.16,0.0,299717853,291411000,8011000,313983030,12
545633547,830205,304769538,672711,305003463,669298,308568,3524632,704432380,21719,549808135,21058,8951,1608901090,1035,5.96,2.45,2.38,0.1,0.0,190177968,183716000,5990000,204552282,12
458149260,2135506,242289822,378848,243190356,378163,812597,5613456,640156237,25688,461996456,21311,17139,1370755106,3748,5.27,2.16,2.1,0.09,0.0,172791829,170561000,2006000,187109366,12
780620950,16861129,431060402,1427422,429177659,1432402,1640578,10001393,1413772024,50715,779717210,24497,24344,2426002370,4821,11.89,4.63,4.49,0.21,0.0,381981183,371699000,9991000,396252447,12
739462348,13543633,424817162,1788641,424891361,1787173,1601431,7763684,1348684608,46571,739018497,28030,24307,2349549259,4811,11.46,4.57,4.43,0.2,0.0,365196512,353860000,10995000,379247006,12
2185504655,6138819,1093748237,1339440,1095314556,1319129,3555314,20880213,3491466682,110459,2187093320,56600,57135,6340557480,8017,27.9,11.33,10.97,0.52,0.0,944178620,933702000,10007000,958267968,12
481734899,2040049,210157181,345132,209092958,354084,910057,5219785,570451292,24549,469154013,18252,13398,1423234013,2479,4.8,1.99,1.94,0.09,0.0,154169315,146954000,6950000,168482201,12
639541450,14351816,349740716,995970,347994038,1001944,899456,5870535,1112208128,35586,638888367,15798,15806,1972536561,2476,9.26,3.66,3.55,0.16,0.0,299076852,294766000,3996000,313374183,12
1118323344,1424906,485704846,3418334,485094920,3424249,437241,7819669,1804200760,47712,1117237817,15306,383206,3351463463,1943,14.6,5.94,5.77,0.25,0.0,486175547,483831000,1999000,500236779,12
660829747,1389096,364380906,809869,366621002,813009,401826,4938123,860986265,29211,678555976,25660,14860,1958483857,1937,7.18,3.01,2.92,0.12,0.0,231764891,225325000,5982000,246046668,12
671924583,2247176,366086169,807518,365349053,822506,825220,6390224,874600001,28694,689249428,31429,17756,1992460770,3745,7.4,3.12,3.03,0.13,0.0,235982110,225698000,9986000,250266913,12
446949632,1288195,234057380,365217,235416025,366526,373712,4125609,631023641,21802,450385559,12759,10823,1351346097,1945,5.21,2.11,2.06,0.09,0.0,169335175,165974000,2999000,183655173,12
448826304,1311468,236085756,363568,237031657,359876,371253,3911932,626458811,20219,448974415,10623,11131,1360846464,1943,5.08,2.1,2.04,0.09,0.0,168770798,164499000,3987000,182786921,12
731387987,2507294,395281598,971698,394256390,947987,1284613,7878944,959929150,37338,729986316,38082,25265,2154114568,6298,8.0,3.32,3.23,0.14,0.0,259211385,251861000,7024000,273419264,12
435700259,1257946,248739289,360945,250624240,360023,345895,3864772,628689462,20111,436643624,13660,10606,1400380198,1941,5.26,2.15,2.08,0.09,0.0,169677707,167383000,2004000,183901318,12
315117929,957879,167914931,236419,165890678,225792,363573,3127701,448407956,18795,307099654,7468,5048,947462042,916,3.72,1.52,1.47,0.06,0.0,121589843,118287000,3007000,135787306,12
2593930143,10439022,1378689843,2285296,1377323262,2280840,1798169,17940535,4424936612,126547,2594077830,43217,46545,7893624556,4817,37.1,14.55,14.13,0.62,0.0,1196754232,1183241000,13002000,1211050290,12
987614526,9298550,554791707,1834574,556590466,1838024,1321267,8531352,1605202096,51811,995582486,35160,26897,3004769882,4817,13.39,5.46,5.31,0.23,0.0,434598768,422281000,11979000,448803285,12
770328272,11608283,425028480,1371674,425586979,1374647,1875289,8482267,1405651221,53206,772900048,29621,29237,2394490819,6384,11.96,4.68,4.54,0.21,0.0,380100295,370795000,8995000,394454203,12
679533107,1332385,364054780,826376,365909466,827381,449183,4970609,859110716,28886,694786710,27247,13269,2009011563,2329,7.16,2.95,2.87,0.12,0.0,232251851,230910000,1003000,246376641,12
474132912,1269547,218568092,1144788,220255504,1137594,274000,3931311,727881194,21783,480460615,37324,9849,1392481701,1906,5.89,2.4,2.34,0.1,0.0,196406715,193109000,3001000,210706139,12
451886576,2124273,240908101,380097,240707701,377632,831861,5723841,645730235,25862,455159774,19353,19274,1371910210,3749,5.31,2.21,2.14,0.1,0.0,174521964,163279000,11018000,188698905,12
2669765282,8953155,1288419935,1731918,1284174306,1735812,4789876,27584306,4529678155,159510,2664586940,68779,59469,7984491353,8630,36.52,14.78,14.34,0.67,0.0,1221365481,1203987000,16985000,1235629634,12
449421387,2241425,238111806,390537,238063720,385196,668537,5449331,649704332,26659,452133345,18299,49620,1361868813,3749,5.5,2.22,2.15,0.1,0.0,176494299,170087000,6003000,190649441,12
451156956,2155987,239701044,373948,238828553,379965,737701,5664058,639270919,25582,451622163,20107,17348,1361654394,3748,5.28,2.17,2.11,0.1,0.0,172859989,169472000,2990000,187250781,12
455571103,2144712,241953851,380218,242121534,378748,779979,5721674,649571538,26870,459508528,20351,18622,1382983831,3749,5.33,2.25,2.19,0.09,0.0,176019178,169664000,6023000,190158943,12
660692620,1281898,362203779,796798,362461084,800009,383835,4818842,844878263,27699,679716962,25588,13596,1957566110,1940,7.07,2.95,2.88,0.12,0.0,229455317,224120000,5002000,243707688,12
998762074,11830474,558810870,1921023,559277673,1926041,2026077,9847650,1655217552,59508,1001483492,40589,44126,3028088370,6380,14.17,5.64,5.47,0.25,0.0,447300786,434954000,11971000,461716896,12
444117828,1266187,234496138,363677,235890027,360037,386890,3988905,631294341,23033,448664245,14047,10197,1345182607,1945,5.24,2.14,2.07,0.09,0.0,170526314,168184000,2002000,184798774,12
312675727,547747,154661755,286509,154072788,269705,232029,2334069,412982055,11015,311888116,3295,3174,923244395,527,3.36,1.42,1.37,0.06,0.0,111367710,109093000,2001000,125543374,12
445451324,1341406,233987017,419806,234279786,399086,561545,4298968,623911932,22509,443231781,13078,12998,1340109882,1945,5.04,2.09,2.04,0.09,0.0,169231160,163963000,4968000,183526216,12
663729478,1331849,364615729,795086,366239216,799447,375838,4945124,857519506,28191,682241461,26160,14467,1968449609,1938,7.08,3.0,2.93,0.12,0.0,231393782,228075000,3000000,245672208,12
111501437,107996,59838732,67553,59835347,68635,102075,850695,139032473,9391,112292725,6418,8536,324110006,127,1.14,0.47,0.46,0.02,0.0,38941622,36739000,1985000,53095706,13
231148187,278012,114805860,120246,112916338,119956,131921,1543138,292844891,8806,231323500,7205,2777,672345724,325,2.38,1.0,0.97,0.04,0.0,80011775,79632000,0,94335949,13
61988221,98827,31452138,62298,31463210,59791,98572,680573,87480518,3280,63192063,1019,1958,191668183,133,0.74,0.31,0.3,0.01,0.0,24246169,23938000,0,38313833,13
60083361,142570,31496101,62280,31445677,62417,97128,678117,91470334,2713,62999167,1164,1161,190485504,135,0.72,0.3,0.3,0.01,0.0,24593661,23343000,972000,38632883,13
109388487,150418,60002727,71842,60003443,74449,117055,898546,144639696,4488,112498652,7112,6290,324201755,128,1.22,0.51,0.5,0.02,0.0,38879377,37526000,987000,53001593,13
228754697,464008,113035914,114913,111112025,109398,171731,1815518,292052714,9901,228603486,4697,2647,664815261,519,2.38,1.02,0.99,0.04,0.0,78439382,77019000,1000000,92625415,13
226419314,303418,111356876,109804,111029177,104610,125885,1473902,289095857,9116,229303054,5398,2650,658263890,323,2.32,0.98,0.96,0.04,0.0,78482869,78126000,0,92550270,13
226251546,329419,111780985,116920,111105969,109403,124071,1494916,289632467,9188,228749600,4832,2765,659432163,324,2.37,1.0,0.97,0.04,0.0,78606986,77420000,992000,92555960,13
59372174,164887,31514720,64325,31570991,54827,96112,660503,90260986,2524,62225320,1406,1259,190786413,132,0.71,0.29,0.29,0.01,0.0,24228911,22912000,996000,38184146,13
61280396,168202,31522365,64837,31550122,65037,127756,764394,92127882,4696,64786350,1422,1214,196185712,327,0.76,0.32,0.3,0.01,0.0,24928023,22609000,1966000,38975798,13
227082709,288459,112171968,114689,110693753,114176,124982,1520036,286178681,9706,229195189,5472,2690,662514197,325,2.3,0.98,0.95,0.04,0.0,77805319,75548000,1988000,91947165,13
59527172,209128,32010603,70914,31978423,70890,102604,683177,92765357,2297,63005359,5876,6189,188316372,135,0.74,0.31,0.31,0.01,0.0,25155229,22587000,1964000,39018250,13
227917220,295090,112877568,125519,110858021,119203,149513,1661152,289546854,9817,228155510,7873,2899,662524590,324,2.36,0.98,0.95,0.04,0.0,79294018,77049000,2001000,93498271,13
156224221,234006,75428517,94382,74405653,94659,118567,1239117,175357728,8814,157600364,5603,1805,429814351,323,1.42,0.6,0.59,0.02,0.0,48160681,45883000,1994000,62336802,13
151793407,285750,75184229,97241,74714761,97488,126188,1213450,179669183,6403,157173363,5459,1881,425325220,322,1.48,0.63,0.61,0.03,0.0,48749772,46363000,2015000,62899728,13
154182305,287745,75901237,99625,75086215,100899,120760,1231097,178678238,8197,156017484,5778,1751,424365706,322,1.48,0.64,0.62,0.03,0.0,48748735,48369000,0,62979650,13
108999194,183184,59950897,69126,59971110,70574,121639,889376,144831235,4415,113454408,5733,1817,325165186,322,1.19,0.49,0.48,0.02,0.0,39293459,37963000,999000,53444914,13
61104871,97322,30963055,61608,30751824,63144,114765,706647,91138876,3674,65319871,1368,4850,198058948,135,0.8,0.31,0.3,0.01,0.0,25677934,23279000,1012000,39754418,13
41229248,93722,18622642,52112,18783129,48344,110139,685863,65369374,12225,41332175,816,1105,125072990,226,0.53,0.19,0.18,0.01,0.0,19422819,18160000,1008000,33487960,13
223612778,342216,110796241,109932,110329164,109558,124489,1517225,290253268,9125,230625540,5290,3089,660012842,326,2.33,0.97,0.95,0.04,0.0,78418434,77142000,1001000,92127328,13
59306965,157499,31654475,61274,31651370,60822,92450,667415,89497450,2669,62483668,929,7021,189999483,133,0.72,0.27,0.26,0.01,0.0,24773161,22585000,1963000,38669098,13
110338980,206900,58795678,71216,58353225,71475,128437,970073,143870389,4614,116542487,5477,1560,329333267,323,1.21,0.48,0.47,0.02,0.0,39188518,36913000,1995000,53557974,13
115914724,167505,61500975,72328,60362289,71515,173118,1039094,148253374,5199,116809577,5937,9285,341063789,519,1.34,0.53,0.51,0.02,0.0,40137256,37819000,1990000,54231027,13
66753939,150491,40548380,61851,40668889,62602,106070,842216,106815874,2746,70064787,896,821,238455962,131,0.94,0.36,0.36,0.02,0.0,28714111,27360000,1013000,42750091,13
174610088,468927,82551625,106473,82301327,99727,147371,1551988,239496133,8204,177203489,1451,2650,522297550,524,1.96,0.81,0.78,0.03,0.0,64515114,60282000,3952000,78623746,13
56252775,121866,31067757,68557,31029146,60905,110781,730684,87577511,2998,57064240,963,1166,179853198,136,0.72,0.29,0.29,0.01,0.0,23940046,21764000,1978000,37866816,13
177914193,352932,86670134,107077,87013623,108001,129097,1429331,248255161,8440,179421516,4228,4352,532590646,589,1.97,0.81,0.79,0.03,0.0,67036988,63776000,2989000,81226962,13
108969286,162234,59750178,66751,59768156,66082,122714,898291,142538964,4634,111587366,7817,1766,324408377,130,1.18,0.49,0.48,0.02,0.0,38241772,35961000,1997000,52348514,13
108220683,165354,59879204,68891,59797106,64148,99356,850562,142487242,3806,111144159,10329,1956,323045931,129,1.24,0.5,0.49,0.02,0.0,38565902,37325000,1008000,52932007,13
114361278,155601,61096744,69610,60934102,69673,133054,1090143,149844996,6818,116657068,6209,1460,338566529,324,1.21,0.45,0.44,0.02,0.0,43898007,42676000,992000,58017401,13
136601540,205241,74584875,79802,74611803,81030,140504,1148794,196704945,10349,140464583,6650,2011,412165392,325,1.64,0.68,0.65,0.03,0.0,53364711,52105000,1002000,67734952,13
59936833,139020,31524145,64393,31533818,60794,101020,686449,90438973,2715,62483102,939,8151,189570487,132,0.74,0.31,0.3,0.01,0.0,24331586,24032000,0,38054530,13
107902635,169027,59883854,68289,59919950,61685,93550,825873,142163421,3560,110859028,10094,1567,321988867,128,1.19,0.49,0.48,0.02,0.0,38324779,38078000,0,52483576,13
82080519,164893,45527793,68570,46269924,61177,100401,810694,136485080,4546,83162536,1789,1446,263324294,132,1.12,0.44,0.43,0.02,0.0,36654865,34416000,1966000,50497677,13
59937131,141248,31421749,65403,31451845,57622,100569,701803,89166010,2625,61370683,974,7091,189463371,132,0.79,0.3,0.29,0.01,0.0,23720716,23490000,0,38018154,13
44834096,77233,29801714,47428,30520323,49486,96343,654652,61094106,3953,44287191,887,826,150136404,132,0.51,0.19,0.18,0.01,0.0,18438686,17128000,1007000,32753034,13
223620081,351304,110802815,120847,110629859,113302,141648,1574233,291279858,9036,230784745,5976,2725,660650820,324,2.36,0.99,0.97,0.04,0.0,78962830,77615000,995000,93117091,13
109076409,145026,59826921,68477,59919813,68404,99917,866400,142790393,15354,112259945,8133,2892,322954654,131,1.19,0.48,0.46,0.02,0.0,38997723,38809000,0,52979027,13
105611858,119780,58825889,69037,58818416,62721,98367,828302,136597111,4751,106534604,12113,1844,312135384,128,1.16,0.49,0.47,0.02,0.0,37401889,36075000,1002000,51577008,13
108410148,164161,59892908,66530,60001300,63415,99810,827386,142063103,10275,111291246,10825,1499,323536340,129,1.17,0.49,0.48,0.02,0.0,38428016,37191000,1005000,52345590,13
111613846,111682,60496316,68280,60072466,67733,101752,860403,138795930,4718,111272016,10009,1506,325656055,130,1.2,0.49,0.48,0.02,0.0,38781998,37494000,1013000,52875505,13
110967138,111399,59721723,67848,59741409,66214,99084,847362,140824612,15668,112540866,7692,6353,324054245,130,1.23,0.52,0.5,0.02,0.0,38386017,36126000,2007000,52477415,13
64411555,236814,30823653,64074,30522568,65470,169097,954674,96563824,3103,71612575,672,8306,205544188,525,0.83,0.32,0.31,0.01,0.0,26417366,25143000,1005000,40554877,13
104181914,437155,46930200,92919,47373996,93195,114859,1148585,129773098,5684,104843894,3150,4134,292072541,523,1.03,0.42,0.42,0.02,0.0,35483252,34253000,1007000,49636831,13
158142438,395853,76586780,97199,74318676,98986,147491,1476521,178177919,10938,157348270,4685,1817,436096571,519,1.46,0.61,0.6,0.02,0.0,48523701,47278000,1005000,62638745,13
225818911,344516,111979273,116149,111720673,109181,117901,1515266,295417956,7928,231913080,6389,2826,667733904,323,2.48,1.0,0.98,0.04,0.0,79821845,77501000,1987000,93942404,13
98310943,212041,52083570,74143,51106031,72458,183604,1268960,153182423,10299,99480024,2923,1568,316215850,523,1.2,0.47,0.46,0.02,0.0,42806663,41392000,1009000,56999189,13
109985648,143772,59895509,70178,59840274,67830,100794,866461,140993759,15780,112433815,6963,7497,324463011,128,1.18,0.5,0.48,0.02,0.0,38280685,36970000,999000,52378087,13
103341333,393360,53753891,91777,53739587,85891,140248,1095491,111337597,5790,104465292,5198,1174,311844634,420,0.96,0.4,0.38,0.02,0.0,30111598,29754000,0,44390709,13
227802454,286413,112593767,114832,110692509,110913,142485,1548506,288925460,10051,228533069,5185,2844,662254160,324,2.45,1.0,0.97,0.04,0.0,78670926,78408000,0,92686690,13
107694895,170437,59640413,68155,59763580,60902,88762,818057,141629877,3597,111569165,7483,1667,323743428,127,1.2,0.49,0.48,0.02,0.0,38038752,37777000,0,52240209,13
107950444,166934,59764884,68811,59740240,62172,96174,821656,142224925,10776,111028525,10466,1497,324501163,129,1.21,0.5,0.49,0.02,0.0,38137038,36862000,996000,52150652,13
109458395,141636,59548607,71963,59624912,66705,100336,866064,141147252,4073,112538894,6593,6021,324427877,127,1.2,0.51,0.49,0.02,0.0,38232940,37822000,0,52297086,13
108927742,161122,59667204,71748,59681462,70058,96063,861787,143001320,17360,112467624,7372,1771,324356101,127,1.18,0.49,0.47,0.02,0.0,38577023,35304000,2942000,52676323,13
108485841,160130,59704981,69423,59794741,67921,92905,848541,143553171,17983,112409680,7215,1491,323016772,128,1.21,0.5,0.49,0.02,0.0,38604690,35390000,2949000,52770182,13
150980091,312744,75026171,101883,74901018,97695,153835,1200016,178436487,6667,157178013,5250,1934,422689457,322,1.51,0.63,0.61,0.03,0.0,48255995,47595000,0,62560707,13
111396461,113572,59791120,70525,59746357,67893,101924,842611,138024420,11439,112710638,6891,7271,324057727,128,1.17,0.47,0.46,0.02,0.0,38530109,37216000,1005000,52741195,13
106171504,110704,58778028,68357,58733930,61846,98992,826043,135368668,6522,106484171,1460,1475,312514443,127,1.14,0.47,0.47,0.02,0.0,37157647,35887000,996000,51243186,13
114081361,177569,60632207,70548,60287976,70821,164488,985242,147187917,8770,116301572,3241,1590,335524752,519,1.25,0.52,0.51,0.02,0.0,39890935,38557000,1014000,54010096,13
111017724,115799,59797478,69571,59795264,70023,98462,857288,140083115,4418,112410034,6803,8686,323901154,129,1.17,0.47,0.46,0.02,0.0,39025119,36765000,1987000,53213859,13
108827461,142319,59579671,70110,59615693,64101,97889,833106,141652388,3922,111503064,7020,9315,324856467,130,1.21,0.49,0.48,0.02,0.0,37896361,37511000,0,51961655,13
109587678,142917,59858416,68965,59717786,70336,102892,874590,143033846,4209,112454747,6841,9314,324645156,128,1.21,0.51,0.5,0.02,0.0,38710094,38360000,0,52828682,13
46458630,154876,27555450,35681,27577086,35580,81996,684648,60162419,2803,44644171,757,566,169456719,258,0.49,0.21,0.21,0.01,0.0,16481995,15232000,1015000,30380375,13
43623870,104208,30421824,52801,30071031,51926,101148,665816,62577964,3299,44360792,425,494,154239848,135,0.53,0.21,0.21,0.01,0.0,16872209,16606000,0,30799295,13
108937141,156879,59734996,70533,59741125,64547,98415,848324,141258398,3887,111540823,7176,1524,324407955,129,1.26,0.51,0.5,0.02,0.0,38015025,35668000,1981000,52062713,13
109435922,167597,60527070,68798,60486120,69588,105534,864776,145110648,3713,112660290,15323,12385,323584897,128,1.18,0.5,0.49,0.02,0.0,39402473,38174000,1004000,53544935,13
58696968,160071,31475007,61886,31527359,57383,106310,695279,90202997,2712,62376325,1510,1188,190672875,132,0.75,0.3,0.29,0.01,0.0,24145768,23829000,0,38364548,13
109309612,180619,59782282,69322,59912958,66849,99139,939877,145444634,4148,112342488,9961,1538,325005017,127,1.23,0.5,0.5,0.02,0.0,38416957,36062000,1949000,52621464,13
154040900,426332,76126008,98573,75846475,95758,132212,1323127,178949402,6852,156002282,5998,3256,428065871,519,1.45,0.57,0.55,0.03,0.0,51471820,49208000,2008000,65773956,13
59210592,153300,31539058,64090,31561329,61951,97482,696450,91118143,2830,62109736,1213,1111,190900702,132,0.75,0.31,0.3,0.01,0.0,24469181,21347000,2911000,38398677,13
108358566,169137,59999375,70983,60095238,70819,91486,854746,145679387,10097,113318680,4749,9728,327522513,128,1.22,0.51,0.5,0.02,0.0,39199525,38893000,0,53373806,13
225817596,308719,111736567,117448,111067786,112800,131073,1544484,289086165,9928,229299408,6856,3223,660882101,326,2.34,0.98,0.96,0.04,0.0,78176405,77745000,0,92335170,13
225040715,472209,112317014,114818,112249597,116663,156322,1816021,289900819,8536,228743960,5078,2907,662981435,518,2.3,0.92,0.89,0.04,0.0,81201869,78950000,1998000,95423144,13
61148538,111798,31438666,64851,31460176,61649,101392,704721,88816791,3183,62731409,1327,1114,191767611,133,0.73,0.29,0.29,0.01,0.0,24230929,24004000,0,38416136,13
59308229,161876,31748416,63301,31811389,62618,103022,683083,89912703,2656,62476351,1377,1240,189509517,142,0.69,0.26,0.26,0.01,0.0,25396463,24198000,1008000,39434908,13
233361776,359201,117611739,117737,117470856,121173,192913,1866672,302613872,10303,234979459,9933,4397,680395452,780,2.47,1.04,1.02,0.04,0.0,82354626,80058000,2001000,96398941,13
108900312,160740,59743923,69767,59761282,64615,98218,834436,141736238,3706,111814010,7404,1505,324972531,129,1.21,0.51,0.49,0.02,0.0,38399703,37045000,1001000,52214091,13
113503577,128145,59885849,69985,59713516,67964,120089,921975,141068849,6678,114330525,7738,3080,330015538,324,1.23,0.51,0.49,0.02,0.0,38571921,36287000,2015000,52783918,13
107573366,168184,59963596,67734,60046842,63451,98496,833751,141455700,3737,110314368,3203,5757,319491132,128,1.21,0.51,0.49,0.02,0.0,38363529,36995000,999000,52507003,13
227288378,343317,114200834,117566,113844016,114803,131030,1554771,293534749,7699,230331882,5787,2784,669981297,326,2.37,0.98,0.95,0.04,0.0,80669742,80424000,0,94842283,13
5597259153,50282849,2426551725,13451936,2428685155,13261082,5020350,39677670,8707069243,270660,5592262429,84507,96294,16233793826,10349,69.3,28.7,27.86,1.25,0.0,2347585877,2332686000,16011000,2361825335,14
2334000385,17923595,979863961,21820829,979669245,21678828,1904038,28977761,3971802834,124802,2323168229,62231,51166,6657225993,8297,32.1,13.09,12.7,0.57,0.0,1071602429,1060897000,11009000,1085845083,14
254838441,1355080,336659768,16024511,342109017,16066691,659471,5352194,795159971,25116,248159463,12264,10547,1197163542,1603,6.3,2.47,2.4,0.11,0.0,214965684,213676000,1003000,229034602,14
3103241590,29463076,1294399378,23745346,1295383314,23759930,1899898,28842724,5183171392,160239,3095198793,74160,63209,8782797928,8308,41.45,16.86,16.35,0.74,0.0,1405176161,1397653000,8003000,1419521058,14
5797451710,53005607,2509468766,13073784,2511115748,13155296,4785506,73640316,9047119251,267042,5805862447,100182,96194,16815670028,10348,71.66,29.41,28.52,1.3,0.0,2441131505,2428115000,14006000,2455285836,14
1917281510,26632787,722589514,25286591,723712604,25111566,1991732,19066912,3385438783,101091,1918013897,37955,36725,5195531334,4229,27.54,11.38,11.06,0.48,0.0,916230624,911409000,5002000,930307311,14
107635359,719442,32533946,71257,28785998,75841,569517,2353253,100479371,7860,107420511,10324,7474,271987881,2303,0.82,0.34,0.33,0.02,0.0,26867570,20694000,5912000,40888752,14
3942141477,30756584,1692537576,21182140,1690408393,21431183,2809870,29156361,6246386105,184109,3937265764,82765,69990,11304360317,8301,50.36,20.76,20.15,0.9,0.0,1690433918,1685783000,5002000,1704578654,14
452831221,794939,206612130,412073,205379773,415343,848173,4501299,803764010,29717,449374716,13387,11517,1368077996,2183,6.57,2.63,2.55,0.12,0.0,216315367,213142000,3002000,230547607,14
1905239477,29479507,739393830,15345503,738027570,14994762,1341643,20586254,2832073794,85090,1917798781,17807,25374,5350573429,2183,23.68,9.73,9.46,0.41,0.0,763493822,760541000,3002000,777766495,14
3683656642,3253372,1611695889,18048052,1612811974,17890496,1001135,22136317,5902831351,155011,3695949326,87956,45049,10949365168,3627,47.35,19.46,18.89,0.82,0.0,1600543798,1594903000,6003000,1614592990,14
722824683,2195516,642468106,9410820,643650247,9359203,701145,7273860,1507604116,47076,732008174,17360,19506,2729870422,3347,12.15,5.09,4.94,0.21,0.0,407619322,403446000,4004000,421642487,14
554695048,1623213,242940315,734803,240894694,726917,1175969,6097494,1015294848,41886,554149794,44700,32371,1637914087,8304,8.54,3.38,3.28,0.15,0.0,274021680,263814000,9992000,288091911,14
3354177871,19704666,1483778022,6783718,1484258206,6657086,3344444,25830046,5204810814,164154,3361539375,64679,57526,9737274005,8301,41.42,17.15,16.64,0.75,0.0,1405103693,1394325000,11002000,1419422201,14
1572804648,4140665,701365427,15432751,701239504,15527751,1877206,13970445,2495988513,76014,1578606657,37063,36222,4400056921,7140,20.44,8.42,8.16,0.36,0.0,675048716,664962000,9999000,689241416,14
1635321764,26686135,633299185,12891079,634283029,12868592,2278916,17853867,2693042290,84625,1638224763,36388,32339,4501782887,4228,21.72,9.02,8.76,0.39,0.0,728825327,721736000,7007000,742951151,14
3267769145,30454529,1356134604,25452165,1355366737,25482081,1493590,29616570,5634727211,643568,3267282259,49295,54011,9487559091,4237,44.88,18.39,17.84,0.79,0.0,1523450981,1516749000,6998000,1537759568,14
1643479552,29889415,1440086178,20728167,1437170412,20094534,3550103,19958706,3335556727,119851,1637002540,60563,48791,5981743061,8302,27.15,11.36,11.02,0.5,0.0,900121295,886080000,14001000,914420928,14
1568499801,2000689,664511001,14379538,663061199,14148285,546540,10373915,2372412434,62727,1570163515,16393,20891,4416116873,2030,19.18,8.05,7.83,0.33,0.0,642282340,639138000,3000000,656342131,14
6425557713,32109959,2939269790,14019177,2939649009,14070908,3913679,43247977,10243909724,347942,6416633579,205344,138741,18954551025,6282,84.63,34.87,33.87,1.45,0.0,2773462770,2765173000,9000000,2787730178,14
903972923,576042,389731338,12788283,389696761,12779583,188287,6501290,1820340810,46785,904540209,7439,12205,2412200888,139,14.66,6.07,5.9,0.25,0.0,492288230,491022000,1000000,506420844,14
4008096730,30936092,1710436154,21017315,1712930628,21011396,3628730,31655065,6924340516,207905,4011217595,83375,74719,11839656196,8297,55.73,23.0,22.33,0.99,0.0,1867317693,1858353000,9001000,1881500179,14
2418417265,4000186,1020375938,19970619,1022561908,20101317,1567340,17119610,3814714402,107030,2422007284,46580,43184,7055900192,7144,31.05,12.82,12.44,0.54,0.0,1028936758,1016995000,11999000,1043158558,14
3215276161,20520255,1430865333,6780170,1435698493,6718065,3265160,25427267,5075582197,152326,3230647828,67007,61927,9348669172,8302,40.71,16.98,16.49,0.73,0.0,1368724017,1353897000,14998000,1382914010,14
3614778307,29627703,1580150307,8486571,1580778918,8473110,2895035,26796730,5578194862,168312,3603164934,71589,62050,10469685110,8296,44.38,18.52,17.98,0.81,0.0,1509214556,1496454000,13003000,1523210454,14
1660507907,3339694,733799541,6452371,730462309,6718431,1735856,13843510,2667504540,89018,1649403184,45102,39245,4829434719,7171,21.55,8.87,8.61,0.39,0.0,719718749,711691000,7996000,733821874,14
4175842052,3955693,1758368056,23882505,1756794079,24030862,1152991,25933298,7043077175,178742,4178526959,39252,55155,12056279760,3342,55.6,22.86,22.18,0.98,0.0,1923287917,1892945000,7907000,1937407737,14
548713495,6551232,219181217,12418621,222682182,12490276,4005331,8419428,1250404688,105915,556595891,184710,116918,1456650250,35215,9.87,4.01,3.88,0.21,0.0,341763900,281913000,56581000,356004001,14
4051182008,31178165,1715001404,20897618,1715534958,21108828,3563737,31762391,6900928877,216606,4051810564,98969,75708,11536462715,8297,55.18,22.54,21.88,0.99,0.0,1876831734,1848312000,14889000,1891397479,14
2992989333,29575013,1249120732,23109618,1252504486,22962519,2439792,26898572,5091036804,153748,2994311652,48242,50076,8569523786,8303,40.98,16.98,16.49,0.72,0.0,1379125155,1361977000,9948000,1393426992,14
3856805471,30131877,1655027971,21003024,1651052360,21092551,3745004,29620459,6201719353,196935,3839047388,55681,58961,11413127639,8303,49.88,20.76,20.16,0.89,0.0,1680880228,1662632000,11961000,1695257564,14
895756129,652884,386535366,12970846,386511081,12964752,203446,6466766,1810434145,48187,893605850,10028,12280,2386666262,137,14.6,6.07,5.9,0.25,0.0,491863427,490365000,0,506003869,14
4051881001,31058213,1710427745,21617692,1711298891,21667768,3384272,31345455,6878048208,207476,4054621306,71627,72786,11522758935,8297,54.5,22.35,21.68,0.99,0.0,1860725505,1842250000,13971000,1875126036,14
900144253,606124,388563715,13160147,388459834,13158506,234249,6483744,1826319345,47761,899252178,8130,13550,2398743250,135,14.71,6.17,6.0,0.25,0.0,494830518,492585000,997000,508961633,14
4054477657,30758136,1709372204,21593327,1712729364,21678452,3464859,29721619,6332441199,199290,4047675661,71673,71254,11511933952,8303,50.9,21.09,20.48,0.91,0.0,1713833845,1696083000,14974000,1727976253,14
908979944,503757,361458884,12095801,361065665,12084670,222253,5899692,1603660436,42176,909983403,7336,11687,2504336616,137,12.95,5.41,5.25,0.22,0.0,435615284,432774000,1994000,449840791,14
3992136845,30603224,1694960891,21042605,1696821558,21183281,3345402,29763674,6336224730,204533,3980708298,83360,68880,11385058021,8298,51.09,21.08,20.46,0.91,0.0,1712804043,1698772000,11991000,1727059715,14
609720793,421085,266737396,1929908,266225761,1929575,277314,4225735,1096907416,29114,610114004,4848,7863,1657356807,137,8.77,3.53,3.43,0.15,0.0,297701658,295972000,999000,311837467,14
3945535765,30793756,1689010138,21149843,1689535154,21116028,3344319,28868037,6255381342,189190,3940937760,69875,72584,11350856932,8296,50.46,20.84,20.22,0.9,0.0,1689746511,1675128000,12985000,1703838733,14
3128091213,29394792,1400990715,26357027,1401279808,26177621,2682634,30415773,5273204182,157265,3139553137,57388,61866,9094603292,8303,42.26,17.37,16.85,0.75,0.0,1427336226,1414388000,11994000,1441525915,14
4053285078,29655249,1711100066,21466070,1709621763,21635071,3286908,36659602,6915961011,219517,4055017408,129758,80866,11547289204,8297,55.4,22.58,21.9,0.99,0.0,1856692252,1858897000,13112000,1870805214,14
3657189940,30668180,1602420013,8596956,1600286454,8592640,3447004,30256686,6184531616,187109,3644355088,78653,76758,10602445700,8300,49.01,20.15,19.56,0.89,0.0,1655915220,1655297000,10056000,1669947116,14
4126516485,26901536,1731555561,20536663,1731594221,20428736,3840519,29748502,6408841435,192245,4127187279,67217,65756,11933381098,8303,51.9,21.33,20.7,0.92,0.0,1726463535,1710714000,22073000,1740499008,14
1660657119,29822803,1451236307,21862689,1454688757,21323494,3435632,19782208,3299829838,117678,1669197639,53187,50716,5899972170,8299,27.01,11.19,10.86,0.49,0.0,888182581,881345000,9024000,902259101,14
811154071,452882,326101239,12906914,326498526,12926155,141355,5260986,1479285818,37364,812184929,7040,12563,2243082795,136,11.91,4.96,4.82,0.2,0.0,398737738,399587000,0,412812188,14
2408110636,23404738,1041900531,9920760,1042183538,9820400,2150319,22421429,3921026542,120691,2400285258,62542,60800,6987155605,8301,31.47,12.93,12.54,0.56,0.0,1059301362,1047105000,14028000,1073222065,14
2184264606,18671806,967935421,5637609,962799554,5555864,3252685,19394813,3096109950,113349,2176893495,51946,45010,6350332948,8301,25.28,10.62,10.32,0.46,0.0,832943471,822979000,11026000,847156513,14
2237387675,3750622,1014043144,5438425,1017422424,5320014,1536801,16422737,3382864804,98476,2251555146,63982,36815,6510556002,4204,27.65,11.42,11.09,0.48,0.0,910813719,910618000,1001000,924976975,14
4055991621,31115202,1710314483,20915952,1713015614,21112886,3748502,29626360,6387988621,191677,4067132290,69033,70392,11558486527,8299,51.69,21.34,20.72,0.92,0.0,1722968944,1713718000,11011000,1736964711,14
3878127215,30915133,1662756131,20578502,1666527696,20494575,3052897,29713253,6260806315,200581,3865743767,75188,79313,11249363979,8301,50.73,20.94,20.33,0.89,0.0,1686540482,1678545000,9008000,1700748099,14
1760586511,1664259,753575912,8673768,755603235,8367198,516098,11434344,3049839297,83432,1764501945,18685,23798,5106890811,1736,24.19,9.95,9.65,0.42,0.0,821960117,817430000,5002000,836053434,14
3144140828,29829570,1308820660,23072409,1309650201,22949199,2150337,28089580,5302183836,159947,3150102789,66339,59258,8967210266,8306,43.06,17.74,17.22,0.75,0.0,1431751864,1417512000,15005000,1445739550,14
711041608,685101,285396019,13111362,285343614,13021104,1018993,6155097,1427158933,51762,703654024,32124,24551,1915486766,4263,11.65,4.77,4.63,0.2,0.0,385425466,378337000,7006000,399827799,14
3649202198,30222915,1596631003,8364371,1590928906,8611770,3435283,28020203,5638084222,179744,3633317058,72349,64708,10586589634,8304,44.83,18.75,18.2,0.81,0.0,1531123104,1515666000,5963000,1545473028,14
3639296844,30032793,1598986535,8402769,1592528879,8595915,3389598,27247733,5630053513,176167,3626330228,66349,57362,10576966302,8301,45.28,18.99,18.44,0.81,0.0,1531171868,1509227000,9922000,1545625379,14
4422993685,28020863,1890394246,29340021,1894020949,28943999,4607686,34066613,7039322835,208130,4447769002,76798,78219,12574469007,10349,57.1,23.72,23.03,1.02,0.0,1909538669,1879277000,19897000,1923786182,14
669664136,436739,255473735,12417238,255691316,12402584,130091,4619072,1317617426,32029,671712459,5982,9798,2109281059,135,10.51,4.27,4.14,0.18,0.0,358388553,355651000,996000,372605752,14
4224875867,33623241,1810170523,20822972,1813289456,20669150,4323491,33874245,6504601348,219277,4237649771,104954,83586,12348992583,9118,52.98,22.03,21.41,0.93,0.0,1747607747,1732696000,8972000,1761743603,14
686100305,4047769,289817541,12432929,289957657,12343989,3272165,8188712,1510086339,86001,691072484,115382,75838,1978968366,20359,12.02,4.95,4.79,0.23,0.0,409730815,375468000,32953000,423900276,14
4644422660,39442377,1972781881,23096324,1977266955,22991583,3147720,31903948,7384185477,219235,4647285302,85766,81873,13381897861,8302,59.21,24.29,23.56,1.05,0.0,1998045473,1982973000,10983000,2012137956,14
2318488474,6363090,1013595625,18220523,1013656946,18386655,3739692,21254295,3643706304,119669,2310965992,52506,60540,6542757323,8303,29.72,12.33,11.97,0.54,0.0,989906920,977200000,10979000,1004077183,14
1791269795,2215751,778277963,8845145,777018930,8913687,655455,12048029,2920465826,82765,1784126641,29190,29941,5192550528,3622,23.41,9.6,9.31,0.41,0.0,791925027,784634000,5997000,806149221,14
3117755487,29269495,1292015916,26937362,1294918622,26920911,2335662,29484293,5325963771,158759,3118657739,78129,66937,8862912079,8304,42.78,17.47,16.95,0.76,0.0,1445622437,1433770000,9984000,1459793147,14
5659035736,31624049,2353054402,22456302,2356079861,22306490,3850521,37667582,8806396537,251003,5667160633,125204,88621,16051744725,8302,70.74,29.19,28.33,1.26,0.0,2380652081,2363188000,14988000,2394875370,14
2729457926,29111087,1177706996,10612505,1176589734,10608064,2321550,24942091,4462234673,137613,2723788964,64516,63118,7911513893,8302,35.7,14.75,14.32,0.64,0.0,1210035122,1195637000,12985000,1224331168,14
3913822969,30443023,1673773974,20462459,1673137243,20336561,3778380,30061449,6222660690,196358,3891139305,63569,63212,11177556098,8297,50.55,20.93,20.32,0.89,0.0,1678497053,1659969000,16979000,1692595723,14
2026565392,2065236,852668384,11955190,851459734,12155682,440372,13788161,3792918955,97107,2024346815,29007,44710,5852802952,1744,30.0,12.23,11.86,0.53,0.0,1024304072,1022688000,2001000,1038693564,14
2967905948,28163885,1220473624,25780357,1218484447,25521857,1753513,27072053,5111944253,145920,2966292001,37198,47272,8412957327,4237,40.97,16.94,16.45,0.72,0.0,1377745798,1368527000,8996000,1391973170,14
2308088152,5084928,1012524827,5672802,1014528099,5530419,2490110,17850618,3576972631,112642,2320473259,73271,59590,6701359002,12136,29.1,12.14,11.79,0.52,0.0,965868330,949833000,15997000,980203181,14
199001650,284021,257247487,13513145,257100555,13532762,160874,2890487,725486049,18000,198642027,2903,5134,936380169,131,5.57,2.22,2.16,0.1,0.0,196327423,195210000,1001000,210264716,14
200364564,545261,194382637,6298188,195706695,6306637,524529,2792344,491306947,18528,199595080,8519,9404,739883234,2305,4.15,1.59,1.53,0.07,0.0,132886190,129544000,3012000,146753388,14
1397527783,3810907,634406318,3797909,632557871,3998007,2168840,13576343,2029101327,91983,1399524803,45227,35020,4111558748,7258,16.5,6.89,6.69,0.3,0.0,542615020,536320000,6003000,556684497,14
3097393138,29444548,1286236219,23380081,1287454327,23214213,2085847,27726769,5157492272,155562,3091946799,66736,81374,8813793673,8301,41.78,16.98,16.48,0.73,0.0,1393878527,1373666000,19995000,1408062733,14
3054685602,31535200,1279379717,22914958,1281217160,22677818,1931761,28435921,5710831345,157374,3064930005,87488,63790,8933596377,8298,45.77,18.68,18.12,0.81,0.0,1541489792,1527007000,14000000,1555681785,14
147795978,244693,166079080,14053139,165746098,14063199,120395,2185475,561928811,14584,147720764,2704,4629,666415020,137,4.32,1.77,1.72,0.08,0.0,151739429,150370000,995000,165876750,14
5973713764,3471565,2544698224,14938858,2544111178,15024796,649655,32693653,9565862185,239704,5973964769,58564,68808,17534785893,1192,76.83,31.84,30.92,1.32,0.0,2585262658,2583274000,999000,2599388625,14
3875157535,30962278,1654621348,21029770,1654951695,21101519,3544457,29268261,6159256062,182174,3876963806,61690,69628,11031267187,8301,49.55,20.34,19.73,0.88,0.0,1660875682,1646152000,13992000,1675245281,14
2138469641,2854659,886580054,19864619,888545335,19780173,914596,14766002,3702449494,108274,2140841824,46511,33645,6077788432,3345,29.86,12.23,11.86,0.52,0.0,1001419252,994800000,5998000,1015426720,14
761842357,3192417,663226572,6143399,657937266,6394730,1345591,9297568,1505556201,51551,764616816,36695,27815,2745050302,7146,12.13,5.08,4.94,0.22,0.0,405906706,398552000,6992000,420309757,14
2352647160,6108359,1020063148,18778679,1021232370,18897093,3519679,21473250,3558806620,122719,2365213392,52588,46939,6991080844,8299,29.14,12.13,11.78,0.53,0.0,959912258,949190000,10002000,974262191,14
351595409,774611,190119136,1641555,191650329,1643398,252070,3088099,557640133,17371,353021131,12352,5802,1051601395,1041,4.63,1.82,1.77,0.08,0.0,152113626,151701000,0,166292660,15
229281209,639324,149886637,1721988,151568940,1677263,232156,2457910,412789261,12627,232933232,9564,3886,796667930,521,3.35,1.38,1.34,0.06,0.0,111614520,105252000,5957000,125881964,15
198925580,627370,135076308,1779533,137172383,1701649,222748,2093469,346647162,10124,202221905,5591,3996,695019879,522,2.8,1.15,1.12,0.05,0.0,93835056,91502000,1989000,108117536,15
639450615,711123,361376510,2060699,358964898,2026792,261896,3840539,825114014,22533,645552460,21521,6600,1856193106,519,7.03,2.9,2.82,0.12,0.0,223199010,218705000,3994000,237572215,15
323917424,989498,175342806,1623611,172084086,1624613,333654,3345467,507263761,15145,325578828,5620,6362,975609927,916,4.09,1.69,1.63,0.07,0.0,137286150,135804000,998000,151527133,15
648165776,6201893,374059424,3046336,374544386,3041689,2248681,16266703,1091808034,258125,651554079,30229,10683,1890858166,2474,9.25,3.65,3.55,0.18,0.0,294849891,288306000,5985000,309231428,15
634172076,682322,357857275,2042812,355395399,2017826,248044,3642834,809517994,24138,634110296,21176,6801,1836993675,519,6.74,2.84,2.77,0.11,0.0,218617451,213214000,4981000,232819715,15
200722851,536767,161909941,1613090,160727687,1630885,251998,2344934,366624035,13057,204410288,4519,3333,668410963,523,3.04,1.21,1.19,0.05,0.0,99425188,96097000,3003000,113708475,15
358200582,747722,185201832,1633096,184642316,1611739,222925,3053574,542582424,18734,356967491,11974,5651,1047388962,1040,4.4,1.83,1.78,0.08,0.0,146679615,145298000,995000,160835662,15
354563521,753710,182589004,1661927,182518824,1631604,229234,2966551,544862158,17306,353833184,9821,6152,1046217817,1043,4.51,1.83,1.76,0.08,0.0,147262213,141776000,5027000,161475428,15
324369341,980696,174841044,1626265,171506856,1609106,316599,3270166,501375788,15273,323314921,6556,4196,972114640,917,4.07,1.67,1.62,0.07,0.0,135323813,131979000,2999000,149552946,15
634847353,5754045,376427770,3074057,375168297,3058784,2087384,15673710,1105754587,274687,630702053,25684,13641,1876385244,2472,9.36,3.69,3.58,0.18,0.0,300178986,295660000,3995000,314509072,15
647369154,1239640,367707875,2118327,367594905,2102292,376772,4892595,845708573,27191,644165918,32957,9153,1866939355,1938,7.08,2.93,2.85,0.12,0.0,228479289,222989000,4999000,242814307,15
306184499,671899,158752282,1563032,158824730,1611217,292196,2886054,467321993,17700,304475229,7577,4202,912954080,1042,3.83,1.57,1.53,0.07,0.0,126758865,124401000,2006000,140802509,15
1102233749,1386226,599192249,2178309,599734510,2155095,319661,7634938,1691231864,44977,1111425809,25398,13232,3277933055,909,13.74,5.54,5.37,0.23,0.0,456741740,454191000,1996000,471025746,15
345647466,789082,188034099,1643257,188561272,1624479,257236,3058898,553212204,17615,344971525,13125,6430,1032814483,1040,4.53,1.86,1.8,0.08,0.0,149493402,148158000,1001000,163615795,15
331684200,623922,170046931,1598281,167021452,1623876,246204,2741717,502852668,14697,329117037,5756,4258,986170740,525,4.17,1.68,1.64,0.07,0.0,135738888,132416000,2986000,150052436,15
247031783,1018011,132113528,1712076,131853425,1665602,346747,2999456,408370698,18052,253164248,5332,3698,731430768,915,3.3,1.36,1.31,0.06,0.0,110408092,108071000,2001000,124607401,15
346865292,1013335,169897137,1625017,165222724,1653425,364672,3306171,507528147,14697,344157531,6230,4825,1041033316,917,4.13,1.68,1.64,0.07,0.0,137356376,134700000,1995000,151573776,15
321986417,614799,174275466,1640724,171605460,1638736,257649,2771429,505711996,14997,321729975,4858,4296,964444036,526,4.14,1.66,1.61,0.07,0.0,136698933,135417000,1003000,150701790,15
1910344562,2894655,1054394195,4658866,1050452896,4632791,806309,16267027,3899137992,106595,1907104271,68941,29907,5928151625,1698,30.68,12.13,11.77,0.54,0.0,1054022726,1048211000,4996000,1068350329,15
357905592,1203173,178577511,1620613,179364646,1610155,314249,3754297,543351489,31125,355607617,19719,8108,1070333642,1945,4.45,1.83,1.78,0.08,0.0,147120419,143826000,2996000,161355925,15
336180972,997284,166590535,1620340,162656044,1635662,350407,3315446,505640614,14252,334840728,8341,4192,1022567003,916,4.22,1.7,1.64,0.07,0.0,137215076,131929000,4959000,151475614,15
723344664,1146709,374238302,2158195,369704484,2128788,408513,4751843,915737360,28047,723732852,19411,7624,2077148711,910,7.62,3.14,3.06,0.13,0.0,245995237,241496000,3991000,260407013,15
648560394,637921,353637196,2021210,347999106,2028857,246743,3732981,796101796,24007,642160904,24149,6986,1846488068,519,6.68,2.77,2.71,0.11,0.0,216560186,214159000,2001000,230831714,15
3569752887,7708617,1837674142,3079552,1837671109,3086681,4635310,34164491,6017634206,260313,3574213591,55652,51742,11063237540,4356,49.04,20.0,19.41,0.88,0.0,1623196414,1613038000,8994000,1637329586,15
353717736,773236,182138405,1658580,182511307,1645326,229203,3042118,547286399,19453,353039180,10626,6579,1046685253,1041,4.5,1.81,1.75,0.08,0.0,148323817,144922000,2998000,162472318,15
270093807,1002387,130505960,1690200,127583227,1693308,346838,3222317,411738116,20422,272955515,4721,3069,793348837,913,3.31,1.35,1.31,0.06,0.0,111877897,107645000,3986000,126075993,15
264520115,1053414,133548517,1628601,130921736,1713449,357283,3121415,403492433,18889,267254591,6103,4150,748384861,914,3.25,1.29,1.26,0.06,0.0,109295429,104829000,3993000,123579751,15
637161142,1040382,360352335,2138757,356088417,2131481,388519,4413080,819498779,23903,633536249,19704,7293,1843554701,912,6.88,2.83,2.76,0.12,0.0,222049273,215590000,5988000,236180496,15
370718445,818322,189144471,1577912,189896060,1607445,271658,3193079,558172041,15851,377081107,11021,6006,1088637003,1041,4.58,1.79,1.73,0.08,0.0,154645033,148305000,6012000,168801480,15
1552334019,2495412,844783192,4570440,843091623,4601925,794934,13052609,3024185356,82542,1554954003,39861,21780,4769733720,1696,23.77,9.57,9.28,0.42,0.0,817525493,814860000,1997000,831915495,15
347139926,653956,187545599,1669918,186481250,1644625,241513,2851599,551340632,16270,348685439,8837,5226,1045664120,525,4.46,1.85,1.79,0.08,0.0,149050845,147736000,998000,163376795,15
341264876,698737,200073687,1645357,201670155,1648968,227350,3073017,542271996,18775,338489818,13626,6396,1109061103,1038,4.57,1.83,1.78,0.08,0.0,147115132,143725000,2994000,161394605,15
328641148,1023595,177403138,1632410,173619200,1629378,467212,3624065,517208037,15598,330274490,5805,4107,988609608,915,4.12,1.7,1.65,0.07,0.0,138640633,133190000,4969000,152951999,15
1145487509,5650940,541269723,1843283,539331498,1846367,4105011,19972828,2178774481,156095,1147023184,27628,17783,3434681139,2868,17.3,6.87,6.66,0.35,0.0,589269476,582719000,5997000,603507403,15
656912107,819992,356546040,2020231,357575136,1993694,293651,3992660,821623788,23504,658922269,17395,7590,1895074590,1034,6.92,2.87,2.79,0.11,0.0,222113998,218704000,2995000,236460787,15
256722243,667693,134220341,1631181,133244158,1681486,238591,2465596,416143704,11945,260278828,10172,3436,740099464,527,3.4,1.37,1.34,0.06,0.0,112696955,112393000,0,126839367,15
661288480,869203,376220082,2079236,373969139,2051884,417588,4088503,871604175,24952,660437022,27676,8584,1919765264,1033,7.37,3.08,2.98,0.12,0.0,235059651,229572000,4990000,249629922,15
686682453,1274393,372672007,2103035,372305844,2105415,331931,4796190,870319536,34839,683930951,36592,10548,1979603936,1938,7.46,3.07,2.99,0.12,0.0,235248782,231836000,2997000,249635743,15
338305246,610963,170416158,1614194,167864353,1635010,231495,2641434,500206537,14580,335827508,6594,4147,1000925486,523,4.09,1.69,1.63,0.07,0.0,135367697,132970000,1999000,149318684,15
246867486,672628,128000495,1692638,129263714,1627506,235066,2259910,409134114,11035,254571864,5199,5258,720579727,525,3.28,1.35,1.31,0.06,0.0,110771878,110366000,0,124808008,15
322678955,635108,175107994,1619269,172823289,1628093,279782,2816826,511541557,15143,324569106,6189,4688,973260657,526,4.18,1.75,1.69,0.07,0.0,137936268,134559000,2990000,152174110,15
326286305,634818,176886920,1619075,174836783,1626787,260741,2879538,517473801,14597,328357102,5229,3783,987221333,525,4.25,1.73,1.69,0.07,0.0,140366302,137049000,3001000,154522589,15
242269623,667947,131735556,1710913,132377235,1671708,230878,2433154,409111895,11646,248744780,6542,3349,719558572,524,3.26,1.33,1.3,0.06,0.0,110709617,107422000,2983000,124940905,15
345203178,756653,175877076,1616752,175686215,1633107,255139,3048937,525498619,17140,346828328,11942,5088,1025126425,1044,4.31,1.77,1.71,0.07,0.0,141918565,138543000,2990000,156217663,15
351970429,1233240,191725476,1633327,192948410,1630105,358559,3899646,569057462,19306,353610215,14991,6763,1057918108,1947,4.6,1.92,1.86,0.08,0.0,153317877,149994000,2999000,167616239,15
799169066,1242403,417144373,1769767,415253133,1764893,434250,6750454,1400866240,45780,800882710,8494,9254,2431777817,914,11.07,4.4,4.25,0.2,0.0,379080532,376744000,2003000,393102238,15
251082761,1010129,135414637,1669846,131845927,1706682,523731,3404627,411032778,20937,251399598,6764,3100,742685114,917,3.3,1.35,1.31,0.06,0.0,111791199,108372000,3010000,125914576,15
346613966,722376,205249117,1671783,205224882,1649931,226992,2933846,557646736,16500,347237342,14674,6192,1136959267,1037,4.53,1.89,1.84,0.08,0.0,150771072,145429000,5014000,164994146,15
284683208,879385,322893120,1670251,324088239,1652622,271008,3394893,652129121,18351,292430036,9283,6498,1338733480,719,5.26,2.15,2.1,0.09,0.0,176316529,172991000,2999000,190562601,15
350894352,832057,175970412,1634511,171716593,1648613,369857,3658102,521550556,19365,348139403,9367,4249,1034859506,917,4.38,1.74,1.68,0.08,0.0,141791100,141495000,0,155870197,15
656683691,831480,356263037,2014750,356998218,1996587,283295,4004868,820161490,24526,659898614,21883,8130,1887387891,1033,7.04,2.89,2.81,0.12,0.0,222488138,217167000,4980000,236655210,15
659714721,799009,356770027,2014999,357052989,1992507,298397,4020332,819714556,23456,659090167,19665,7331,1888575113,1034,6.9,2.87,2.8,0.11,0.0,221774957,219521000,2004000,236077199,15
299037906,614983,151352872,1630814,150618225,1589441,227661,2499087,439614641,14539,298637522,4411,4124,878054113,525,3.64,1.47,1.41,0.06,0.0,119984447,117718000,2012000,134163001,15
296993556,625462,150112201,1595651,149209731,1560025,248383,2549357,438224401,13495,301817931,4235,3710,877754541,526,3.61,1.47,1.44,0.06,0.0,118727405,115400000,3010000,132884243,15
638620395,1014397,360743132,2163806,356706555,2134648,348702,4382184,812779605,24421,630914878,22451,7336,1838831746,909,7.03,2.87,2.79,0.11,0.0,219861792,217566000,2005000,234154354,15
420658257,649058,223822014,1687472,222326763,1631413,236799,3192182,649299163,19219,419022350,22526,5150,1255402283,524,5.24,2.17,2.11,0.09,0.0,176983753,175691000,1003000,190985370,15
326554467,603271,176748832,1620273,174812486,1614946,286849,2893222,512400761,16644,326507210,4757,4462,982154910,525,4.1,1.63,1.58,0.07,0.0,142181286,136819000,4993000,156400630,15
636570364,711410,359285614,2047956,355743444,2033555,350505,3857684,812132789,23692,633659701,20676,7054,1841095561,518,6.94,2.83,2.75,0.11,0.0,219203262,218753000,0,233480695,15
636444765,1150805,352832079,2049391,352213476,2063625,426879,4599780,791927743,29200,630570265,25360,9375,1817266830,1939,6.71,2.78,2.71,0.11,0.0,214525909,207268000,6975000,228836097,15
310171495,669653,158262023,1588720,158476834,1606041,295518,2871463,467528946,16651,312078910,7453,3936,925376717,1041,3.82,1.58,1.54,0.07,0.0,126012845,121691000,4022000,140154447,15
636466997,627541,359862825,2050208,357375624,2045675,481280,4119498,814345415,24180,632161570,20513,6270,1836437003,519,6.97,2.76,2.67,0.12,0.0,224004832,221618000,1996000,238470447,15
1146222691,5596688,546414209,1854137,544230987,1861235,3989845,19582491,2159249994,176060,1138697017,38583,17731,3436113681,2871,17.3,6.85,6.65,0.34,0.0,582627236,580130000,2000000,596980933,15
251758636,993757,124788007,1719034,124866247,1650932,315130,2877248,404412342,18985,256764224,6688,3478,732282497,915,3.27,1.33,1.29,0.06,0.0,108869149,104574000,3983000,123213241,15
654676681,684138,355507930,2063383,353979850,2029400,246409,3714923,808840430,24464,653675327,23355,7357,1867626339,518,6.8,2.82,2.74,0.11,0.0,218722215,217411000,1001000,232586647,15
633362087,734262,357452503,2042615,355614359,2014008,240296,3672708,809431198,23331,635556994,21035,7061,1838932933,519,6.94,2.83,2.75,0.11,0.0,218751178,218383000,0,232981425,15
345737245,772106,186816285,1643106,188795222,1635198,216448,3018883,546521720,17390,345325110,12957,6047,1031162192,1042,4.45,1.8,1.74,0.08,0.0,149399098,144106000,5003000,163606143,15
353528573,780909,192065499,1621380,192345785,1628868,249496,3141506,565142112,18042,354507899,9083,6876,1058743816,1040,4.68,1.87,1.81,0.08,0.0,152697337,147401000,4979000,166737167,15
657286025,879088,371819753,2209358,374559468,2226651,269851,4272174,883776241,27835,660184864,64566,8819,1911304369,1035,7.46,3.11,3.02,0.12,0.0,238578032,236175000,2001000,252698556,15
1108344599,1335173,599416943,2185332,598866598,2163632,548686,7733495,1717608108,50532,1118016800,20862,12445,3294711329,909,14.08,5.72,5.55,0.24,0.0,461410012,456507000,3995000,475725973,15
1440415987,12614828,642215298,12452400,641784726,12338104,9356722,37587683,2496121339,607450,1439990207,84882,28157,3954859314,11164,20.16,8.22,7.96,0.41,0.0,675417366,648910000,25996000,689715658,15
637433200,653355,359583502,2121800,356402129,2108528,277825,3867014,819495057,24151,632029041,21740,7734,1836875945,519,6.98,2.9,2.82,0.12,0.0,222606142,218210000,4003000,236736180,15
797505729,1296839,415855040,1774216,415543523,1758624,488638,6708554,1396486523,41774,804119848,9534,9996,2427513234,915,10.93,4.44,4.31,0.19,0.0,377207657,373846000,2998000,391560762,15
1113230931,6153010,623094973,3798959,621942465,3804401,3422749,20138227,2036309293,451088,1118711614,28138,18354,3361547180,3254,17.29,6.75,6.55,0.32,0.0,550221786,539641000,9993000,564506146,15
252298696,1021290,136507955,1668881,134510421,1680037,450252,3340717,416453891,16193,253821583,14015,5028,746967877,1697,3.52,1.33,1.29,0.06,0.0,113886593,111513000,2009000,128130385,15
322261093,639301,174668757,1624816,172322035,1622707,233689,2727191,506983112,14244,323852852,11130,4229,970832669,526,4.07,1.68,1.63,0.07,0.0,137346583,135102000,2001000,151492792,15
744535855,840548,391476515,1726858,389979703,1713922,347083,5465708,1292921154,39483,745604397,9412,9364,2264922580,524,10.3,4.11,3.98,0.18,0.0,350612716,348046000,2000000,364923796,15
381542065,764601,193563172,1642499,193397342,1662198,235835,3007997,556451986,17639,379560583,14454,6309,1106302199,1041,4.57,1.89,1.84,0.08,0.0,150769943,146459000,3985000,165185247,15
642864571,752780,349230015,2037323,347129748,2003358,337140,3836847,797203182,22370,646902685,20869,7397,1855448550,518,6.79,2.8,2.72,0.11,0.0,214934583,212335000,2003000,229359400,15
2020386403,1069100,512863765,1825860,513589542,1816837,576527,7893087,1748466870,51662,2019288146,13646,15870,5366111193,1756,14.85,5.94,5.78,0.24,0.0,470035677,469568000,0,484012833,16
4532982881,1274972,1614244883,2129864,1611357412,2129224,547570,15033868,4301270976,112156,4525536256,20425,30058,12697073584,1111,36.27,15.61,15.2,0.6,0.0,1164761772,1161278000,3000000,1178890727,16
4344177373,1336239,1219355946,1610220,1217888349,1619051,700225,13018438,3510498478,141294,4329207031,30102,24938,10512753588,2082,29.62,12.79,12.46,0.49,0.0,952155896,947600000,4002000,966170691,16
3033548019,931047,913218179,1848163,910473537,1835376,651897,9262060,2483330569,122003,3018180216,15284,18605,7687590503,2087,20.25,8.41,8.17,0.35,0.0,674726820,667294000,6992000,688895569,16
5895589105,1836714,1939346307,2993894,1936724873,2986797,837089,20264090,5837226538,176684,5888881203,35348,44280,17283957458,2090,48.62,20.82,20.25,0.81,0.0,1580212461,1574499000,4998000,1594325922,16
4572139679,2299279,2135052263,2752811,2132409807,2744081,954582,20032776,5564929122,158120,4561958766,66414,42467,12622640158,6860,48.72,19.97,19.43,0.77,0.0,1500226228,1490864000,9005000,1514399859,16
8446912818,53618426,3215504191,1944755,3213307612,1963193,48482955,143331942,9194005030,624549,8434504610,70542,74758,24880119225,5996,77.72,32.69,31.7,1.88,0.0,2483167483,2470361000,11996000,2497486352,16
6177259520,2596080,2538539937,3231975,2539493744,3235936,1075798,24804315,7225330287,177879,6177444572,36690,63303,16528114568,3102,59.41,24.93,24.23,1.01,0.0,1953915645,1946003000,6996000,1968096693,16
2215184916,690329,508524345,1652834,508363555,1649726,282659,6590247,1825694665,45349,2218750919,10788,13132,5153523574,1111,15.77,6.29,6.12,0.25,0.0,492650092,489296000,3001000,506874548,16
3030959390,901388,914480555,1814463,912056508,1814027,621303,9024255,2511501090,127764,3016991789,18251,20526,7879797980,2083,20.98,8.85,8.61,0.35,0.0,679119574,674805000,3998000,693311553,16
2209427113,734702,508818134,1661594,509112324,1653790,332650,6710929,1826788475,45839,2216176254,10374,16855,5146125071,1111,15.6,6.28,6.1,0.25,0.0,497154349,494862000,1995000,511237333,16
2332711821,779307,614024552,1688800,611434969,1685439,565632,7801499,2024288357,56670,2309255132,16954,14215,5672782176,2082,16.71,7.04,6.85,0.28,0.0,548877074,544558000,3996000,562992757,16
5337138954,1574725,1720581133,1821279,1718529168,1809849,651407,16825423,4842108333,182018,5322842021,32633,39039,14505436899,2120,40.66,17.4,16.94,0.67,0.0,1311724781,1307303000,3997000,1325909729,16
5468627275,2019454,2235992927,2499486,2234240665,2495326,794565,22706040,6669121559,162165,5459592702,36872,46636,15305375958,2085,54.38,22.72,22.08,0.92,0.0,1801922261,1796988000,3997000,1816019314,16
4529589832,1416902,1516123195,2118359,1513822601,2117623,693124,15289006,4309028158,110427,4521567283,21638,33419,12991100176,2088,36.17,15.55,15.14,0.6,0.0,1162392189,1157065000,5000000,1176798583,16
2627507902,906047,714835556,2414196,712713932,2407050,575535,8864120,2324406829,62699,2616706687,20369,17200,6577935841,2084,19.48,8.4,8.16,0.33,0.0,629953937,621613000,7995000,644184279,16
4529790730,1340286,1514644602,2165949,1511759580,2162887,650405,15498065,4455202442,106988,4525099688,19292,31311,12794578063,1105,37.72,16.4,15.96,0.62,0.0,1203621385,1200883000,1999000,1217864167,16
4638263382,1337494,1623481323,2713611,1621254852,2708548,663908,15052151,4267078402,105889,4621895171,23829,33798,12802491625,2084,35.2,14.89,14.48,0.59,0.0,1153780183,1149339000,3997000,1168075071,16
3328012152,13639973,917676445,813299,918226811,805567,9195813,37329292,2630880390,278794,3307937937,17266,17984,8178169584,2086,22.42,9.59,9.31,0.5,0.0,709435402,705130000,3995000,723719424,16
6315861614,2494289,2765034307,2986473,2765474344,2977966,922496,26204888,7660283392,180791,6310775320,45078,52993,18375372978,2082,62.45,26.24,25.5,1.06,0.0,2068678409,2062380000,6001000,2082737985,16
5931514528,1546072,2216618522,2300930,2213811855,2302179,616243,18759123,5468090592,149933,5922485766,24246,35760,16894256466,1109,45.69,19.62,19.08,0.76,0.0,1476485330,1473141000,3000000,1490805132,16
2729534620,1164774,652780622,20498383,652338034,20422358,645271,11427500,3027472480,94913,2721397334,18727,21172,5712255384,2085,24.85,10.5,10.2,0.42,0.0,819860196,814576000,5003000,833906661,16
3135134650,1018967,613818866,1723210,612754794,1719201,647673,8694014,2211597107,75498,3119826191,18435,18438,5872321670,2080,17.55,6.97,6.75,0.31,0.0,598996409,596681000,2002000,613146087,16
2332666430,672414,511137138,1653700,509603484,1652849,399241,7130759,1876934191,55035,2323483735,7678,13233,4681267272,1108,15.26,6.28,6.11,0.26,0.0,508158830,504852000,2999000,522517282,16
5574061464,1824570,2134899756,2454503,2133535052,2453335,560873,21657481,6412255935,156057,5564940291,29991,43783,15723678278,1108,52.02,21.4,20.79,0.88,0.0,1730221768,1726773000,2999000,1744625716,16
2218119535,1362489,1316053274,1622104,1318468817,1617032,804817,8961827,2312151978,69094,2204628895,46657,26685,6577205132,5052,19.44,8.31,8.08,0.33,0.0,624889522,617601000,7006000,639079715,16
6540965471,29916066,2241227365,6165632,2239969605,6169941,28523421,76178849,7358019527,441158,6549080237,433446,145271,19821027617,98813,61.82,25.82,25.05,1.37,0.0,1989248024,1835820000,152985000,2003713611,16
2012723681,815052,509114493,1645628,509573375,1639481,331385,6347589,1741197587,47268,2017018833,15561,15325,5355014094,2087,14.73,5.9,5.73,0.24,0.0,471686349,469380000,2001000,486096391,16
5568359527,2041711,2134320928,2485910,2133353443,2488096,934757,22638762,6407643673,159476,5563936817,36014,47318,16112605835,2089,52.53,21.68,21.06,0.89,0.0,1736687820,1731981000,3997000,1750903457,16
3030564901,20932139,764888111,1008843,765803575,972061,27326043,47838780,3015306094,784135,3029177864,505058,118059,8516640202,98765,25.64,10.49,10.15,0.73,0.0,815155486,626899000,187969000,829456542,16
4524158866,13934752,1611458090,738352,1609867880,730901,9189623,42469085,4124944127,269414,4512921160,26709,27268,13273990352,2088,34.52,14.6,14.19,0.74,0.0,1115552834,1111184000,4000000,1129632477,16
6274076773,2157893,2635351489,2573214,2632778398,2572830,981151,24446650,7092716694,203463,6268633357,37068,50510,17823245648,2094,58.55,24.67,23.99,0.98,0.0,1919942629,1915406000,3998000,1934123454,16
4735094057,1342071,1716448607,2321072,1713766241,2318345,654979,14181460,3978902842,104605,4722354737,24162,28643,12903085781,1829,33.23,14.12,13.74,0.55,0.0,1074668349,1067983000,5999000,1088967119,16
2324287986,991027,551830505,18704711,551077743,18651568,559953,9713368,2676750355,69633,2314745581,21310,24238,5602835211,2087,22.09,9.39,9.12,0.37,0.0,724384673,718030000,6000000,738402373,16
4533140782,1638658,1556895810,28305374,1555615484,28238898,804714,18580730,5382032718,142280,4519450183,38718,43242,12425499158,2094,44.48,18.45,17.93,0.75,0.0,1459883590,1454193000,5000000,1474117456,16
11586885577,10441900,4540793426,2746633,4538006370,2707082,2134715,60269103,13919005008,349249,11579222537,62621,100194,32974287603,1107,113.72,46.62,45.27,1.93,0.0,3747551822,3745593000,1000000,3761817832,16
6621088468,1984833,2451278913,24905124,2449321857,24870833,748990,24778635,7376964224,194036,6614460407,33554,48958,19304411499,1106,61.74,26.3,25.59,1.02,0.0,1989751399,1986173000,3000000,2003893374,16
4528942026,1321361,1514203421,1743143,1511957803,1739882,516156,15100038,4436131449,123713,4521165213,22998,31044,12889692192,1111,37.69,16.25,15.82,0.61,0.0,1197346783,1193771000,2999000,1211559038,16
2018635431,757630,509050634,1652783,509283230,1648257,357492,6316147,1708304116,47818,2021419938,13369,17725,4859290767,2082,14.73,5.95,5.77,0.24,0.0,463409280,460060000,3000000,477569858,16
2523495335,1097357,1152918619,12569807,1151084345,12530847,530991,11069940,3031496182,82211,2517239925,24951,20815,6715023919,1683,25.63,11.13,10.83,0.42,0.0,820192853,816746000,2999000,834381364,16
2327673822,679555,509427420,1651311,508650136,1657760,361333,6881303,1855563334,57629,2323144846,9155,13149,4768592130,1104,14.88,6.09,5.91,0.26,0.0,500647907,496316000,3994000,514986090,16
4528902058,1447769,1518029009,2775733,1516591739,2765306,796391,15156840,4235226043,131553,4516850261,27956,30346,12385294507,2085,35.29,15.02,14.61,0.59,0.0,1143546959,1140073000,3000000,1157717829,16
4158503011,16890396,1050622699,5800287,1048794429,5785865,14017663,40251924,4341524397,329952,4145538679,311446,136304,13075688881,98766,37.56,14.77,14.33,0.74,0.0,1171698927,1018855000,151829000,1186067719,16
5473145024,1891732,2134204242,2490828,2132523523,2487731,621697,22206387,6591035793,158489,5471553946,31777,42282,15429360148,1111,54.39,23.06,22.42,0.91,0.0,1778790015,1772297000,4995000,1793197740,16
2098921955,15483117,403310519,914847,404462283,891022,13582316,32686295,2490164289,237728,2101058547,245046,127299,6993844314,98762,21.12,8.17,7.9,0.47,0.0,672212310,537357000,134089000,686247578,16
4264357900,1414868,1629163399,1808641,1627369865,1823600,676488,16518619,4658426051,116146,4263944522,25587,29947,12007697819,1109,37.71,15.48,15.02,0.65,0.0,1260133284,1255905000,2997000,1274376126,16
4535940764,1362617,1519866158,2113641,1517320741,2121540,727260,15142009,4228008499,127008,4522515310,28287,30054,12399701183,2087,35.38,15.15,14.74,0.59,0.0,1140572631,1135438000,3998000,1154775646,16
2534035609,886910,513156172,1666168,511999269,1655961,513125,7367075,1849050392,68888,2515032758,14249,17367,4763468515,2080,15.33,6.48,6.31,0.26,0.0,500423888,495867000,3998000,514846491,16
2022495794,850729,550747960,24358013,550668650,24316096,491270,9814531,2712294764,77901,2017136633,11651,18322,4597246126,1103,22.41,9.4,9.14,0.38,0.0,732332264,729568000,1998000,746400042,16
5525058807,1888874,1915353638,2529394,1915279828,2530489,832222,17588438,4960380302,127888,5519563705,48275,38405,14179792052,2951,40.64,17.08,16.61,0.69,0.0,1341107951,1332917000,6994000,1355470920,16
1615402484,628100,511599722,2264933,512069251,2267388,242183,5500628,1481656516,42982,1619216124,22260,13616,3959977570,2083,12.71,5.03,4.89,0.2,0.0,399878148,395264000,4002000,414040927,16
2534274468,816703,615029789,1384880,612995245,1378169,726134,7992585,2075733671,56794,2515644650,21158,17029,5378468989,2088,17.42,7.45,7.24,0.29,0.0,561821682,560280000,1000000,576059432,16
3905638803,1288965,1157348481,18168277,1155710113,18119019,755938,14351727,4019471984,99341,3895976030,18250,27447,10168509303,1105,33.11,14.06,13.67,0.56,0.0,1084636397,1081615000,1999000,1098845228,16
3828772540,1277521,1515147558,2334761,1512343187,2332611,749308,13534603,3756992004,95868,3815645061,24911,26348,9474856171,1689,31.06,13.24,12.89,0.52,0.0,1013834680,1008928000,3995000,1028209934,16
5238932085,1433079,1917584881,1843244,1913799864,1850502,769006,17309242,4883597536,124434,5224215526,23255,32353,13908827399,1345,40.7,17.4,16.92,0.68,0.0,1319127677,1314101000,3997000,1333342525,16
3029480614,808741,1012970575,1852416,1010678882,1840769,386719,9106430,2623208367,95351,3014439695,13950,19692,8473695725,1109,21.85,9.41,9.15,0.36,0.0,708334705,705737000,1999000,722772696,16
4503499104,1281055,1505219861,2722451,1502896173,2712078,534779,14417102,4289222961,130407,4492828452,20854,31644,12710304511,1111,36.07,15.6,15.19,0.59,0.0,1157600233,1153774000,2999000,1171942898,16
3011792241,943879,908949728,1855915,909866527,1851196,298788,9125030,2578493447,107934,3016449340,14161,18654,8552964639,1111,21.63,9.25,9.0,0.36,0.0,695797150,695189000,0,709902545,16
2725181176,1035661,1113027051,1958733,1108686916,1956665,833650,9396798,2380225110,73634,2712981688,23991,17337,6770657068,2665,20.22,8.85,8.63,0.33,0.0,641451595,633707000,7007000,655628781,16
4994552484,1640850,2140488312,2369922,2137489559,2370894,718004,19641221,5726489817,141253,4984671912,25433,39304,14173733696,1105,46.87,19.57,19.02,0.79,0.0,1543921244,1542542000,0,1557962040,16
5426651972,2155846,1956464778,23270102,1957018377,23241812,899735,20958661,5945007969,200757,5416035309,44799,45786,14229078270,2951,50.17,21.5,20.92,0.83,0.0,1604262833,1598174000,4997000,1618457471,16
3728379548,1127013,1115303169,2539304,1113915008,2523665,605359,11208113,3149524443,87071,3713591006,22629,23471,8970938930,2088,26.09,11.04,10.74,0.44,0.0,848418782,843739000,3998000,862746502,16
4434852864,1442170,1520029930,2733709,1518603529,2729205,641015,15132843,4342744133,115796,4422349418,28421,30562,12602895181,2085,36.82,15.77,15.35,0.6,0.0,1171249794,1167354000,2998000,1185526617,16
4769773787,2033678,2133109429,2069406,2129406362,2089295,1154187,22135196,5602542362,173118,4770304155,51270,53691,13238075745,2098,46.45,19.78,19.25,0.77,0.0,1494179752,1489291000,3998000,1508148985,16
9632217206,9018541,3802476367,5696843,3800233817,5706171,5150436,41268121,9474865858,881500,9632895840,214252,95742,26006357493,21469,78.07,33.37,32.47,1.33,0.0,2489563758,2449322000,38989000,2503790736,16
1111328126,498966,506464660,1536423,505274631,1540331,317217,4553778,1180700200,30814,1112739531,5044,8129,3051397760,1105,9.99,4.27,4.16,0.16,0.0,319406117,316924000,1999000,333462113,16
5432668193,1673769,2018142513,2517247,2015491678,2510657,711576,17389775,4997310697,127989,5426355884,33090,34695,14213940866,1972,41.95,17.98,17.49,0.7,0.0,1358124784,1351368000,5997000,1372441605,16
5932298038,1628064,2216684396,2364816,2215077223,2362667,619615,19226153,5660112807,189517,5921724569,27592,38962,17089374138,1109,47.56,20.29,19.74,0.78,0.0,1534258658,1531409000,1999000,1548642724,16
1926540820,757282,512957690,1630970,510899443,1626186,682261,6612167,1652359237,45639,1914951357,18381,15206,4671367967,2087,13.52,5.61,5.45,0.23,0.0,447458211,442961000,3999000,461541215,16
4735363447,1303882,1717130467,2086565,1714302842,2081337,781232,14324055,3957586849,144417,4718667733,27601,29697,12195896059,2086,33.65,14.64,14.25,0.55,0.0,1071748078,1064093000,6994000,1085944916,16
6370548982,2210766,2636538304,2610168,2634389567,2607664,890165,24919579,7370451586,178365,6364758268,39188,50127,18010350439,2084,60.59,25.42,24.69,1.03,0.0,2001159715,1995265000,4998000,2015592833,16
4530805344,1294812,1514291784,2104942,1511387827,2101732,497270,14418658,4187634009,107000,4523828583,20803,31741,12594193265,1104,35.25,14.98,14.57,0.58,0.0,1133844697,1129035000,3996000,1148400955,16
5831363961,1704245,2116219006,2539759,2113928485,2552734,663144,18204335,5198363464,132092,5819689703,35881,37951,14693822521,1977,43.62,18.64,18.14,0.72,0.0,1401463682,1396717000,3999000,1415958258,16
5969252687,2368788,2635204442,3170798,2635368284,3168100,964402,23676418,6837835846,169526,5961863226,53117,50066,16808657980,3101,56.88,23.94,23.27,0.95,0.0,1849867506,1840762000,7994000,1864086051,16
2629287903,1006214,1016914045,2029497,1013049454,2010579,659860,8924735,2346695997,64022,2612144332,29084,90647,7079892585,2170,19.9,8.46,8.23,0.33,0.0,635923267,628486000,6994000,650059851,16
4540548810,1402177,1518720508,2108488,1516523004,2106208,725333,14580188,4254085395,104054,4527584792,26840,32982,12407180282,2089,35.86,15.25,14.84,0.59,0.0,1149400351,1145783000,2996000,1163539866,16
2834955817,798840,810261002,1745912,808038824,1730212,420342,8521848,2322497885,66713,2825584719,9818,16197,6383484727,1109,19.16,7.95,7.73,0.32,0.0,626094305,623644000,1998000,640447873,16
4672024028,2093948,2035414059,2700973,2032200602,2689059,829993,19128760,5378663615,144607,4664411086,68447,38415,13125013308,4903,44.69,18.83,18.31,0.75,0.0,1457246880,1448959000,6994000,1471591505,16
2337064307,683991,512074076,1628023,510489413,1623782,532400,6549240,1657552584,62567,2311814559,18200,11996,5182897815,2087,13.78,5.78,5.62,0.23,0.0,452766638,448424000,3994000,467137005,16
5472644865,2411356,2176622299,27336744,2176811269,27312884,1162905,25991729,7534617828,185533,5470324864,52507,56854,15651617900,4042,61.45,25.45,24.72,1.05,0.0,2036005121,2027930000,6999000,2050409063,16
1524266040,788860,209065987,1356121,209773957,1356259,657760,7408368,1905694514,65304,1519023096,12561,13439,4471505561,2082,14.37,5.65,5.45,0.27,0.0,515943201,509695000,5996000,530143214,17
4528927334,1425900,1415224295,1727786,1414145791,1715631,681201,14771224,4241529429,122450,4515924870,33954,31221,13276325326,2093,35.07,15.15,14.75,0.59,0.0,1143496851,1138884000,3996000,1157785890,17
312465890,362822,208626624,1166558,206370880,1147258,321538,3025936,673500577,19009,311329023,8140,8202,2168841909,1109,5.57,2.31,2.24,0.1,0.0,182491669,180197000,2002000,196564752,17
3270287520,3587552,1336461864,1642421,1332677544,1647559,3830814,16961269,3538951576,140460,3251205537,141045,44578,9929003410,17712,29.38,12.48,12.12,0.53,0.0,956051360,918601000,37024000,970258818,17
1617019056,706249,208860881,1316854,208907489,1320246,387741,6215040,1645570644,50693,1620443609,39003,24720,5359805060,4036,13.52,5.3,5.13,0.23,0.0,447039274,440727000,5996000,461411920,17
9923243089,3694424,3860670367,3973739,3860946827,3975010,1428314,40999439,12203297812,1563094,9920058948,74493,94352,29965021451,4038,100.11,42.65,41.45,1.69,0.0,3293386690,3283591000,8998000,3307504402,17
3552213261,1728610,1120950143,1912726,1120836410,1921538,1253984,15614572,4202547144,113031,3550285412,42079,31389,13554063158,4612,34.76,14.68,14.28,0.59,0.0,1136245468,1126697000,8997000,1150782277,17
4869668855,1676697,1931825842,2048036,1930435629,2057120,676776,20881857,6189776893,210781,4861406611,32128,40811,14897020873,1112,51.38,21.99,21.38,0.85,0.0,1670875531,1669055000,1000000,1685230402,17
3930722261,1092749,1213334477,1652753,1210911051,1654233,514745,12884674,3732293649,103222,3919185816,22223,26669,12091067106,1112,31.36,13.39,13.02,0.52,0.0,1010820428,1006218000,3996000,1024978794,17
1751877642,2716855,629339722,1427604,628022936,1425176,2987520,11372845,2138366976,103529,1735164329,106235,32972,5577611916,13800,17.82,7.52,7.31,0.33,0.0,578363546,550050000,28002000,592470739,17
2326619503,872692,911939348,1554921,908164924,1560509,844705,8433152,2054350204,63856,2307748011,22455,16943,5983764466,2518,17.25,7.41,7.21,0.29,0.0,552801717,545423000,6992000,567006031,17
2526922625,759218,614429051,1369310,612830557,1370805,467981,7473399,1924315554,59759,2524280409,13086,13808,5792245418,1109,15.11,5.98,5.79,0.27,0.0,518010221,515532000,1998000,532039658,17
5167661197,2008612,2033527506,2122032,2031638053,2125812,852793,22787714,6627863708,167256,5163718909,38128,55060,16004876040,2088,53.97,22.71,22.06,0.92,0.0,1790679998,1783967000,5996000,1804868407,17
1617735436,911519,309355414,1398587,309521573,1404754,378406,7942710,2148041852,63449,1618867692,41277,18775,5871977493,4038,17.54,6.6,6.39,0.3,0.0,581081597,576705000,3997000,595141819,17
4829131543,1531140,1414111116,1904721,1412346143,1890648,512317,17810574,5311855637,264845,4821627815,30482,35474,13481827461,1106,43.66,18.42,17.92,0.73,0.0,1436779605,1434221000,2000000,1451030228,17
3029350253,858840,911194021,1475261,908545970,1476060,382979,9765434,2695420805,67152,3019422811,15707,20082,8776127080,1105,22.6,9.84,9.57,0.37,0.0,727241903,724881000,1999000,741589845,17
2127428581,2819634,219480910,2636673,221082920,2642543,1095384,34647109,10076676083,255083,2127783001,48765,72417,3400873186,2082,75.83,28.83,27.85,1.39,0.0,2717096037,2711212000,4998000,2731477504,17
1315014432,764786,208841931,1317157,208851960,1317105,340417,6303948,1664768727,51528,1318212008,37947,16832,4861454273,4041,13.8,5.4,5.24,0.23,0.0,449941272,440637000,8992000,464068691,17
3360953080,2087286,1230953944,2076011,1231425607,2087388,751690,22397074,6384683420,163368,3359580591,55994,46750,9088323844,4040,51.44,21.34,20.74,0.88,0.0,1726644122,1715840000,9993000,1740822033,17
2615875229,1084341,610111382,1474253,610160000,1465688,408436,9116964,2677815577,73358,2617205902,40370,23262,8657560949,4036,23.39,9.62,9.36,0.37,0.0,723479814,717915000,4999000,737546160,17
3931284932,1286894,1214209336,1652388,1211526431,1648790,710330,13716773,3845311344,406276,3918924221,28112,28326,11690699801,2089,32.47,14.05,13.68,0.53,0.0,1039097046,1034541000,4002000,1053452889,17
3131597816,998649,814170266,1493421,812511869,1498716,714436,10211894,2867379195,73600,3113491654,20006,20041,9583816876,2091,24.12,10.48,10.19,0.4,0.0,774339281,770894000,2999000,788595298,17
4865697764,1723969,1831419325,2011967,1829343763,2002222,604952,20369429,6008736186,151341,4862323142,29650,42696,14601275983,1110,49.21,20.69,20.1,0.83,0.0,1620688393,1617828000,1999000,1635039351,17
2818375048,997154,810358530,1501582,810486413,1505883,401433,9685498,2727947971,70894,2824050290,28313,22566,9474507268,2085,22.94,9.94,9.67,0.38,0.0,739667536,734228000,5001000,753685601,17
6320148738,2846983,2634793312,37878780,2633965707,37859783,813769,30372807,9265993576,217445,6314113173,54557,61768,16672454473,2123,76.37,32.15,31.25,1.28,0.0,2502157618,2497429000,3999000,2516451143,17
1822651639,1148172,210305765,1501477,211419861,1496158,670787,10336175,2809266776,94235,1812328844,20465,20972,5863366344,2084,21.9,8.67,8.4,0.39,0.0,760089561,753540000,5996000,774539880,17
3561850323,1257603,1226170562,1727600,1225732791,1722106,555223,14714473,4252657346,109697,3560663620,17806,28710,9889562161,1110,35.13,14.98,14.56,0.59,0.0,1149803723,1144180000,4996000,1164138787,17
2628351362,842459,610164378,1378589,608692693,1381197,703384,8108457,2073643415,70317,2618626826,18709,14623,6782851015,2089,17.33,7.44,7.22,0.29,0.0,560202382,552835000,6997000,574381178,17
4967544870,1832581,1831785951,2092974,1830465802,2088636,598958,22275777,6644181039,163017,4960495446,36883,45297,13998076752,1106,54.06,22.63,21.98,0.92,0.0,1800764436,1797797000,1998000,1814990945,17
4366817398,1774499,1630663902,2062897,1629603615,2065398,750564,21331485,6182047554,144908,4365674913,28804,41281,12201490246,1107,49.93,20.3,19.69,0.85,0.0,1668374222,1665417000,1999000,1682785056,17
1524658490,807358,209195466,1379880,209943593,1378005,658797,7765832,2083468346,53952,1516376012,17678,18304,5678331919,2087,16.17,6.32,6.12,0.29,0.0,562966801,558591000,3997000,577091320,17
1617869613,944136,705462089,1533607,705620101,1532874,492588,7226288,1872763355,50731,1621242352,25844,14526,4767819934,3007,16.11,6.36,6.18,0.26,0.0,506066442,500684000,4996000,520337536,17
1921539603,1514484,212696380,1809023,213687907,1788366,876512,16613447,4646493905,128989,1918829767,26668,31251,3472190991,2083,35.81,13.81,13.36,0.65,0.0,1256610372,1251103000,5000000,1270720644,17
1816244282,847337,209273189,1384056,209498772,1380635,361123,7456623,2028886265,60187,1818026436,39347,27872,5657556904,4034,17.41,6.97,6.78,0.28,0.0,548835815,543507000,4995000,563039342,17
308261763,856755,206599454,1300741,206996898,1291359,499472,6228567,1528013136,63237,308566156,19568,18337,2044119766,2087,11.19,3.94,3.79,0.22,0.0,413019374,408662000,3996000,427310890,17
1622594090,744030,709329348,1557568,706963766,1548244,519435,7640094,2026588255,56759,1613286758,16436,15012,4963350713,1541,16.8,7.02,6.82,0.28,0.0,547533086,543006000,4000000,561868400,17
3131971087,790752,609989204,1450501,609142166,1453685,511030,9336565,2534465452,72780,3121043647,13487,16995,8477409123,1110,21.18,8.91,8.65,0.35,0.0,684421358,679852000,3999000,698718254,17
1821757094,587093,207396200,1289526,208923886,1295204,339393,6228999,1577701912,50950,1814011139,8168,11215,4159381463,1104,12.06,4.66,4.51,0.22,0.0,426842172,422564000,3995000,440959131,17
3928655776,1173836,1211849956,1654392,1209574582,1651680,488737,13262595,3839201550,214092,3923171682,21330,25801,12088704276,1106,31.76,13.47,13.11,0.53,0.0,1035720332,1032200000,2997000,1049880593,17
2616454988,1065648,610116928,1468497,610140915,1472251,417273,9823386,2666380386,78446,2616870675,40772,25892,8858673270,4034,22.75,9.16,8.9,0.37,0.0,720994321,715604000,5004000,735257801,17
2617260474,901466,708185427,1461801,708172745,1451646,268054,8813760,2522233675,68773,2616742076,26783,20554,8455573989,2084,20.85,8.93,8.69,0.35,0.0,680910745,677404000,2997000,695178469,17
1623532617,898280,210016464,1361232,210339458,1364184,869127,7636583,1993218071,64950,1608225527,32106,26344,4766194085,4038,15.58,6.28,6.08,0.28,0.0,537464077,529075000,8001000,551607976,17
4766638651,1792601,1832226349,1988580,1830658858,1983778,738579,20000497,5875889289,404947,4760672847,36358,42338,14302029316,2089,48.66,20.48,19.89,0.82,0.0,1591309166,1587679000,2999000,1605724256,17
1312983730,657706,207721338,1312549,207760293,1317528,327772,6208392,1662519815,46322,1315616372,22505,14397,4347160669,2088,14.1,5.59,5.42,0.23,0.0,448058715,446583000,2007000,462155650,17
2032569287,773288,411643189,1366863,410466293,1369326,656845,7539369,1932903446,53206,2018747439,14777,14157,6189345496,2082,15.68,6.55,6.37,0.27,0.0,520962168,519511000,2001000,535214379,17
2526659972,924387,611741247,1432098,610528315,1425710,572696,8677728,2309832402,63273,2513480631,20852,17709,7774369866,2086,19.38,8.33,8.11,0.32,0.0,624177862,620857000,4005000,638308036,17
1616942517,874502,209795162,1376101,209748018,1375622,452619,7348072,1972709589,59153,1618572280,39481,20673,4956197556,4039,16.07,5.95,5.76,0.27,0.0,532536535,529169000,4008000,546769959,17
6354669344,2955985,2473269670,3146886,2472791699,3128053,1172279,26602253,7508110280,201367,6353996197,45612,73294,18868833157,5004,62.75,26.95,26.21,1.04,0.0,2026018168,2023779000,5009000,2040055301,17
3257697794,1488774,1226401847,1698403,1226370921,1698748,449434,13983126,4059580354,97949,3259994430,22267,38930,9986458095,2088,35.04,14.03,13.64,0.56,0.0,1092672281,1091710000,2001000,1106859049,17
2324741776,688870,208446849,1370056,210195451,1382162,522993,7710433,1963293193,62665,2312342436,9830,16918,4759618109,1108,15.01,5.71,5.53,0.27,0.0,527884601,524150000,4001000,542116168,17
2613859535,1062048,610544408,1498880,610826675,1482771,492718,9638463,2670601233,77037,2617836246,43700,32009,8855148463,4035,22.96,9.15,8.88,0.37,0.0,720511452,715095000,6009000,734748743,17
1366960908,1052822,964471820,1558132,962094575,1559738,827904,9619068,2379373106,71991,1361631954,28196,19545,7236867207,2811,19.58,8.22,8.0,0.34,0.0,644555104,638833000,6007000,658803636,17
1721769096,813627,610095210,2058129,608974200,2057023,668011,9286638,2411821606,66368,1714716193,17402,17975,6874190815,1543,19.44,8.06,7.83,0.34,0.0,650321489,647728000,3003000,664618954,17
3829714990,1151422,1212643155,1646642,1209946363,1636742,470497,12829018,3684896934,98593,3822112872,19804,26426,11685499375,1113,30.47,12.88,12.53,0.51,0.0,993534806,992307000,2002000,1007689894,17
306146691,655155,205733941,1315668,205684103,1318600,267249,6004883,1626388949,46058,305911944,22416,14767,2233249130,2088,12.45,4.15,4.0,0.22,0.0,439677163,435805000,4007000,453778435,17
4172864252,1610839,1733850864,1859342,1731494840,1849935,686855,17442634,5012318329,129436,4164833569,28643,35766,11623726093,2086,40.54,16.82,16.34,0.7,0.0,1354086354,1353073000,2001000,1368252759,17
1808891914,717107,307494591,1349135,307592430,1342520,227600,6246590,1756524548,46691,1817363514,22392,14734,5939236537,2084,14.94,5.91,5.74,0.24,0.0,473463837,472641000,999000,487712771,17
3830643170,1443038,1215512625,1690606,1214412493,1683553,662862,13346106,3768169275,183306,3819543709,26659,33463,11389411945,2088,31.78,13.69,13.32,0.53,0.0,1017427609,1015891000,2001000,1031776967,17
2734373408,854910,812930046,1481725,811070449,1478016,407059,9541307,2770194346,68511,2724139604,13124,19071,8294811822,1105,23.52,10.19,9.91,0.38,0.0,747922397,744264000,4001000,762322030,17
2615180804,1059028,609976845,1491903,610145712,1495643,435462,9712345,2666515678,75455,2617636380,41569,22667,8854680428,4036,23.24,9.24,8.98,0.37,0.0,720116415,716244000,4001000,734498808,17
1318442099,763389,209254112,1332835,209314098,1332166,357393,6208875,1624626298,52035,1315675198,38943,16872,3953365004,4036,13.3,4.97,4.8,0.23,0.0,438458140,432445000,6006000,452652135,17
2634578333,767297,812068355,1422944,809923619,1424309,523597,8425839,2283974972,59739,2627944113,15252,16666,6902276412,1112,18.9,7.9,7.68,0.32,0.0,613346632,609345000,4002000,627687727,17
4479518511,1693835,1514548952,37003069,1513557833,36926232,764078,20713237,6040520085,148008,4474254868,31739,41738,12536024674,1110,50.6,21.3,20.72,0.83,0.0,1629651436,1629101000,1000000,1644031863,17
3930074104,1148921,1211539171,1654498,1209693238,1648258,450897,13306095,3830977866,110763,3924043629,22390,28760,12089884108,1108,32.44,13.81,13.44,0.53,0.0,1038054911,1035251000,3000000,1052274854,17
1612486685,865092,209472355,1377067,209615030,1381108,522938,7453492,1975936186,58715,1619564010,39189,20973,4953245762,4037,16.49,6.3,6.11,0.27,0.0,532014272,525016000,7013000,546305125,17
1616973679,851334,209279702,1385927,209242926,1385537,364956,7626333,2092151790,62317,1615285039,40466,29052,5751145842,4037,17.24,6.47,6.26,0.29,0.0,565225371,558258000,7003000,579281693,17
3128107670,1105600,913198385,1523052,911028234,1520533,677180,10468947,2843606976,73998,3117033084,21247,28771,9074067180,2087,23.6,9.91,9.62,0.4,0.0,766718530,763696000,2998000,781101252,17
2522021201,1028517,611859381,1489747,611823763,1487565,370430,9374381,2665649119,76695,2523542418,43197,32001,8576747690,4036,22.82,9.09,8.83,0.37,0.0,720930608,714923000,6007000,735041886,17
1820482550,779685,706293804,1557332,704209254,1560339,647653,7802271,1968699439,57689,1816038293,11542,13448,5175103558,1541,16.28,6.86,6.67,0.27,0.0,532665901,529476000,2997000,546953877,17
1014332529,745520,809797497,1316812,805699801,1310168,640461,6451425,1631633634,45756,1008361909,14727,12611,4163605937,2087,13.21,5.38,5.22,0.23,0.0,440892546,438652000,1998000,455335874,17
1616878730,769265,210090761,1327403,210113204,1327136,388326,6160466,1650520504,49494,1621063202,38533,22743,5363117487,4037,13.64,5.33,5.17,0.23,0.0,447380882,445334000,2001000,461427840,17
2122266561,1007425,710446891,1594748,708254560,1590031,935563,8723236,2165051022,65679,2109659972,26964,19016,5959295832,2664,18.45,8.07,7.86,0.31,0.0,585824554,579664000,6006000,600130918,17
3830984996,1145908,1212351904,1643295,1210314559,1651751,567825,13002801,3858095562,139306,3819430144,16961,25843,11685781176,1106,32.6,14.3,13.91,0.53,0.0,1041609318,1040616000,1000000,1055806688,17
3828151724,1184459,1211750548,1655525,1209659351,1646422,498143,12933608,3783522058,97392,3822911464,20350,26387,11683508752,1112,31.63,13.66,13.29,0.52,0.0,1020897102,1017637000,2998000,1035148716,17
3430872478,1219181,1012963826,1655001,1010622485,1647267,504940,13096894,3745020177,90113,3421412792,20624,24792,9592623874,1108,31.15,13.23,12.87,0.52,0.0,1012535136,1011414000,1000000,1026859495,17
4724865064,1721055,1713176922,2088697,1712511218,2082909,762289,15746806,4383596101,111609,4719385081,36098,35299,12676005142,2805,36.07,15.18,14.75,0.61,0.0,1189314391,1184343000,5001000,1203605772,17
5214044556,2364102,2033537825,36703895,2032572760,36665614,876116,27465081,8173678017,198726,5213202135,46321,56051,14845170621,2088,66.81,28.04,27.24,1.13,0.0,2210163886,2206424000,4000000,2224441429,17
4869165318,1779170,1832853814,1989485,1830662236,2000408,864257,20783180,5990927536,141865,4858914790,35576,40898,14698085169,2082,49.36,21.06,20.47,0.83,0.0,1615401978,1612352000,3000000,1629858156,17
4766324022,1846033,1832473037,2011350,1830474590,2008716,877249,20766997,5959343147,362898,4762186442,35593,39387,14603523323,2088,49.31,20.69,20.11,0.83,0.0,1610132800,1605927000,3999000,1624454679,17
4230536778,1686121,1515133327,2094160,1515237774,2072605,728438,14991962,4279053944,112105,4216841151,39184,31078,12887976679,2812,35.26,14.87,14.45,0.6,0.0,1157774408,1153552000,3998000,1172126523,17
1912817819,7512161,555244061,48147724,555084660,48110891,1115824,27985452,3951728191,105254,1914109103,42631,26857,4948786560,2087,32.39,13.63,13.24,0.56,0.0,1070936313,1063394000,6996000,1084896984,18
3730662766,27690732,556213631,1017812,559211384,1038740,32143247,58412535,4580209177,858944,3715639348,766904,209635,10613962846,98768,38.59,15.94,15.41,0.96,0.0,1236947829,1043562000,192919000,1251344924,18
1407387642,13072052,205481120,282516,205635945,279568,8618221,32588364,1504814126,166970,1409609204,49064,14320,4642469434,4040,12.43,4.97,4.82,0.33,0.0,406477309,402125000,4001000,420524857,18
6897676453,29797106,2713290778,1712792,2711247574,1719460,28414695,81967264,8926382891,485953,6891176274,473950,161916,22532445440,99788,74.14,31.03,30.12,1.57,0.0,2413287674,2249732000,162980000,2427633856,18
2610621837,13436053,607115092,490954,606653224,491640,8717887,36498134,2691896773,252969,2617933274,43123,20223,8851959349,4039,22.22,9.3,9.02,0.51,0.0,727397244,720931000,5999000,741586862,18
7190605938,29975988,2312051053,1599957,2310896394,1599139,27322223,79491547,8250703079,469398,7193425155,495082,152674,23310828825,99784,68.96,28.83,27.97,1.47,0.0,2226491973,2071118000,155008000,2240635575,18
2825987420,21108504,355185967,919062,353445254,929556,27202767,49414087,3725023805,833115,2814750848,491747,122717,10100024276,98764,31.02,12.54,12.15,0.83,0.0,1004543235,801120000,203030000,1018664056,18
60901893,6943049,29561478,72446,29583490,72044,798684,12704640,162792229,14597,58912706,649,1072,387788385,1109,1.42,0.6,0.57,0.03,0.0,44300167,40064000,4006000,58599502,18
2717895441,7144781,807131689,465702,805623012,465801,915073,23680157,2621839013,69800,2714690319,15443,17302,7058617817,1109,22.16,9.54,9.28,0.37,0.0,707253985,704857000,1999000,721816835,18
2889340328,16339643,605554532,47809996,603642649,47885000,13260284,43042631,5326570010,385990,2893504068,340821,137911,8751196379,98768,44.73,17.24,16.7,0.87,0.0,1439501639,1301043000,138004000,1453763883,18
2534883566,15569868,897523794,1000357,899021156,1014862,13125480,36875474,3607368388,263958,2533537150,435416,127674,10134496954,97791,30.16,11.28,10.91,0.63,0.0,974190770,846856000,126978000,988481145,18
5988184645,29768650,2012530428,1416428,2011671667,1423274,28489644,75725878,7045632896,609345,5974176395,492871,153866,19285581361,99784,60.28,25.64,24.9,1.32,0.0,1899685546,1749202000,149931000,1913973497,18
1565907615,7389868,307661035,48190230,306989454,48158706,1286240,25802082,3402494365,88130,1559422565,19243,21871,4294400198,1109,27.32,11.15,10.83,0.49,0.0,917984532,914439000,2998000,932318831,18
1426220688,13218343,105853127,220384,106883715,224574,8461664,31356093,1037142367,170651,1407226136,7598,9614,3455823740,2081,8.73,3.49,3.37,0.25,0.0,279663040,273350000,5985000,293817688,18
1307469185,13023722,205046108,275379,205145011,277956,8717021,33751725,1472031452,210149,1306986168,51715,15363,4826056313,4041,11.98,4.79,4.62,0.32,0.0,398312855,390993000,6999000,412573469,18
5530916622,14269950,1613430360,3654624,1611908369,3631620,9750734,46905738,5407597875,314555,5514847195,32284,35882,16792951950,2095,45.61,19.56,19.01,0.91,0.0,1458342640,1453672000,3999000,1472629582,18
1610801154,6959776,204618031,378690,204664073,372437,953908,20834565,2008967196,54051,1611466759,8450,12773,5853384655,1110,16.5,7.02,6.82,0.29,0.0,542559837,540182000,2000000,556606657,18
3125688879,13422688,607678500,445221,606396326,454666,8798084,37143121,2374250397,259773,3115378270,20349,17015,7375739092,2086,20.02,8.45,8.19,0.47,0.0,642421597,635864000,5998000,656797225,18
1349681967,7221737,206294758,47199685,206904927,47017786,800591,24461701,3036696688,87723,1350518726,34637,27376,3853246674,2084,24.04,9.88,9.59,0.43,0.0,823185399,818575000,3997000,837519509,18
1351512602,7239711,206642852,47292625,207256806,47144714,980602,23717814,3096782356,85297,1351527532,31583,21863,3857359099,2084,24.97,10.51,10.21,0.44,0.0,836868485,834622000,2001000,851158372,18
3520443401,21100760,1156405983,937345,1154514147,937342,27025630,50835115,3687191661,830969,3522333772,313659,121849,10903053468,98760,31.06,12.71,12.31,0.84,0.0,996136456,801814000,193955000,1010587671,18
1923598950,13197398,205742171,251955,206481272,259015,8510366,32382649,1322008547,199030,1908775207,10651,9234,3749566304,2086,10.9,4.37,4.22,0.3,0.0,356840054,351462000,5006000,371193412,18
2761995238,15536013,803215173,867826,803085946,869378,13888088,36456963,3233312976,254505,2748736965,268837,316491,9340456908,98766,28.27,11.47,11.14,0.58,0.0,874038284,732689000,140940000,888235065,18
2504222912,13991072,742877260,488174,742480944,478553,9035428,38396113,2617631369,262427,2501828966,26888,22468,7915847721,4136,22.61,9.58,9.3,0.5,0.0,709584844,702055000,7000000,723881130,18
8389595925,30497555,2716496291,1917612,2714788979,1912712,28163112,86984555,10164566843,700768,8386821952,370858,319790,29107480917,99789,84.43,35.44,34.41,1.73,0.0,2742401008,2578831000,162989000,2756681952,18
2168561316,14193236,1714267651,47838625,1709255240,47816146,10400669,45644081,4889059526,217347,2163314086,33062,34298,7070961219,3066,39.69,16.24,15.77,0.83,0.0,1319023693,1313386000,4997000,1333211219,18
1407784089,13071770,205389239,286130,205441125,289733,8369554,33649522,1506898116,169267,1411189962,50360,14763,4643126038,4034,12.36,4.96,4.8,0.32,0.0,406097845,398762000,6995000,420277097,18
1513880157,13041882,206071988,265307,206048629,270802,8991486,32938417,1306395317,207610,1506108986,50621,24654,4437931082,4039,10.72,4.34,4.2,0.3,0.0,352044613,344536000,7010000,366310427,18
2434784726,7352036,210554668,492288,209338427,450756,907329,20825875,1968683202,62421,2425015344,23394,22262,4289578320,1686,15.84,6.51,6.31,0.28,0.0,528924219,524597000,3996000,542919344,18
3823397093,13958613,1311797493,700042,1309599111,691768,9718068,42145057,3944728976,275925,3816844521,27260,32680,12579341924,2087,33.32,14.14,13.75,0.72,0.0,1063890880,1059107000,3996000,1078113291,18
2220873366,13384981,608620700,408490,607397236,407638,8946035,36080580,2266049059,183447,2207891663,22322,16184,6954816610,2088,19.49,8.38,8.14,0.45,0.0,611590286,608207000,3001000,625745705,18
6693287790,30118760,2116369197,1696772,2114725561,1687636,27741151,81887841,8667388980,643767,6689638671,369142,396531,20410500013,99785,72.76,30.75,29.86,1.53,0.0,2338912943,2183323000,155022000,2353260895,18
1309966358,13207694,206394668,365305,206503498,364634,8591585,35411690,2045557609,254215,1304822076,46384,19049,5931229258,4038,17.08,7.2,6.99,0.41,0.0,553009117,546648000,5996000,567190822,18
3620417165,21113363,1155837267,967506,1156524719,975767,26839311,52599704,4138714040,842434,3606032839,563402,327312,9976967091,98761,35.56,14.93,14.49,0.92,0.0,1124165103,936808000,186961000,1138656183,18
3352509304,15770308,800752849,1244425,802138158,1246079,14069374,40660403,4466183901,288371,3347919114,313515,325731,13317055609,98767,37.5,14.68,14.22,0.75,0.0,1210064153,1061620000,147947000,1224408211,18
2849285342,19417989,811960338,460805,808901226,465243,14292051,49104085,2670270563,265768,2832935791,23294,23440,8306999195,2084,22.95,9.74,9.46,0.55,0.0,721117654,715773000,4998000,735346457,18
3322471351,13660761,1010353860,567589,1009228242,570359,8799310,38592184,3399199484,263200,3308773878,24215,22553,10058932577,2087,29.04,12.52,12.18,0.61,0.0,917978052,915686000,2001000,932316916,18
3252333668,38490939,810109184,643312,808565999,654504,40818597,92069441,3760108967,490967,3242105826,29832,28190,11985536079,4043,32.42,13.29,12.82,0.95,0.0,1015029685,1009617000,4998000,1029330067,18
6008970119,30070000,2121023568,1375693,2117431887,1369324,28126695,76339138,6855511573,454237,6006663979,497915,304039,18950581272,99789,58.26,24.46,23.75,1.3,0.0,1850263268,1689767000,159977000,1864617234,18
2491552597,13689251,306425316,553377,305453015,565609,8974967,37896553,3073233166,256272,2477708954,22305,22498,9237856025,2085,25.63,10.6,10.28,0.57,0.0,831533614,825119000,5993000,845712056,18
2610400417,13427274,607292525,486957,607253477,493254,8786816,36977996,2721914939,256499,2611764913,43717,21191,8847957565,4036,22.7,9.37,9.09,0.51,0.0,734409712,728026000,6000000,748629925,18
1609290182,6839830,204476467,319740,204599791,327459,882693,19073793,1754170826,53309,1608283129,28243,14720,5531922393,2081,13.96,5.52,5.34,0.26,0.0,473847634,471577000,2002000,488024108,18
4223011399,14069923,1411771181,782659,1410008580,793113,9532538,45110535,4768407233,291332,4217029952,23235,31288,15279458924,2082,39.98,16.77,16.3,0.84,0.0,1284847185,1278192000,5996000,1299163690,18
4124117577,8169025,1211819535,1022396,1210908571,1041646,1535633,36199709,6066827490,166069,4120186272,37339,42199,11980616426,1106,50.05,20.66,20.07,0.86,0.0,1643512997,1639802000,2999000,1657856671,18
4023512982,14538175,1212927050,1063616,1212590566,1064794,9504292,49570396,6294766549,326316,4016514355,35778,43361,11172467210,2090,51.0,20.75,20.13,1.04,0.0,1701956747,1697487000,3998000,1716245584,18
2823048721,13726903,809818417,591442,808470453,589869,9277766,39503534,3374619095,261284,2815402016,25151,22725,8571231737,2086,28.3,12.06,11.72,0.63,0.0,911055097,906686000,3998000,925453309,18
2223105650,13368277,810329394,390200,807627865,399110,8606564,34817547,2195584818,198915,2208314566,23097,16491,6960649888,2088,18.9,8.14,7.9,0.44,0.0,592589610,587190000,4993000,606759629,18
1608086336,6947077,205156755,367654,204939719,363732,897031,20071716,2006310932,57954,1605738956,28821,14506,5536065919,2084,16.54,6.92,6.73,0.29,0.0,541467695,541115000,0,555586403,18
2328514731,13236408,206048912,319544,206372344,318330,8671176,33363591,1619077685,216882,2314568635,17329,10831,5475384772,2087,13.41,5.43,5.25,0.34,0.0,437012887,429517000,6992000,451438557,18
4132473751,16569190,1220307682,2158232,1220518444,2173240,11929112,74014747,13130004612,485773,4133895737,65939,93296,12423288701,2090,102.45,40.46,39.19,2.05,0.0,3541189065,3535070000,5000000,3555542956,18
3824976878,27625953,556129674,990624,554303549,992861,36453369,66067788,4295506782,906463,3809182368,358228,124586,10695691730,98760,35.9,14.68,14.19,0.97,0.0,1159231607,964846000,193969000,1173572884,18
1316537547,13342611,1008707186,394445,1003912217,399211,9000552,35105187,2141669511,237126,1308316441,14379,14965,4962513012,2089,17.6,7.11,6.87,0.43,0.0,578937021,574483000,3996000,593374615,18
4623846785,8313757,1412210331,1144888,1411723923,1153458,1394687,38349464,6821042423,186382,4619423876,36396,46615,13274718471,1112,55.73,23.3,22.63,0.96,0.0,1840462381,1838756000,999000,1854841193,18
4524546576,7628025,1411008033,778565,1409156573,782999,1322953,29347820,4418901720,129978,4513116161,24046,29941,13867626196,1110,37.08,15.91,15.48,0.63,0.0,1195841014,1194456000,999000,1209960016,18
1311703702,6799082,304859384,268495,304933166,270459,958264,18462765,1355491401,45148,1305073587,25338,17908,4641390645,2082,11.14,4.61,4.48,0.2,0.0,365926892,359610000,5993000,379833798,18
4027937173,14660319,1216499733,1091087,1213172218,1029902,9923571,48608613,6103926165,327301,4025645445,37771,43908,10997246621,2089,49.95,20.61,20.0,1.02,0.0,1650340297,1645839000,3999000,1664435495,18
4177731945,8307483,1318045596,47800365,1319359440,47812723,1456115,36011589,6533821992,164209,4178042852,29354,42834,11053296135,1113,53.75,22.73,22.1,0.92,0.0,1760395825,1757750000,1999000,1774296003,18
1319785726,13174760,306277782,296269,305589077,299415,8721579,34050480,1562492140,222807,1311136808,19050,15508,5267309928,2087,12.84,5.22,5.04,0.34,0.0,422011314,417693000,3997000,436263834,18
2418900742,7135034,706964255,452899,705337937,456280,1154165,22442208,2536171260,64474,2415932269,15249,16747,7662324191,1105,21.22,9.17,8.92,0.37,0.0,684837449,681328000,2997000,699165161,18
1605999417,13052528,105498327,277663,105596529,282333,8578533,32377820,1443844913,133280,1610732221,50440,24112,4528419398,4040,11.93,4.82,4.66,0.32,0.0,389580099,381255000,7984000,403838287,18
5084170929,29449929,1710259336,1333577,1708386466,1316000,28384056,73497751,6578227743,467890,5082547633,515860,151472,18986159515,98807,55.36,22.73,22.03,1.26,0.0,1775353227,1612917000,161991000,1789698155,18
2424714742,6992377,707721455,405100,705766774,408002,898068,22221339,2243874396,61649,2410154082,16232,17359,7557638321,1110,18.81,8.1,7.88,0.32,0.0,606431308,604994000,999000,620794893,18
3923993512,7648267,1210162319,772161,1208617007,775536,1074393,30385249,4482553753,128760,3915560957,27516,30627,11063995161,1106,37.41,16.02,15.57,0.63,0.0,1214243976,1210631000,2999000,1228562259,18
2610239808,13461443,607009489,511476,607088228,499418,8854299,37773432,2721170734,259561,2612614928,44444,30812,8850150855,4035,22.69,9.45,9.17,0.52,0.0,737293508,728865000,7998000,751287619,18
1658786257,7278819,254524194,48488254,255558150,48345418,1127286,25360276,3281922165,94592,1657649554,38440,22860,4786999076,2084,26.53,10.85,10.53,0.47,0.0,886611686,880180000,5994000,900817258,18
6668440032,36021769,2174728918,3565043,2175917675,3543684,29721830,94444970,7907702839,683008,6659729975,727061,339391,21391303489,103000,65.45,27.21,26.39,1.41,0.0,2069097707,1913467000,155037000,2083500117,18
1919784393,13288694,104892232,285131,106115506,279736,9192674,33954899,1392274334,165451,1907139851,19149,15781,3850277224,2080,11.47,4.57,4.41,0.32,0.0,375710787,371358000,4003000,389770756,18
2701007197,15979617,713520800,1327278,712092638,1452442,11212189,44090980,2930304832,277682,2701464867,91523,45419,9312428620,4861,23.4,10.12,9.84,0.52,0.0,719575179,713015000,6000000,733885929,18
8539242449,31250912,2698385895,2069108,2697157130,2076735,28984192,91295100,11430953588,648432,8529181309,413420,174206,26342882727,98808,96.55,40.71,39.54,1.91,0.0,3085192328,2936560000,148028000,3099327951,18
3127241045,13513395,810020162,506245,808840477,515356,8757378,37934304,2861019026,216212,3106635150,25593,19965,9561721002,2081,24.36,10.38,10.09,0.53,0.0,774139533,768556000,4997000,788424937,18
1207094158,13016445,105710052,255052,105786824,247623,8762619,31710815,1228631906,170906,1201803784,47105,13365,3823457586,4041,10.09,4.05,3.92,0.28,0.0,332207862,328896000,2999000,346311214,18
3828722037,13774562,1211097589,625769,1208363269,634340,9309155,40581915,3585973953,276243,3816507161,25415,23454,11586344230,2089,30.42,12.89,12.53,0.65,0.0,968757872,963261000,5001000,983001397,18
1109750941,12977324,105272354,241900,105663682,240654,8686284,31634934,1193983270,185863,1103779936,50543,12161,3736053866,4034,9.9,4.02,3.88,0.28,0.0,322967544,318611000,3995000,337075804,18
3022533973,13633612,910599043,539838,909087069,539889,9232980,39398022,3085937555,261086,3008379286,23699,23001,9160151345,2089,26.61,11.36,11.05,0.58,0.0,832753029,828213000,4001000,846957672,18
2721934332,14028956,810815397,775823,810075262,773067,9251353,43968252,4566332359,286006,2718145756,29383,30573,6864795257,2083,37.26,15.32,14.86,0.81,0.0,1233425601,1228897000,3999000,1247464957,18
3123298689,13495165,809367837,468917,807324645,478388,8589368,36370564,2695628588,162659,3113402798,20653,18163,8361286713,2088,22.51,9.45,9.17,0.51,0.0,726602328,721325000,4995000,740788462,18
3321393782,13667422,1009513020,563248,1008383130,561076,8735474,38595233,3250560525,170553,3311174729,21794,22791,10064198133,2090,27.86,11.98,11.65,0.6,0.0,877569244,875267000,2000000,891648989,18
6593902730,30330581,2114230327,1482810,2113181473,1480802,27962253,78235813,7764277788,615652,6571552492,381868,312409,21100802822,99788,65.14,27.32,26.51,1.4,0.0,2095017915,1941555000,152964000,2109390209,18
5995160822,30281640,1913616973,1458003,1912101472,1451289,28528203,77454534,7285879826,491924,5980983993,494657,149333,19205578077,99785,62.47,25.99,25.23,1.36,0.0,1967576908,1822104000,145008000,1981673691,18
4023213526,14514276,1212881023,1011007,1211962582,1002049,9465830,48568240,6105676814,326386,4018761170,36779,39574,10977935916,2088,49.93,20.58,19.99,1.01,0.0,1647595400,1643038000,4000000,1661928435,18
2168433891,20099630,1135085854,6277764,1131212511,6250113,5308396,31728524,3118581686,162825,2158308922,120889,46265,6493174375,24840,25.74,10.9,10.59,0.49,0.0,843895391,804619000,39030000,858118310,19
3664315259,40149777,1594387566,6689457,1594772147,6688787,10390939,59272394,4383733336,902487,3671592254,348346,70381,10205404823,41132,35.93,15.18,14.75,0.74,0.0,1183143566,1117976000,64998000,1197188535,19
1932754710,9647492,819671484,4667324,818150393,4673656,7981020,19986848,2696679343,344303,1929059128,251401,56840,5557629423,40944,22.02,9.13,8.85,0.48,0.0,730790128,649576000,81071000,745233727,19
1897137357,5326501,787822402,4394747,786197215,4388180,4406996,14790216,2560648201,198612,1888477668,113330,35646,5563974140,20539,21.05,8.85,8.59,0.41,0.0,690737048,647491000,43032000,704907825,19
1634405634,7346868,668269003,4803492,669093482,4807906,4253460,13512874,2119759689,101780,1636594914,146545,36500,5107211104,20594,17.51,7.47,7.26,0.34,0.0,570285491,531120000,39008000,584615392,19
1948114990,9513857,777929077,4476607,776484000,4476763,8115614,20493383,2882465406,338826,1934222221,177066,85424,5836238854,40944,23.71,9.72,9.41,0.51,0.0,780990553,707730000,73075000,795191962,19
2411388727,7685520,945521776,3708255,944775228,3701348,4476466,16467111,2968384605,125427,2416263673,179290,40388,7218721939,20592,24.76,10.48,10.17,0.47,0.0,800868038,762746000,37987000,815006838,19
1567349134,7425637,659940792,4546529,661443108,4546190,4136369,12691259,1960356493,97717,1570004291,176047,39879,4911158936,20593,16.32,6.92,6.72,0.32,0.0,528364004,499154000,29008000,542636381,19
3755230792,32699938,1634427331,6007946,1636458886,5967788,9445841,46470733,4729515352,252287,3763085896,279524,117388,11220980095,41278,39.01,16.36,15.89,0.77,0.0,1276463801,1206367000,70021000,1290845038,19
1976582185,9403125,820295075,4195848,818063367,4178204,8058980,20077098,2718714700,337994,1968185844,138232,58459,5554972272,40961,22.39,9.25,8.97,0.47,0.0,733227876,654916000,78109000,747604597,19
1921759712,5222458,769678836,4805170,767830528,4801697,4320667,14964208,2655055232,204975,1914769408,177351,36955,5674934301,20534,21.79,9.18,8.9,0.42,0.0,716937707,670637000,45975000,731404245,19
1637714048,7306170,736054779,6608274,735580998,6588108,4392563,13670562,2143170306,93359,1641781701,162329,35530,5155263043,20593,17.91,7.47,7.25,0.35,0.0,577599751,543273000,34079000,591937623,19
2047092361,17933030,1196821384,5830696,1197569512,5785607,10085919,31018718,2875348168,235793,2053474878,196577,73462,6044532469,50119,23.77,9.78,9.48,0.52,0.0,775771676,690534000,85065000,790156496,19
957189350,4795063,337192471,4111075,337025401,4089121,4659422,9983044,1225448643,61268,940489483,111838,33014,2973283156,24557,10.27,4.15,4.02,0.22,0.0,330710425,300441000,30044000,345012252,19
1670568119,7318611,671325155,4597147,672609707,4584453,4237053,12790868,2007327874,96325,1671201172,159399,34608,5145204872,20591,16.76,6.98,6.78,0.33,0.0,541747771,506563000,34969000,556021983,19
1785718179,7386531,800597215,4609140,800437433,4590818,4291167,20025033,2636907106,120265,1783234704,250260,64276,5342280397,45687,22.48,8.88,8.61,0.39,0.0,710321361,633114000,77013000,724651354,19
2974380483,7569570,1073543835,4229177,1073464789,4211908,4171887,17620708,3497307936,136466,2970619556,166615,45136,9404068207,20592,29.42,12.68,12.33,0.53,0.0,944911372,910754000,34028000,958982686,19
801503046,3232330,385139833,5967957,385837437,5952136,156359,4131581,1127506926,26758,808732288,5775,8000,3046732607,147,9.28,3.82,3.7,0.16,0.0,305596866,304368000,1001000,319758189,19
3144413379,7740777,1169280678,4686142,1170633702,4679355,4076408,17898009,3606759253,154248,3145953816,146143,45663,9914192512,20589,30.13,12.83,12.47,0.55,0.0,976011779,944895000,31029000,990252318,19
1841338998,4710822,801791768,3705137,802114726,3700409,2522344,14523634,2675415180,90578,1830669090,220767,41924,5935384663,23384,22.57,8.93,8.66,0.39,0.0,724614799,684394000,40023000,738848178,19
2082052751,4574156,882336075,4664045,882564717,4651260,2983544,15878238,2931785494,101874,2065426725,163653,47150,6451308479,23389,25.45,10.34,10.06,0.43,0.0,790915510,744711000,45982000,805135969,19
2563217509,7686884,1106673976,4258078,1106833620,4261369,4174283,17520980,3513370044,133466,2562688722,167988,44272,7931881072,20593,28.58,12.08,11.73,0.54,0.0,948036105,916884000,31029000,962113843,19
3247763103,13606968,1248316602,4520858,1249259256,4496871,8271497,24198078,3760175479,371650,3239585119,316633,67497,9752908608,41000,31.34,13.11,12.73,0.62,0.0,1017159866,950000000,67000000,1031468161,19
1689264805,7380306,643846288,5621806,643580354,5600570,4468835,13312510,2040086743,92759,1692795462,137786,41092,5274570581,20592,16.87,7.14,6.93,0.33,0.0,550009691,516797000,32987000,564490378,19
1300563344,4255398,480998306,6107499,480933711,6058553,2792304,11166368,1527959709,78912,1278841715,125253,37239,4086296597,23390,13.22,5.32,5.17,0.23,0.0,412424557,379175000,33015000,426738844,19
3030873180,7654133,1140734426,4635879,1141909318,4635801,4135663,17516838,3461805029,153187,3028685985,166520,52000,9547931888,20593,28.7,12.4,12.06,0.53,0.0,933746106,903530000,30017000,948036489,19
980500505,6346304,345448631,4905889,339955670,4921419,4859024,11186225,1135191551,153188,980091670,65050,26722,2933330695,20540,9.51,3.95,3.83,0.22,0.0,307091317,263864000,42977000,321368385,19
1201598305,7654627,430273030,4274309,430417951,4254484,4528417,15148813,1448265104,121498,1186525095,193120,72626,3427752786,45684,12.63,5.09,4.94,0.24,0.0,390585838,321265000,69057000,404596104,19
2624337184,13785698,1126179578,4508196,1126786085,4493603,8270382,24469441,3658870075,171430,2622701325,320567,66902,7853093695,40999,30.16,12.51,12.13,0.6,0.0,989008730,920817000,67986000,1003442298,19
3213187070,13997791,1193113384,4314182,1193500028,4320554,8480283,24783119,3857380387,228363,3221899841,307211,67433,9727576051,41199,32.27,13.62,13.24,0.63,0.0,1039407559,971213000,68014000,1053617536,19
1850110845,7461767,836531936,4821365,833508056,4830835,9500760,19797955,2690594709,231233,1845669801,148239,42739,5712565307,24601,21.88,9.13,8.85,0.45,0.0,726959086,676750000,49981000,741300897,19
2667663107,17661442,1169492008,5762269,1166303525,5721633,5339657,30676888,3444154928,169813,2660904028,161164,46418,8016788596,24809,28.59,12.25,11.91,0.53,0.0,928143888,880910000,46995000,942588835,19
2678796592,14914067,1161367151,3847283,1161901292,3847679,9467581,25823906,3815976124,197072,2680591015,307074,76877,8515570276,49221,31.56,13.06,12.66,0.63,0.0,1030519032,946291000,84025000,1044833151,19
2682106050,15020474,1162609373,4550154,1162505229,4546393,9364147,26171301,3940372801,206156,2682030449,394127,76230,8251105438,49113,32.12,13.13,12.72,0.65,0.0,1063153900,981948000,80995000,1077462899,19
783753401,4145535,325133264,4887369,324938431,4836402,2821385,9406290,1062013376,69434,768748084,124694,30944,2474960980,23369,9.21,3.71,3.6,0.17,0.0,285559511,251245000,34033000,299664735,19
1800270569,13338070,777468360,5059631,777577065,5044681,8340995,19480205,2325416028,155431,1794810604,309198,58047,5514170677,40999,19.47,8.22,7.98,0.42,0.0,626214396,555985000,69998000,640381292,19
851458604,4936328,345726123,4691355,342558985,4694439,5927709,11025896,1076147003,158738,837101037,62752,27952,2618674836,20538,9.0,3.81,3.68,0.2,0.0,290257966,251981000,37997000,304597659,19
2634759723,13759869,1022175327,4745424,1022481431,4741684,8213670,23248682,3267847625,214346,2645674300,311884,64374,8297629978,40997,27.62,11.68,11.34,0.55,0.0,884931693,816425000,68035000,899179088,19
3224574521,7874393,1228473977,4469574,1227988987,4464468,4402706,18326025,3601504591,151408,3222169952,164841,61801,10042727258,20593,29.97,12.8,12.44,0.55,0.0,970573341,938023000,32000000,984801745,19
2077274533,102186699,882303394,6024942,879607800,5995430,5040233,214088737,2661452480,11094577,2057182248,121035,45588,5487410729,24693,22.52,9.63,9.37,0.43,0.0,719262447,672787000,45985000,733664382,19
3571302084,58275151,1664885063,5977080,1665732346,5944106,17070822,103516932,4938066032,1558478,3573943824,312594,85870,10269756047,41208,41.06,17.23,16.75,0.88,0.0,1331573207,1259991000,70943000,1345853821,19
1889282632,9427015,778092058,4185645,776285567,4179112,8220752,19768794,2600444207,339992,1881885445,228916,59028,5486200881,40943,21.6,8.9,8.65,0.46,0.0,703800605,628332000,75039000,718045365,19
3220722688,7703460,1228650965,4468992,1228049483,4459261,4444907,18677362,3653031398,150250,3215318009,146375,45217,10023836503,20588,30.39,13.02,12.65,0.56,0.0,986139438,945666000,39985000,1000587377,19
1626800716,7340307,653687450,6003413,654631196,6032368,4119246,12834307,2069562195,100750,1634928441,130641,34716,4960733425,20590,17.34,7.35,7.15,0.33,0.0,558552859,522141000,36009000,572708569,19
3219533173,7771673,1227601017,4459785,1227483111,4437703,4388667,18550361,3653782184,150431,3214913026,167887,45705,10021292509,20593,30.79,13.15,12.79,0.56,0.0,986328152,954857000,30995000,1000624243,19
2682737523,57868193,1321769901,5336388,1319888385,5325245,5265755,74758709,2905014466,552058,2668202803,140068,43256,7504729807,24771,25.02,10.74,10.46,0.47,0.0,787194836,745754000,40986000,801489335,19
2598297959,13614770,1128136437,4372594,1128205017,4343820,8600672,25030875,3774966861,170437,2593005753,309875,67826,8086472370,41004,31.37,13.06,12.68,0.62,0.0,1017956429,946513000,71038000,1032040978,19
3033015997,7734506,1138508264,4640182,1140260854,4647742,4201425,17423778,3466229707,157365,3042563773,161970,47266,9564532226,20591,29.03,12.53,12.18,0.53,0.0,936591692,900070000,36002000,950799837,19
2185700931,5486299,862900253,4618493,862422993,4627205,4967260,16408478,3074566937,122161,2188198374,162893,43359,6660414093,23388,25.55,10.69,10.38,0.49,0.0,829649022,794222000,34965000,843936440,19
3169950308,7807799,1160551667,4544607,1161189543,4524572,4222308,18148599,3604579814,154853,3165704960,162722,45473,9950121617,20590,30.38,12.99,12.64,0.55,0.0,974888990,940426000,33979000,989158463,19
4184003780,54885628,1556069871,6113527,1556090111,6141239,6587280,87958851,5390801898,2290780,4194548842,181936,55402,12132755982,20906,44.5,18.4,17.86,0.82,0.0,1456669924,1421056000,35001000,1471057789,19
1658326559,13218874,711465648,4546488,713008540,4568065,8237238,19070629,2137192960,147088,1669512091,302542,56537,5004319097,40998,17.97,7.51,7.3,0.4,0.0,576591924,505083000,71011000,590940167,19
1575943956,7217012,660377528,5267364,659761563,5249003,4410534,13389613,2036332156,93394,1579443968,156096,34102,4942244793,20588,17.05,7.2,6.99,0.34,0.0,550654894,517149000,33009000,565069228,19
975405802,4956900,398064928,6127988,396196739,6162736,3882601,9719752,1281237478,168863,971768729,66046,47698,2911722988,20539,10.79,4.51,4.38,0.22,0.0,346975050,305696000,40959000,361172471,19
1585945055,7417654,652955470,6320997,654384514,6340112,4228284,13224786,2119034196,101729,1596123133,156756,37651,4967504545,20590,17.79,7.53,7.31,0.34,0.0,572813102,537395000,35025000,586939717,19
1655940265,13463948,716959235,6609544,717897126,6625971,8242617,19820753,2329356548,153995,1662901839,304206,57678,4999040477,40996,19.64,8.25,8.01,0.43,0.0,630490829,558075000,72009000,644803861,19
1778753998,4536390,738323812,4449945,738482233,4428584,2872192,14725102,2600470134,96778,1764586442,150883,52443,5456750924,23385,22.3,8.95,8.7,0.38,0.0,704659417,655321000,48949000,718923985,19
1753517598,25513429,789140913,6584546,788860560,6597884,10627719,41502036,2264307968,868218,1747445004,247983,75866,5014584129,49194,19.24,8.06,7.82,0.43,0.0,612023665,526593000,84934000,626388826,19
1857553980,7778006,800386570,4464527,800830947,4452852,4364147,20270195,2812249126,119287,1861981382,218924,67311,5494655106,45688,23.67,9.43,9.15,0.42,0.0,761529786,689152000,72015000,775878802,19
3037667318,65386667,1182196057,6991934,1182622281,6998296,18165903,100257603,3819684001,1825484,3031001525,272026,68053,8489264768,41276,32.2,13.53,13.14,0.73,0.0,1032957744,961563000,70967000,1047226534,19
1978133275,47018863,940434826,5349018,940015839,5344077,4949986,52390560,2498561565,589345,1986664233,118796,40305,6159459240,23508,21.31,9.06,8.82,0.41,0.0,675003567,636642000,37978000,689294174,19
2567539980,7894670,1064128751,4455404,1064729580,4467594,4229452,17544813,3577973385,146616,2576740402,147441,44834,7864928189,20590,29.1,12.22,11.87,0.54,0.0,965782123,926428000,38975000,980039510,19
1154262593,8663768,432523085,4561544,432534999,4547807,208699,4974028,1304011022,33701,1157511714,6274,9306,3115858576,158,10.84,4.64,4.52,0.18,0.0,351879666,351527000,0,366172272,19
3253209007,7661359,1291439542,4503232,1292585740,4479932,4230412,18778749,3812188877,198431,3248609499,147839,46959,10227822917,20591,32.03,13.58,13.2,0.58,0.0,1031054819,992706000,37988000,1045151012,19
3500468445,43493480,1594904353,7601600,1589175663,7583342,10611281,62477774,4398323364,977602,3488872560,311008,75996,9661012297,41145,36.67,15.38,14.93,0.74,0.0,1185990700,1111576000,73971000,1200096524,19
781057883,4099819,336469590,5718938,336271227,5646593,2733908,9616697,1063529031,65616,762095541,118491,33146,2454601898,23388,9.03,3.68,3.57,0.17,0.0,288142315,254841000,32979000,302592645,19
1172882708,3262734,426453806,5962795,426541786,5959198,144030,5037931,1366535254,35055,1175156952,6454,9284,3185763322,145,11.29,4.69,4.55,0.19,0.0,369742710,367497000,1997000,383645569,19
877114429,4829280,342789215,4758390,340483154,4689816,4166720,9269934,1060500419,163822,863390259,63805,39448,2696697136,20543,8.95,3.68,3.57,0.19,0.0,286982816,245715000,40952000,301324742,19
2341598761,13645549,955020777,4400417,955949553,4387952,8367880,21450814,2843165716,187943,2344261619,307979,60414,7125676112,40996,23.64,9.78,9.49,0.49,0.0,768896417,699595000,68960000,783214535,19
2127208805,13447691,835213739,6093310,835625413,6075755,8334517,21144236,2726706131,152861,2121394765,311355,60017,6462814923,40997,22.89,9.64,9.36,0.48,0.0,737514412,671152000,66014000,751785329,19
3202900136,31959078,1314563929,5769568,1315229578,5778460,5110922,48182828,4032509464,1377465,3193822961,184228,55966,9089106017,20722,33.46,14.03,13.63,0.62,0.0,1088140344,1049754000,37991000,1102562039,19
2615489111,7521574,1107330818,4687549,1107147732,4669094,4488585,18363088,3552618735,143400,2611091297,171688,46839,7952063933,20591,29.31,12.18,11.83,0.54,0.0,959123921,917810000,40991000,973112540,19
1402049321,4292508,475260049,4153538,475724585,4134144,2463588,11228272,1523828651,83570,1400707720,80121,35208,4367282080,23391,13.07,5.25,5.1,0.23,0.0,411013560,381719000,28978000,425196629,19
1045395119,13163472,432164199,5784962,434984755,5834165,8727528,16214627,1407945545,308761,1047528811,130201,49351,2907648471,40944,12.01,4.96,4.8,0.3,0.0,380468226,300148000,80039000,394651632,19
3242843032,31084555,1247462913,6764213,1250256255,6737960,5654219,48550141,3867798316,1129025,3245966476,179428,45965,9383350037,20699,32.75,13.93,13.54,0.6,0.0,1044667086,1009309000,34976000,1058833801,19
1674442387,13196252,603113940,6443184,603772653,6408301,8514295,19851624,2264324076,143651,1675730694,305652,58319,5154905992,40998,19.06,7.92,7.68,0.41,0.0,610776893,544279000,66033000,625021846,19
1626553635,13479256,689505333,7594156,687524312,7639472,5253624,20487423,1916543131,132947,1621277075,119915,38654,4662066079,24771,16.2,6.85,6.65,0.32,0.0,516997903,473596000,42963000,531157726,19
2412322431,119260780,1104443767,5313379,1104266346,5312733,9667343,248169581,3426900639,11258542,2412475575,266139,70367,6559769681,49272,29.14,12.22,11.88,0.6,0.0,923812635,836481000,86946000,938287716,19
1700364734,12262805,558716504,4882282,559454118,4906694,11751023,21959142,1814038441,346645,1695002437,212957,92096,4517486758,40941,15.58,6.41,6.2,0.37,0.0,490235821,407094000,82815000,504487797,19
917199024,4929355,336364626,6699086,334120431,6705432,4199774,9619912,1134657263,172264,913920898,67965,27477,2685336675,20535,9.58,3.9,3.78,0.21,0.0,307787664,261444000,46078000,321958043,19
260587578,430461,127234569,189162,123510088,188115,149850,1758871,293061923,9128,252691643,10773,2547,714424147,521,2.4,1.0,0.97,0.04,0.0,79936644,78590000,1007000,94132253,20
210094597,423156,98576464,182313,95294816,185658,146120,1591640,242171518,7919,204404627,4016,2146,579681128,526,1.98,0.81,0.78,0.03,0.0,66202398,62810000,2990000,80485735,20
235894272,521447,112761705,195052,111016070,196995,150963,1915177,289420746,10676,230289524,8973,3788,654331992,1042,2.35,0.96,0.92,0.04,0.0,78911383,75716000,2988000,92881256,20
211224060,264851,116744367,103672,116477725,103817,192368,1845781,332863959,17774,211833918,17625,3537,649935123,583,2.79,1.15,1.12,0.05,0.0,89889846,86633000,2987000,104118281,20
76614507,171559,44001147,60436,44659310,61480,140648,865528,88764545,4440,81715836,5150,719,227622304,324,0.71,0.26,0.25,0.01,0.0,26912321,25728000,989000,41145437,20
942773,77705,974166,27528,973544,27466,53840,297737,6505659,3007,?,?,?,?,134,0.06,0.02,0.02,0.0,0.0,1776760,1502000,0,16040703,20
213940000,799414,101584345,185649,98415670,185687,277162,2257837,251549596,8479,209885168,4681,1901,591344956,918,2.13,0.87,0.84,0.04,0.0,68700977,65479000,2976000,82811323,20
234133258,963402,113455379,199349,111618644,199131,259454,2622255,299452255,11343,231091843,16579,4987,655804779,1947,2.4,0.99,0.97,0.04,0.0,80333987,76937000,2997000,94527661,20
63995911,237584,35518737,63947,35071504,65350,168640,1100609,103187391,8436,63822567,7854,2399,203621813,1041,0.86,0.34,0.33,0.02,0.0,27672986,24457000,2934000,41790811,20
206926154,489930,97448614,188477,95461578,188313,177323,1666392,245709554,7497,205046070,1764,2163,580498820,526,1.95,0.82,0.79,0.04,0.0,66049265,63759000,1992000,80063271,20
1097056,84356,1018352,28542,1017730,28480,59858,313832,6494589,2907,?,?,?,?,130,0.06,0.02,0.02,0.0,0.0,1765299,1487000,0,15979562,20
234112902,968291,113627433,201045,111961942,201537,210983,2504406,298174442,10912,233394354,15841,5008,655664289,1945,2.4,0.99,0.96,0.04,0.0,81295661,76986000,3999000,95519033,20
1205551,80469,1014025,28048,1012382,27986,58518,300498,6466791,7694,?,?,?,?,135,0.06,0.02,0.02,0.0,0.0,1678688,1476000,0,15631692,20
137417814,484819,63252126,153455,62971241,158810,123995,1386821,183149451,6423,137940540,5807,2388,359472774,523,1.45,0.57,0.55,0.03,0.0,49678569,46379000,3024000,63855798,20
227921653,311685,113445638,114174,110648134,107544,151456,1581665,292950069,8641,226138216,7203,3080,664106070,521,2.39,1.0,0.97,0.04,0.0,79396646,78038000,1000000,93492526,20
262244172,479715,128557977,192087,125972765,202442,172156,1812574,300008577,8833,259538306,9088,2520,723742947,521,2.46,1.03,1.01,0.04,0.0,80831056,78608000,1990000,94900030,20
148873251,407675,75459229,167653,75847639,151478,169362,1594048,205248347,6267,153168052,2745,1797,412503869,523,1.61,0.66,0.65,0.03,0.0,55294305,54024000,1000000,69543912,20
81250324,162536,44318787,65537,44015806,64989,136976,777207,91388823,3135,84232971,6720,1274,237573518,327,0.75,0.3,0.28,0.02,0.0,25529659,23303000,1941000,39506372,20
56532117,170060,30916427,64322,30894498,55784,119857,710580,87691540,4431,57575720,1006,1116,179912439,328,0.72,0.29,0.29,0.01,0.0,23748044,21512000,1955000,37940378,20
83026218,177399,45472548,62792,46041187,59655,93687,785743,132877624,24199,84149793,2929,1372,263871371,135,1.11,0.43,0.43,0.02,0.0,36463836,35209000,1005000,50521720,20
111073636,764689,87130243,185884,84474172,178411,254148,1968278,163120093,7371,109289311,2359,1086,368525207,917,1.29,0.53,0.52,0.02,0.0,44430910,41209000,2943000,58461252,20
78892716,184745,44076551,63506,43758092,56891,123988,732712,90383103,2691,82690129,5384,1353,238726517,328,0.8,0.32,0.31,0.01,0.0,24823689,24605000,0,38841093,20
233616552,956215,113215910,196179,111452559,202416,230843,2555346,299492416,10936,231362317,11753,5445,654936037,1944,2.54,1.02,0.99,0.04,0.0,80643606,77356000,2975000,94772977,20
343958,54289,997045,28350,996777,28406,56364,306077,6168671,4321,306002,796,750,1274563,135,0.06,0.01,0.02,0.0,0.0,1714222,1472000,0,15964467,20
58947679,172798,31455370,63215,31473297,65341,132443,768132,95013075,3667,62277635,764,1207,192573789,332,0.77,0.32,0.3,0.01,0.0,25588258,24262000,1010000,39593566,20
256709947,485222,126491752,187702,124052219,187813,144017,1768316,294201574,8527,253980025,6596,2755,712949029,523,2.35,0.97,0.94,0.04,0.0,80429305,76192000,4010000,94477579,20
137928719,488290,62543028,149570,62728537,156837,127656,1327477,185550283,6819,139077535,5051,2117,362475096,526,1.46,0.59,0.57,0.03,0.0,49797779,49396000,0,64025904,20
111574503,272670,48245604,88550,47274061,88215,138035,1046492,130765746,9191,109736837,1451,1407,305877059,526,1.07,0.45,0.43,0.02,0.0,35681777,34399000,1011000,49838881,20
152618234,331528,76587216,97864,76040819,97381,123074,1259103,182289976,6198,158016947,8082,2570,429967012,520,1.48,0.63,0.61,0.03,0.0,49175633,48901000,0,63349625,20
281167532,609151,136015508,203825,136555788,215523,177654,2113341,340763689,11682,288802563,15309,4338,793691768,1034,2.79,1.18,1.15,0.05,0.0,91938961,88605000,2986000,106023435,20
969865,76057,994321,28229,993699,28167,58306,312118,7164238,4046,?,?,?,?,137,0.06,0.02,0.02,0.0,0.0,1785886,1460000,0,15863606,20
289067061,970202,137283844,213504,137371352,213832,290162,2811927,346268063,12974,288778614,17513,4481,802815692,1941,2.86,1.18,1.15,0.05,0.0,94300440,89000000,5000000,108553724,20
63791697,137943,39998205,60205,39978706,60419,114724,848546,101259646,3501,65371770,1927,955,229246298,318,0.85,0.35,0.34,0.01,0.0,27712636,26355000,1013000,41723036,20
186352140,540760,91004139,161702,90080381,170069,138070,1544652,233509645,7343,190537756,7463,2879,495098251,520,1.86,0.76,0.74,0.03,0.0,63032536,61840000,997000,77101395,20
82387889,130385,44607079,64559,43670898,62513,130647,765369,91456095,3400,84084834,4712,1396,240315628,327,0.78,0.33,0.32,0.01,0.0,24734317,23518000,979000,38971181,20
1215651,82839,1037781,29211,1037159,29149,60037,319873,6680379,3273,?,?,?,?,136,0.06,0.02,0.02,0.0,0.0,1799124,1492000,0,15799579,20
210026102,829020,99072241,182243,95394651,189671,233277,2124455,245971831,7861,205658502,4697,2106,582936146,916,2.02,0.81,0.78,0.04,0.0,67403199,64064000,3003000,81673002,20
244528643,1206134,116451039,204752,114763497,211126,377028,2936135,315566570,12441,245929948,20698,5566,688194105,2818,2.6,1.05,1.02,0.05,0.0,85568000,81222000,4010000,99794113,20
207884739,487192,97569433,189877,95257804,187458,154250,1609268,244526125,7060,204079370,3181,2248,579528700,525,1.98,0.81,0.79,0.03,0.0,65772098,61525000,3969000,79876642,20
279944104,623279,136375602,208684,136831150,208997,168688,2120227,342309835,14504,284328737,14735,4313,789321331,1035,2.74,1.11,1.08,0.05,0.0,93836577,91583000,2012000,107980511,20
117014072,375985,62924118,77355,63133301,77183,252258,1432643,158837804,13041,121122627,5617,1942,355369702,1426,1.38,0.54,0.53,0.02,0.0,42868477,37486000,5065000,57252122,20
281285025,609476,135677334,208380,136619411,215237,164631,2093164,343526503,11560,286126710,16751,3816,790740200,1036,2.81,1.17,1.13,0.05,0.0,92511430,89227000,3007000,106658549,20
263311045,444577,129342530,191181,126114046,195493,188068,1842563,300437604,8969,257143258,7546,2508,720791765,521,2.51,1.06,1.03,0.04,0.0,81728389,81439000,0,95777537,20
412713401,8792232,207846848,647788,206883124,642901,596478,3709997,688887504,23212,415522301,23455,7082,1193412387,2676,5.78,2.24,2.17,0.1,0.0,186277965,180952000,4998000,200734009,20
278096936,627212,136237331,207253,136505664,215268,160603,2074099,342436092,11755,285982699,15996,3773,787593272,1036,2.77,1.14,1.11,0.05,0.0,92846939,90522000,2011000,107027584,20
230795139,468387,112372592,120892,111880503,118189,147735,1927084,338977935,11094,232760168,2108,2882,699659446,525,2.75,1.14,1.11,0.05,0.0,91763211,90482000,1005000,105802546,20
280332508,620095,136455946,206984,137286192,208274,174676,2138289,342677365,11529,284136946,16059,3554,788398065,1035,2.73,1.12,1.09,0.05,0.0,93727031,91441000,2009000,107893325,20
457094401,676199,204054108,200746,201977274,202589,375020,3098343,579336261,20245,462523993,10100,3982,1316818156,779,4.84,1.97,1.91,0.08,0.0,156886945,154487000,1993000,170854492,20
322513012,5224764,171586538,701744,171183308,702802,738867,4089977,583375388,24706,323769863,29260,8986,996416878,4141,4.59,1.86,1.8,0.09,0.0,158453242,150136000,8007000,172574462,20
235552189,540681,113464018,194237,112221387,192717,158816,1904818,295502400,9557,232618528,9020,3970,653937895,1042,2.4,1.0,0.97,0.04,0.0,80160941,77796000,2020000,94181217,20
232087301,426911,117080347,128347,116658483,119501,145730,1724724,295167078,9221,231210148,11639,4384,673164059,782,2.45,1.0,0.97,0.04,0.0,80880423,78568000,1989000,95060188,20
104198004,506339,48393028,88163,48708034,88627,144595,1178056,133863641,6058,106722533,6305,2331,300274906,917,1.11,0.46,0.44,0.02,0.0,36464680,33173000,3015000,50760406,20
190216557,497664,91653928,155787,90749468,166329,141458,1717669,233989264,10631,193467628,6904,2199,503736044,521,1.88,0.78,0.77,0.03,0.0,63391618,61106000,2003000,77327998,20
1284215,71136,1002022,27904,988940,27841,56470,302270,6342920,3540,170729,?,?,?,128,0.06,0.02,0.02,0.0,0.0,1647711,1413000,0,15613914,20
233842560,955609,113476621,194871,111544437,196328,223253,2533172,296891704,11507,230197918,16904,5117,651806070,1946,2.47,1.03,0.99,0.04,0.0,80297686,74980000,4998000,94348159,20
234592030,903895,113006683,204148,112181345,209388,232954,2531723,297438417,13738,233118479,16427,6122,650377664,1945,2.46,1.03,1.0,0.04,0.0,81115075,79823000,997000,95459219,20
189114619,508258,91607786,159221,90787380,167220,137940,1693442,235318035,9118,193624591,8709,2024,503062535,519,1.91,0.79,0.76,0.03,0.0,63520173,61259000,2008000,77837349,20
77284550,176324,43879368,62674,44123911,63526,119949,735659,88424421,4284,82088952,3741,1206,230071609,325,0.75,0.28,0.28,0.01,0.0,24847864,21666000,2954000,39080616,20
83703476,200323,46391995,79670,46295400,75774,152265,1028590,146047476,4796,84469154,2352,1548,267592898,329,1.22,0.47,0.46,0.02,0.0,38157064,36920000,997000,52179204,20
244582798,1161665,116136740,201207,114723608,208695,398606,2891817,314338571,24561,247172631,14062,5682,685952058,2816,2.59,1.08,1.05,0.05,0.0,85409361,78203000,6929000,99846722,20
107630568,458444,48376513,92062,47126737,89820,183553,1251807,134757982,12422,106177448,1370,1385,305351965,915,1.08,0.45,0.44,0.02,0.0,36395183,33064000,3005000,50578917,20
952912,74533,1041548,29950,1040926,29888,61788,324724,7718071,7262,?,?,?,?,135,0.06,0.02,0.02,0.0,0.0,1762859,1553000,0,15913785,20
1252487,78507,977406,27049,976784,26987,52796,296518,5758326,8089,?,?,?,?,129,0.07,0.02,0.02,0.0,0.0,1679677,1450000,0,15676853,20
262620198,803305,128439908,192494,124231991,189915,234444,2315243,295196770,22864,252178599,8980,8602,714754718,912,2.41,1.03,1.0,0.04,0.0,79962760,76598000,3023000,94417020,20
150173651,380760,75012079,164031,75752632,148962,156089,1538496,203671872,6078,152935671,3130,1672,415608145,522,1.65,0.68,0.66,0.03,0.0,55386562,54097000,1001000,69500809,20
586432,71817,978158,27842,977536,27780,55122,305717,7119918,3430,?,?,?,?,131,0.06,0.02,0.02,0.0,0.0,1672147,724000,724000,15687166,20
189430832,495253,91218709,159370,90364569,168168,147673,1683685,234144968,9856,194058865,6681,2074,503324554,521,1.93,0.79,0.76,0.03,0.0,62991526,59694000,2984000,77236400,20
134639615,216679,74114687,80463,74065514,72936,159907,1144744,191574261,9239,136091089,1803,1812,404542476,520,1.64,0.67,0.65,0.03,0.0,51834177,49568000,1982000,65996656,20
828186611,1136446,426821742,488092,423175329,485643,353058,5888740,1306446796,35001,824526528,11011,9203,2503201926,912,10.62,4.33,4.22,0.18,0.0,353657729,351384000,2002000,367810981,20
285964003,611960,137801741,212523,138299398,211031,185652,2181552,348292139,10707,287686491,12041,3728,800235519,1036,2.87,1.2,1.17,0.05,0.0,93869236,90591000,2986000,108009143,20
83298031,313231,47713905,73377,47780669,67018,176064,1065031,141318325,5199,86277489,4729,2780,289401232,976,1.16,0.48,0.47,0.02,0.0,38198471,36982000,999000,52402101,20
67335966,259047,35297634,66486,34781672,66812,158121,1067816,103309783,6742,66211773,6160,2073,209815473,1042,0.86,0.35,0.34,0.02,0.0,28425192,26093000,2007000,42428298,20
278896930,618936,136321967,204818,136786416,216859,178871,2087880,341385442,11864,285530361,15478,3852,786903610,1035,2.79,1.18,1.14,0.05,0.0,92395250,91079000,1000000,106503899,20
229668299,689202,118813952,129188,121033840,128371,206421,2219807,311816184,13891,234077480,21285,5142,674559451,1899,2.63,1.07,1.04,0.04,0.0,84625394,79391000,4961000,98862228,20
81795068,2558326,50835525,136575,46773858,137866,2811892,4423590,283052579,72605,71922614,139653,33194,283983874,31042,2.34,0.89,0.86,0.06,0.0,76827855,26210000,50403000,90962088,20
198122419,492598,93656563,114041,94337254,115269,169434,1854720,260360330,9417,202345573,8512,3355,590201428,1044,2.12,0.9,0.87,0.04,0.0,70560511,68246000,2007000,84895512,20
233322740,544786,111070695,197260,110382661,206912,158193,1892975,290738149,11448,229299035,10751,3685,653576071,1040,2.35,0.99,0.96,0.04,0.0,78671059,77414000,1005000,92787345,20
790070,81869,1011550,28263,1010928,28200,59525,307823,6383548,2730,?,?,?,?,129,0.06,0.02,0.02,0.0,0.0,1691618,734000,734000,15542586,20
256719107,498341,125503957,196974,124174750,199491,155331,1742907,293148005,8986,255221739,7853,2568,712091032,522,2.41,1.01,0.98,0.04,0.0,79237574,77009000,2000000,93469902,20
283960730,555762,141102697,209644,140201654,207417,192054,2062123,349476325,12654,282486472,8026,2880,797870414,522,2.95,1.21,1.18,0.05,0.0,93846661,91388000,2008000,108069941,20
302252291,2211626,138754053,202389,139138933,192776,1927426,5297690,549802353,38723,318480365,54192,41969,951351541,12064,4.55,1.74,1.68,0.09,0.0,150514950,132318000,18043000,164668094,21
163463584,191291,77580786,86559,78047713,87860,98514,1308738,274564505,13451,164503655,3772,2785,500143701,137,2.15,0.81,0.77,0.04,0.0,78006506,76815000,997000,92238949,21
4247232744,1120196,1582166788,1184491,1583044581,1174441,316525,12085406,3512088575,87681,4246973844,15311,29722,11086992553,140,29.64,12.85,12.52,0.48,0.0,947337897,945627000,2001000,961461531,21
9462075873,2255290,3325042668,1918007,3326249794,1913765,468190,27737909,8646936376,206340,9467517297,27822,69296,24932985859,138,72.67,31.18,30.34,1.19,0.0,2333667118,2333697000,1000000,2347782981,21
664618529,3498795,317460093,469832,317858945,454113,1935192,9370585,906803641,44787,668142085,50917,25090,1873176766,6142,7.34,3.01,2.91,0.14,0.0,244772349,238655000,5991000,258909700,21
170871068,163809,77618331,83491,77241003,88440,98376,1336935,272701048,16464,169855688,2104,2159,502004257,137,2.26,0.87,0.84,0.04,0.0,74123200,72955000,999000,88078138,21
163743014,148765,76918614,85715,76706017,92294,117826,1381996,273614916,11586,165015713,1685,2061,499265138,136,2.12,0.85,0.84,0.04,0.0,73533302,73302000,0,87588194,21
165762080,199557,83659965,97483,84357724,90133,90737,1337742,294607482,8117,167307750,2106,3211,513726136,138,2.31,0.93,0.9,0.04,0.0,79328782,78156000,1002000,93468982,21
162183275,217252,77500924,91809,78067787,87737,101970,1387780,279127043,11762,164089352,21278,2652,496619711,136,2.15,0.82,0.8,0.04,0.0,78606288,78279000,0,92532495,21
1135146813,2297150,524794940,1051174,524491034,1053330,891704,8500930,1597016463,48744,1135658127,25956,22842,3282956839,3335,12.83,5.14,4.99,0.23,0.0,431895417,426723000,4996000,445942450,21
3161401475,584985,667844468,854416,667462511,857752,289290,6975003,1935571597,48817,3165552769,7873,14381,5179807425,132,15.62,6.54,6.35,0.27,0.0,521193289,521091000,0,535401655,21
164993532,179842,73372871,88648,73406617,87225,113210,1442792,282261754,8622,167617025,2110,3102,492421922,139,2.24,0.9,0.87,0.04,0.0,76657695,76463000,0,90655559,21
142758482,152608,58297315,80407,57913232,80628,101635,1150760,215905501,6465,143628703,3409,1631,419276124,139,1.69,0.69,0.67,0.03,0.0,58824634,58629000,0,72896783,21
1151480171,2066102,534056748,1075655,534216880,1082083,671920,8359288,1614755928,50451,1154400066,20768,22908,3321601191,3141,13.17,5.32,5.15,0.23,0.0,435733644,430647000,4995000,450024897,21
5496014899,1497793,2001403294,1348980,1998857854,1357049,447339,16984709,4940457930,120371,5489303837,18959,37200,14512787164,140,41.85,18.04,17.56,0.68,0.0,1332995984,1332189000,1000000,1347187978,21
1353500590,25450295,702420741,2102130,703115608,2124046,1637782,12833910,2428191192,88668,1354926984,50980,42051,4093813941,7938,20.37,7.9,7.66,0.35,0.0,654747186,648813000,6007000,669059238,21
15450234220,3610263,5852941376,4397189,5851691125,4409430,825345,43107310,13503971860,321231,15455499622,41285,103772,41816940675,137,113.31,48.27,46.97,1.86,0.0,3642011977,3642794000,0,3656388420,21
213486317,1072203,100357647,139955,98801463,138103,865255,3063931,410561950,25153,210507621,22515,21502,652117649,6208,3.38,1.28,1.25,0.06,0.0,111967201,105764000,5986000,126240847,21
163318201,187362,83018111,88767,83044817,86771,100386,1375620,284645262,8518,164826222,1485,2613,508502899,132,2.26,0.92,0.9,0.04,0.0,76600989,74400000,1984000,90529298,21
184056773,1006076,88303256,138819,88587231,135222,777808,2810228,341601077,22695,185261704,26018,22455,570404365,6094,2.82,1.11,1.07,0.05,0.0,92489429,85219000,7018000,106660121,21
226380599,365361,106980267,126487,106624154,118529,247349,2304046,384631754,24991,225308643,10002,8457,691921297,2134,3.33,1.25,1.21,0.06,0.0,104543341,103317000,1003000,118663407,21
9799611932,2549531,3327600972,2101138,3328054250,2081940,641741,30611398,9301786690,226006,9803949981,40151,69139,27598442697,137,77.15,32.8,31.89,1.28,0.0,2508053501,2506624000,2000000,2522177942,21
179400378,1016547,86635072,126025,86574686,130137,819339,2931415,336953403,20048,181260307,19591,23461,555730181,6093,2.74,1.08,1.06,0.05,0.0,90950712,83696000,6974000,105142081,21
178250595,240273,89241386,102881,89279644,106572,221979,1693293,314453056,7841,181106933,1540,2243,558246864,140,2.45,1.0,0.98,0.04,0.0,84225595,82798000,997000,98293850,21
10128958291,2394321,3326065565,1969940,3326972320,1964777,489544,28743429,8749900978,212944,10134155519,34779,61336,28752978334,137,72.98,31.34,30.48,1.21,0.0,2366722030,2364291000,3000000,2380824634,21
162004499,179615,77429165,88436,77505906,86758,95879,1395670,277223111,10694,162804278,3551,2554,491928664,131,2.29,0.86,0.83,0.04,0.0,76490962,73293000,2971000,90387207,21
8141349774,1868974,2496621763,1674851,2496113899,1677177,421926,23191039,6913673379,169866,8140567270,27961,51347,22613628065,137,58.58,25.4,24.74,0.95,0.0,1866019397,1865551000,1000000,1880089983,21
11468642497,3772223,4825477475,2757595,4825376355,2748552,698991,43192058,13155091988,326919,11465597894,53312,91110,32933458757,133,106.16,43.84,42.58,1.81,0.0,3559378785,3558425000,2000000,3573672808,21
5496940907,1285714,2000485682,1299688,2002043915,1307526,410751,16000669,4654670861,117488,5499463541,18320,35076,15174882284,139,39.22,17.02,16.56,0.64,0.0,1255363503,1254486000,1000000,1269632328,21
3839779820,1047081,1337087303,1080584,1336754896,1080718,372630,11153402,3210075042,82382,3843092700,12907,22576,8205557780,141,26.39,11.02,10.7,0.44,0.0,870021554,868015000,2000000,884130283,21
274238096,762047,133252785,144876,133927432,145416,380098,2770821,494099666,21130,274589520,15609,16951,840255825,4142,4.03,1.59,1.54,0.07,0.0,133744954,130525000,2989000,147965196,21
242756948,192244,114030968,119976,114045044,119194,129575,1845798,412600807,81309,244215574,2419,3354,727293582,136,3.24,1.3,1.26,0.06,0.0,111737535,111565000,0,125644106,21
5503096726,1382842,2004251015,1252033,2004348874,1260965,297648,14825796,4486071697,112710,5504487441,14395,33305,14525806740,134,37.64,16.16,15.73,0.62,0.0,1209566640,1208408000,1000000,1223727064,21
143453824,182555,65972615,88768,65960847,85995,105341,1317160,250614363,6873,146172241,1093,2065,430626158,133,1.97,0.75,0.73,0.04,0.0,70735097,69492000,1007000,84613783,21
207433485,492240,97193941,114277,95980453,117017,670271,2731274,390479245,21851,203030552,27776,12810,628235893,4199,3.4,1.27,1.23,0.06,0.0,105581028,97368000,8030000,119629925,21
5492576013,1325569,1999221736,1296788,1999287537,1309595,360477,16141233,4740959433,118493,5493118220,20870,33090,15491726717,139,40.17,17.41,16.96,0.65,0.0,1279196736,1278445000,1000000,1293396133,21
297119246,236649,144946264,136676,144999098,136611,109077,2281423,560028621,14537,298732086,1750,3865,885884261,137,4.46,1.83,1.77,0.08,0.0,156127071,150414000,970000,170802894,21
1525686033,4918328,693689582,1232150,692795349,1249863,1947986,14151649,2193884934,75559,1524114930,36989,42433,4360123197,8093,17.76,7.21,7.0,0.32,0.0,610266640,583282000,12701000,625045839,21
4824687124,781163,504083055,970111,503646768,964342,236635,9311761,2598227829,70199,4820518549,10381,19816,6676754445,133,20.18,7.9,7.65,0.36,0.0,717369978,703147000,982000,731882734,21
5490191111,1291976,1832274349,1262920,1832589043,1251482,320798,14950858,4422973798,107405,5495598505,18841,31554,14328952962,143,36.68,15.6,15.18,0.61,0.0,1213996438,1194870000,1971000,1228394713,21
156661791,149893,73479407,91683,73441646,91498,100730,1326673,262924137,11433,157329518,1456,2050,471240565,138,2.22,0.85,0.82,0.04,0.0,72009882,71052000,0,86096961,21
137693815,423569,62642600,100695,61060469,102481,676676,1996382,257943793,14540,132555428,7869,5651,413986686,2198,2.09,0.83,0.79,0.04,0.0,70661932,66685000,2942000,84960664,21
18117130106,6535184,7988249283,4789597,7988291975,4770522,1449236,81282438,25142689969,612752,18119367801,78650,179804,50746198193,136,204.09,84.12,81.68,3.46,0.0,6832324425,6789481000,993000,6846736528,21
155513396,175330,73282876,87546,73270150,87138,98016,1354069,266464336,26927,157967485,3553,2080,468294876,136,2.14,0.85,0.83,0.04,0.0,72252947,70745000,996000,86486132,21
296465197,564523,143413862,159680,143322353,164306,421692,2928209,519326391,16816,299682388,10315,8947,906177566,2141,4.14,1.68,1.63,0.07,0.0,139550035,137795000,998000,153764012,21
244170843,493999,120181668,129188,119974214,129745,259455,2371589,435741055,14994,244843457,30995,9274,754632572,2141,3.67,1.4,1.37,0.06,0.0,117946821,111397000,5967000,132252592,21
6149214218,1507838,1997428433,1330336,1996592410,1329901,405737,16628620,5084640346,123418,6150271652,15720,36363,14812252588,142,42.74,18.2,17.71,0.7,0.0,1375115143,1370029000,1995000,1389173051,21
147687658,188937,69879706,91836,69991387,90860,128372,1259691,254137317,9271,150552620,974,2389,453434117,137,2.03,0.81,0.79,0.04,0.0,68506333,67061000,1000000,82469507,21
197859062,211900,97899044,101526,98625145,100659,202337,1619649,343249906,9649,199101068,1916,2793,597791846,136,2.76,1.1,1.06,0.05,0.0,92675526,91999000,0,106939610,21
2646746,131085,2779830,30331,2628109,30325,60892,329481,11698956,1410,3582544,222,?,?,145,0.12,0.05,0.04,0.0,0.0,3176919,1979000,989000,17348951,21
162173996,172777,77077780,85271,76740699,86727,107232,1299126,270331941,12880,162893298,3626,1818,494125844,137,2.23,0.87,0.85,0.04,0.0,73040721,71753000,996000,87045030,21
207743771,697577,96862756,119918,96018216,122714,467078,2681978,391529857,22397,202831018,23820,13426,627672737,4199,3.29,1.29,1.25,0.06,0.0,106199548,98700000,6978000,120548011,21
204657248,201264,101941661,102007,101967111,102172,98875,1525264,353695642,8812,207093546,1568,2866,629009774,136,2.77,1.12,1.09,0.05,0.0,95854296,94506000,1005000,109700707,21
5532770204,57388498,2020733419,1376291,2020352578,1367892,291830,17452165,5125936383,128269,5534607955,22272,37395,14631125096,149,42.45,18.21,17.72,0.71,0.0,1379394279,1382569000,1003000,1393499240,21
2665842004,642089,502925287,829685,502815313,820392,203274,5999572,1742612390,43408,2666101428,5538,13239,5179894960,131,14.42,6.0,5.82,0.24,0.0,464779365,467705000,1007000,478680318,21
297527988,1553360,110013421,144933,108439577,147762,812429,4217637,388033145,19311,297472265,9272,6954,811872688,2081,3.16,1.29,1.25,0.06,0.0,104459326,102083000,3032000,118414978,21
152345398,175806,69400843,89087,68897585,89075,116996,1320236,273024482,7881,152114847,1148,2033,452062295,132,2.16,0.87,0.85,0.04,0.0,73472335,72790000,1010000,87184656,21
186391455,1062562,87161414,101513,86991927,100635,115129,1562594,311267711,24409,187662948,2876,2507,575253378,156,2.44,0.94,0.91,0.05,0.0,87430419,87748000,0,101522277,21
5494452276,1530585,2000135719,1339112,1999957852,1334306,463987,16082358,4684842679,112861,5496066154,22193,36419,14506442957,137,39.26,16.79,16.32,0.65,0.0,1256760699,1260131000,2008000,1270769151,21
7812533307,3048865,3329622796,2247117,3330362998,2236693,614704,34966064,10646045737,257428,7814623965,43484,85466,25117655580,138,85.54,35.02,33.98,1.47,0.0,2865956233,2873631000,1003000,2880223932,21
207365347,505846,97189745,118343,95987326,120638,673786,2805500,390756052,22517,202835356,22525,13325,628055722,4200,3.21,1.27,1.23,0.06,0.0,105573515,99543000,6032000,119754695,21
164444568,458884,78702529,108470,79155508,106254,219023,1794299,291298207,11526,165456147,7415,8713,505774646,2134,2.52,0.96,0.93,0.04,0.0,78465180,76385000,2010000,92394932,21
5501982071,1310525,2000739403,1246823,2000940958,1251113,393902,15170838,4482901935,111258,5500227852,18190,36074,14842696965,137,37.89,16.35,15.91,0.62,0.0,1208387682,1210197000,0,1222398024,21
4842482686,812250,506446615,948443,507547763,959988,268345,9334290,2628290172,65548,4827748112,11503,20572,8032095839,131,20.72,8.24,7.99,0.36,0.0,707288055,706780000,1001000,721405725,21
194219591,1075986,92324860,137004,92262698,138490,756791,2869656,353103015,27260,196453508,21913,21333,596140878,6100,2.95,1.16,1.12,0.06,0.0,95148801,89988000,4999000,109207328,21
290002460,1581998,110575628,152023,109492282,158905,821869,4193546,383690740,19422,290167381,5851,7003,806295688,2082,3.11,1.26,1.22,0.06,0.0,103646932,102489000,1004000,117802566,21
3502515017,1485957,675338920,956775,675387622,956695,548492,9563464,2636319409,105616,3486398072,33936,33684,10176963308,4034,21.58,8.91,8.66,0.37,0.0,711237240,706717000,5005000,725468802,21
3087437593,10672820,1455377214,1445476,1454251306,1450357,6258220,31992294,5129099616,179692,3080428030,65985,73019,9240527706,9997,41.45,16.73,16.24,0.77,0.0,1384288515,1369317000,16003000,1398652911,21
161251065,698293,75545630,106855,72214293,109657,1795912,3252211,334252088,29586,151351602,42409,25038,489161982,8646,2.67,1.09,1.04,0.05,0.0,90080812,83867000,6062000,104187946,21
153928407,115260,72762352,91281,72735144,92324,118365,1352207,261354410,12635,154680483,1112,1979,468354446,138,2.05,0.83,0.81,0.04,0.0,71056485,69831000,997000,85295760,21
163624140,166379,77920776,84520,77576043,91003,109604,1354563,273519475,10762,164442690,27125,2293,504557920,130,2.19,0.89,0.86,0.04,0.0,73832624,71641000,1990000,88014318,21
10137440763,3150056,3331515392,2318935,3331436150,2329904,843420,36592718,10873550217,263686,10141393202,42918,81831,28614171465,144,89.15,37.16,36.1,1.5,0.0,2944441038,2937328000,998000,2958675597,21
172745954,168483,81301327,94137,81767907,90471,100284,1356024,287371320,10819,173551535,1846,2498,526035722,136,2.31,0.93,0.89,0.04,0.0,78676460,77669000,0,92992356,21
137945476,165877,67145129,74824,67110263,75516,97228,1187239,229268357,11600,139476737,3040,2051,426017802,132,1.81,0.74,0.72,0.03,0.0,62521496,60744000,995000,76638607,21
2496568620,548683,500844842,827470,500540791,836504,313077,6525883,1768441235,44490,2497361839,7524,12064,6507217590,135,14.36,5.99,5.82,0.25,0.0,479638463,474899000,993000,493799276,21
2997484164,797395,1165176877,950828,1165915119,942238,200858,8699125,2513513705,61948,3002752936,11265,18685,8004917964,139,21.55,9.36,9.11,0.35,0.0,683298529,677161000,1988000,697366329,21
3090085126,6545066,1234453180,3254818,1234109093,3206239,1741656,24618478,2672919271,108306,3080930134,107431,71095,8328030897,3340,21.93,9.56,9.31,0.35,0.0,663769890,658621000,1989000,678082768,21
679550677,2018618,318334075,429117,317554056,436041,662199,5846487,881454926,29607,672384572,9993,15796,1913687492,3134,7.18,2.94,2.85,0.13,0.0,239587567,234449000,3973000,253723719,21
184374178,1034302,88310779,133956,88765255,130133,801178,2801132,343487368,21653,185560856,42968,20753,569590871,6095,2.96,1.11,1.08,0.05,0.0,93135444,82575000,9948000,107466352,21
155376385,167175,73717487,86502,73420330,86264,97847,1320550,270141945,13365,156298850,8237,1816,472706575,135,2.25,0.88,0.84,0.04,0.0,73263417,71786000,997000,87472869,21
38932661,159443,17710309,53993,16446923,55538,177000,751744,43949588,6423,35960373,516,613,117632827,525,0.38,0.15,0.15,0.01,0.0,12212313,10005000,2001000,26316405,22
87881676,189010,47599987,61462,47360493,62110,169072,926097,101076820,3843,92530361,5277,797,262070534,519,0.92,0.38,0.36,0.01,0.0,27178220,25929000,997000,41264610,22
41705797,220395,21929236,54380,21212812,54712,143728,906587,53463913,5778,40930142,8178,2283,129710877,1041,0.45,0.18,0.18,0.01,0.0,15140818,10912000,3968000,29335220,22
34874598,173185,16234346,54454,15935048,54088,136837,611008,43621410,3500,35634776,521,716,110215327,328,0.35,0.14,0.13,0.01,0.0,11860020,9668000,1933000,25945224,22
36889200,191395,16932586,55288,16635424,55432,171617,730879,45421372,5572,37066634,494,631,116304609,525,0.35,0.14,0.14,0.01,0.0,12358308,10113000,2022000,26397465,22
42482914,157393,20137541,54376,17799628,54285,163847,831329,47153358,3292,38538199,403,387,132393290,526,0.39,0.16,0.17,0.01,0.0,13308077,11026000,2004000,27582071,22
29137584,146513,16607199,53457,16855528,55617,104533,497757,42504719,1398,34696192,738,747,104514691,134,0.36,0.14,0.13,0.01,0.0,11150914,9941000,994000,25275003,22
28722591,145126,16009335,58382,16226267,57916,100919,492845,38981963,1490,33182639,713,785,99822222,135,0.32,0.12,0.12,0.01,0.0,10594423,8477000,1883000,24636038,22
84044531,210217,44897644,63023,44716877,61498,152086,801622,91674988,6898,87039409,4467,1102,243689014,518,0.74,0.31,0.3,0.01,0.0,24714430,23429000,1018000,38743166,22
37601448,205590,17042520,55909,16161781,55690,179956,752522,46290326,2308,37627881,373,614,116995943,526,0.4,0.15,0.16,0.01,0.0,12332175,8424000,3744000,26130224,22
80586249,134544,45374198,61607,45728567,61434,102764,693455,90005037,2918,83818544,5018,1491,235590872,129,0.75,0.3,0.28,0.01,0.0,25161034,24954000,0,39071822,22
121768181,917979,65463661,88230,65428297,86878,968566,2670353,207892595,12943,129173451,17692,4261,408207224,3261,1.72,0.69,0.67,0.04,0.0,55985553,51710000,4055000,70375689,22
82518099,214168,45883382,62259,45603353,63860,141498,760561,90684427,3431,83504872,4552,1552,236266817,519,0.75,0.31,0.3,0.01,0.0,24687574,23449000,1019000,38894189,22
87770875,238896,45749586,60795,45793740,61325,174623,829529,97288185,3177,92059066,3598,1151,259733703,519,0.82,0.35,0.34,0.01,0.0,26318571,24083000,2006000,40586836,22
83330481,251260,45191148,62300,45204603,62243,156635,830575,96309487,4152,88301696,6659,1113,243784815,518,0.83,0.34,0.33,0.01,0.0,25871442,24612000,1025000,39940775,22
36596363,189499,18371693,54671,18391317,54781,139394,629892,47852635,1692,40452579,478,721,122777547,328,0.39,0.16,0.16,0.01,0.0,12818159,12627000,0,26738700,22
245433692,3290882,108225244,189748,104114298,191438,3401072,5908598,546655184,56199,233802130,175601,42995,611509550,39195,4.48,1.72,1.66,0.1,0.0,147856800,107771000,39915000,161988222,22
36885109,194642,16655707,55282,16428486,56169,175867,691861,45614934,5571,37382579,523,616,115651171,525,0.39,0.16,0.15,0.01,0.0,12058497,9657000,2146000,25938499,22
92186548,124912,49502969,62523,46985186,63005,163947,953325,97639023,4838,89766840,6490,732,267100406,518,0.85,0.36,0.34,0.02,0.0,27229281,24913000,1993000,41533326,22
87391087,193911,45491004,67180,44833857,67381,185693,902936,92672593,7757,87698543,4618,1139,248663358,519,0.83,0.33,0.32,0.01,0.0,24900790,23623000,1027000,38911041,22
43001347,119431,20796876,52703,19271101,53344,134962,775615,47326979,3177,40668990,429,381,132645369,331,0.42,0.16,0.15,0.01,0.0,13836074,11619000,1936000,28058579,22
32102485,394785,17207803,56765,17260877,56540,188409,744736,47711055,2246,39478096,2403,1203,111476159,916,0.39,0.16,0.16,0.01,0.0,12695369,11419000,1038000,26634659,22
34008446,88654,16890831,57212,16834396,57300,108570,517323,39523162,2100,35004638,565,819,106314231,133,0.33,0.14,0.14,0.01,0.0,11037439,9830000,983000,24997902,22
333516403,4611508,174131954,665912,172054411,661442,716769,3621752,578544409,21827,336246331,20196,7656,1024444015,3261,4.6,1.91,1.85,0.09,0.0,156733678,152468000,4012000,170919087,22
39107990,174769,17502015,55089,17749144,54121,138431,727616,48069652,1940,39824530,477,483,123250004,330,0.4,0.17,0.16,0.01,0.0,12938333,11703000,975000,26919176,22
91780564,193196,48970527,60663,48992831,60713,169564,932572,104577619,4938,96373311,5916,867,275739596,518,0.9,0.38,0.36,0.02,0.0,28135318,26898000,996000,42323723,22
81343512,245680,44468161,60576,44467172,61759,154156,797077,93546947,5207,86241011,4295,1158,236057637,518,0.79,0.34,0.33,0.01,0.0,25297429,25052000,0,39560226,22
89254982,189793,46333500,62064,45484446,62104,172574,980191,93206522,7629,85698763,4387,804,249466259,517,0.79,0.31,0.3,0.01,0.0,27022111,24656000,2054000,40923164,22
37758942,193681,18296527,56646,17213560,56740,171626,775715,47334773,2562,37004381,402,494,118133561,525,0.39,0.16,0.16,0.01,0.0,12605072,12442000,0,26764148,22
86050976,132533,45699687,63154,45213449,63633,133835,818038,88973152,5704,84818318,5124,1400,245053449,323,0.73,0.29,0.28,0.01,0.0,26031041,23743000,1978000,40280394,22
39409712,173012,18780693,56464,16547115,56604,174164,759090,44608009,2748,37199440,394,575,122114551,526,0.39,0.16,0.16,0.01,0.0,12436096,12125000,0,26521922,22
42746028,268106,18897624,56745,16472777,56891,243499,981069,50621457,10419,38169434,815,385,130932773,915,0.43,0.17,0.17,0.01,0.0,13445470,11119000,2021000,27572561,22
90212120,232994,47493285,63867,47349869,65407,205836,1061755,105878371,3719,95949966,6763,772,270471162,520,0.88,0.38,0.36,0.02,0.0,28419743,26047000,2003000,42766904,22
301727320,3763078,162744907,816221,162294316,820760,623971,3237248,519102510,19569,303921419,23031,5631,939545403,2870,4.15,1.72,1.67,0.08,0.0,140811116,134479000,5976000,155109723,22
78271726,193577,44434195,69749,44668711,66479,136557,806007,92133346,3729,84080604,7027,1203,234515317,324,0.78,0.3,0.29,0.01,0.0,25186348,23944000,997000,39244825,22
83693578,196625,45255972,61549,45244083,61741,122928,747123,94343035,2853,88735355,4118,1229,251261879,324,0.8,0.32,0.32,0.01,0.0,25380654,23161000,2014000,39529742,22
34185634,199156,17529330,56753,17615634,57043,153132,612054,43609029,2082,34063862,2737,1445,106908926,523,0.36,0.15,0.15,0.01,0.0,11737193,10452000,1045000,25765890,22
36383846,222443,17332970,55374,17007440,55475,175831,763153,47173736,2012,38561975,452,566,119131324,525,0.39,0.16,0.16,0.01,0.0,12727544,9565000,2869000,26941991,22
79339829,156941,45390892,60496,45429788,53465,89329,633611,88871430,2368,82419632,2978,1329,235089646,129,0.74,0.32,0.31,0.01,0.0,24153330,22928000,996000,38189840,22
28528079,156646,16216489,56543,16292748,53136,88994,447512,39089936,1096,32588699,727,779,98255961,135,0.32,0.13,0.12,0.01,0.0,10604090,8508000,1890000,24671334,22
31965321,134749,16995377,58975,16998200,58557,107976,536993,42350684,1574,35999876,690,793,108632910,135,0.38,0.15,0.14,0.01,0.0,11108312,8817000,1959000,25091231,22
38830681,216200,18195331,55381,18126370,56710,187533,845582,50958780,2766,41356649,373,631,127501546,526,0.41,0.16,0.16,0.01,0.0,13671138,11392000,2071000,27798793,22
34675733,164297,16864592,57438,15378862,57413,173636,653339,40885710,5703,34380394,621,723,109866847,523,0.41,0.14,0.14,0.01,0.0,11304446,10033000,1003000,25535758,22
82402568,236594,45247426,63065,45501608,63801,174688,839410,91810409,6138,86173617,3143,1378,240844756,519,0.75,0.3,0.29,0.01,0.0,25845156,22668000,2956000,39999745,22
38267641,226885,17753269,53957,17783186,54090,170702,787186,49667105,1984,41500814,630,421,125954340,526,0.39,0.16,0.16,0.01,0.0,13241782,12983000,0,27615825,22
81998054,233359,45849408,60970,45823222,60484,156218,765476,93492248,3473,85462340,4953,1527,243834683,518,0.76,0.3,0.3,0.01,0.0,25745175,23563000,1963000,39894427,22
31988641,212657,16876684,58571,17034641,57855,146919,588098,43209541,2125,33330974,3503,1573,102413636,525,0.37,0.15,0.14,0.01,0.0,11366706,8121000,3045000,25294090,22
41189177,221141,21557038,56831,20961360,56779,151967,912110,53622540,5101,39812447,8968,2203,128765828,1043,0.47,0.18,0.18,0.01,0.0,14933828,11765000,2941000,29006550,22
34180835,81497,16449558,56338,16420966,56541,116374,514997,39598671,2125,35739567,521,735,106435310,134,0.37,0.13,0.13,0.01,0.0,11059490,10747000,0,25311509,22
37943317,212499,17857550,64591,16712001,64936,192867,751662,46343457,2478,37826686,654,1150,116298088,525,0.38,0.16,0.16,0.01,0.0,12206022,11925000,0,26446799,22
87832163,216622,46669283,60882,45814936,62836,175114,985915,97605637,3880,88306835,5827,743,258774888,519,0.78,0.32,0.31,0.01,0.0,27026582,23742000,2967000,41087824,22
82556888,143722,45336076,63565,45220762,62675,143442,754033,89585678,4276,84032542,5569,1615,238132047,518,0.81,0.32,0.31,0.01,0.0,24565128,21292000,3041000,38677963,22
195574107,618223,95194882,118978,92307040,119850,412426,2205274,274885694,14982,189107866,18043,5234,575331010,2995,2.24,0.94,0.91,0.04,0.0,74594558,68285000,6025000,88779812,22
31593972,143009,17233472,56151,17247105,55867,105189,530000,40080909,1447,34822261,615,745,102600027,134,0.35,0.14,0.13,0.01,0.0,11107958,9864000,986000,25168226,22
36092528,217286,16567382,57229,16567335,58921,176859,692842,45745227,5466,38466818,556,776,116515974,523,0.4,0.16,0.15,0.01,0.0,12183329,9889000,1977000,26300731,22
40739491,214337,18407948,53591,18311406,53501,172804,808531,50722625,2186,42850973,507,372,135933088,525,0.44,0.17,0.17,0.01,0.0,13366481,10994000,1999000,27614974,22
34827333,207976,16600409,57462,16510846,59685,182611,681618,44800576,5393,37393605,519,770,113285030,525,0.38,0.15,0.15,0.01,0.0,11786694,9513000,1902000,25919503,22
43047067,210121,19930373,55839,19899691,53029,157432,820388,50779906,5720,45715529,460,417,133261050,524,0.43,0.17,0.16,0.01,0.0,13509284,12149000,1012000,27559023,22
38603836,205411,17958166,54532,17264128,56194,177272,815918,48853078,2362,39523236,497,371,125691552,524,0.4,0.16,0.16,0.01,0.0,12934357,10664000,1939000,27015046,22
93373403,169253,50356863,60271,47425320,61303,172970,1035314,97171221,4799,87708721,7521,745,265594005,520,0.84,0.35,0.34,0.01,0.0,27679054,25426000,2034000,41795754,22
82009109,137357,45230662,64086,45148210,63801,138402,765700,92075025,5385,86360199,4672,1579,242521253,324,0.78,0.33,0.32,0.01,0.0,24595837,24269000,0,38791484,22
90104383,311179,46522445,63696,45085625,64036,238604,1080380,99155658,11441,89321844,3784,729,259649982,910,0.78,0.32,0.32,0.01,0.0,27416792,24147000,3018000,41446863,22
48367935,111828,23667405,50552,22182768,51665,128543,803123,59295092,4720,47935412,599,482,155763427,329,0.51,0.2,0.19,0.01,0.0,16303997,15084000,1005000,30544919,22
98844738,424421,49141406,68607,44517647,70528,463453,1577886,104310343,17369,89554625,7853,784,278410228,1299,0.88,0.36,0.35,0.02,0.0,28539048,25122000,3014000,42790403,22
37973362,135858,20040623,54742,20137950,54281,109985,566849,45763733,1473,42264843,383,684,121161839,135,0.4,0.17,0.16,0.01,0.0,12285939,9918000,1983000,26320370,22
78066252,155197,44869466,61094,44573089,55012,94738,658477,87758116,2548,81202572,2920,1114,233291508,128,0.74,0.31,0.3,0.01,0.0,23864535,21627000,1966000,38092845,22
37587393,205869,17926157,56386,16845107,57326,178582,770965,46710682,2335,37732115,373,591,119245822,525,0.38,0.15,0.15,0.01,0.0,12412585,11174000,1015000,26596485,22
98146291,450688,39297877,99215,39511773,99123,160964,1227955,109112647,5823,97744195,8717,2484,251486197,1041,0.96,0.38,0.36,0.02,0.0,29465455,25182000,4029000,43635862,22
43433292,197840,20572059,51406,20127841,53526,169228,847313,53235316,2942,42752093,432,440,136492017,524,0.45,0.16,0.15,0.01,0.0,15052317,12816000,1971000,29168155,22
82302379,245592,44614568,63998,44750825,58455,152388,782211,91544928,5238,85743477,4177,1165,242181640,518,0.77,0.32,0.32,0.01,0.0,24501111,22234000,2021000,38596048,22
90792342,233745,46941288,61679,46936841,60482,159548,936101,100081010,3238,94081871,5308,750,267608332,518,0.83,0.35,0.35,0.01,0.0,27167907,26966000,0,41383523,22
48856633,328637,27655455,59490,27937624,53550,160430,976789,76743939,5942,56598661,5799,2410,164029352,1040,0.63,0.26,0.26,0.01,0.0,20954093,18707000,1969000,34956424,22
87885273,246978,47351804,67984,47253076,65120,192487,918757,99887518,3938,91805905,6267,1454,260645922,518,0.85,0.35,0.35,0.01,0.0,26808503,25554000,1022000,40774144,22
36129825,232584,17334330,55140,17370219,55872,181964,656692,45220258,4199,38313532,419,802,115095913,524,0.39,0.17,0.15,0.01,0.0,12149974,8922000,2974000,26362248,22
38605414,201641,18540381,54481,17439545,56609,182137,804192,48091687,2459,38610043,396,385,122627008,525,0.39,0.16,0.16,0.01,0.0,12723977,12535000,0,26774363,22
83620987,291868,45250573,69394,45245424,69535,284684,977200,94980708,4232,89228420,2866,1109,244508064,517,0.82,0.34,0.33,0.01,0.0,25567455,24285000,1011000,39564601,22
80670896,146160,45233828,59545,45258420,55718,103921,673896,89344297,2749,82350363,4290,1081,234774820,126,0.76,0.31,0.31,0.01,0.0,23999357,21844000,1985000,37954480,22
36300981,233522,16961393,54747,16098760,54217,174663,671302,43932880,3805,37161079,447,732,115932791,523,0.36,0.13,0.14,0.01,0.0,12554384,10292000,2058000,26643536,22
37253669,190824,18095479,54462,18004882,54480,174940,775462,48968510,1975,42387374,422,385,128160937,525,0.38,0.16,0.16,0.01,0.0,13233743,10016000,3005000,27374864,22
43634988,215678,20613330,52258,20305459,51685,160854,819188,54083389,2337,46247300,441,435,143237532,526,0.47,0.19,0.18,0.01,0.0,15208350,11966000,2991000,29508992,22
279686714,3819231,160691280,726012,160539295,723341,2348134,10073797,567474112,61122,281639958,46390,11982,902885146,7414,4.74,1.87,1.81,0.1,0.0,153725502,142427000,11033000,168095391,23
446872925,2882098,252433326,1122675,249591570,1115808,1016505,8698251,670476611,57709,446814230,23585,16501,1315398290,1866,5.66,2.32,2.26,0.11,0.0,181332812,171976000,8998000,195503909,23
459543843,3206612,261404245,1222425,260435841,1197210,1607705,10546094,701315291,61123,454223080,41859,10718,1360065623,3306,5.89,2.38,2.32,0.12,0.0,191191170,184974000,5999000,205528124,23
427063053,2773875,241628856,1092070,240102255,1074382,1338615,9370678,641698391,56058,430839028,22951,21599,1261440716,2134,5.41,2.24,2.18,0.1,0.0,173893771,168675000,4990000,188261174,23
278953750,3136220,140647657,747015,139847453,751268,1767313,8578705,525982173,124636,288442494,14123,16740,859599191,2673,4.42,1.74,1.69,0.1,0.0,142239046,138882000,2997000,156396781,23
423887799,3015652,240702139,1073477,241476982,1076541,1316592,10140954,638150532,63135,427786398,20993,16282,1257727708,2127,5.55,2.25,2.19,0.1,0.0,172396435,171209000,1001000,186640701,23
477862993,2936992,261024041,1237057,259059518,1233815,1137192,8840706,720920736,62812,477692723,22599,17456,1398304785,2156,6.02,2.44,2.37,0.11,0.0,195104785,186865000,7994000,209406843,23
150333093,1166117,79177840,303488,77926523,299554,176810,3184085,209400174,8112,149318272,2581,1515,447413130,381,1.74,0.72,0.71,0.03,0.0,57267156,53955000,2997000,71593890,23
278807164,2644372,140675274,709438,140891730,695698,1234452,7966771,502960060,61919,277172795,21548,12745,840172993,2231,4.16,1.67,1.63,0.09,0.0,136092359,128714000,6984000,150559093,23
229570867,2985987,127310971,705436,125817260,691296,1500081,8801115,451597646,57494,230830343,25282,13901,721595681,2737,3.75,1.48,1.45,0.08,0.0,121635387,113268000,7948000,135923006,23
280320419,2986701,140338350,756780,139023570,760305,2170205,9482997,539783618,123238,287391228,13967,19668,861944738,2766,4.57,1.76,1.71,0.1,0.0,145614327,141210000,4005000,159890870,23
307799554,2983002,153395333,729602,150280695,735421,1816151,8769971,565068622,147681,297760484,16270,9400,918917263,2698,4.64,1.88,1.82,0.1,0.0,152797515,143567000,8972000,167027740,23
389816400,7661792,195762077,1655507,193359052,1657899,2869482,22890335,797376224,339529,384836518,17646,16332,1176734397,2657,6.45,2.56,2.48,0.14,0.0,216696273,204364000,12021000,230844863,23
271259545,3178962,138389223,737099,138631707,737184,1677331,8476107,521457303,122226,281527592,18446,10462,839867641,2675,4.47,1.73,1.68,0.09,0.0,140947472,130684000,9975000,155362992,23
284415487,2876209,143398689,746356,141509221,754727,1876846,9134275,542619917,125345,288889536,24865,21112,868084297,2698,4.5,1.78,1.72,0.1,0.0,146577408,143302000,3006000,160898197,23
224534620,3414272,123516633,726803,122737920,738266,2032708,9981618,457902533,130437,226866499,10989,109377,705016443,2694,3.78,1.47,1.43,0.09,0.0,125201871,116929000,7995000,139566752,23
247778984,3678027,136044117,772572,138383105,763508,2171543,10106815,516196003,152562,249993929,28499,9046,772242022,3385,4.26,1.7,1.66,0.1,0.0,139377859,129988000,8999000,153500103,23
172857595,2712581,129485015,671080,128310856,676731,1499820,9319671,375281813,52380,179746678,13230,8090,616099287,2174,3.08,1.24,1.2,0.07,0.0,102312759,90993000,10999000,116645940,23
429343179,2947738,242310796,1103708,240518307,1085340,1310794,9624915,651410426,56560,432495714,22899,10013,1272412378,2133,5.57,2.29,2.22,0.11,0.0,176101908,163833000,11987000,190487665,23
223741047,3011009,125208413,667760,125870141,639975,1491117,9640527,434176117,68781,226948504,26156,19252,696740423,2188,3.62,1.45,1.41,0.08,0.0,117699024,114364000,2983000,131984444,23
452373986,3171725,255310259,1080378,253977123,1075613,1527542,10680227,684192850,89518,451667818,59510,6926,1330753798,2250,5.99,2.39,2.32,0.11,0.0,184805135,180516000,4011000,199220262,23
220905393,3040006,124024725,656328,123133320,645921,1365528,8777905,416917152,67128,219670890,18254,7726,688266603,2284,3.48,1.4,1.36,0.08,0.0,113401592,106116000,7007000,127647511,23
280297322,2460635,140621418,702802,141158253,678528,1239749,8016909,498162088,55469,272651027,16991,13306,845606245,2162,4.12,1.64,1.6,0.09,0.0,134992743,125726000,8980000,149414707,23
315313698,3438259,156659381,781437,154772141,699164,1467350,8537315,562153414,64425,312035225,13713,6201,947497224,2344,4.67,1.85,1.8,0.1,0.0,151920130,145633000,5984000,166297525,23
366484908,1061024,209405804,925294,209511600,927165,175757,3301118,459539080,16297,374495963,16601,4147,1064019407,283,3.96,1.64,1.6,0.07,0.0,124178886,122940000,999000,138401220,23
655571205,9219293,348821719,5758247,348071307,5746305,2897628,25182862,1513461266,369547,657932638,36289,29556,1997937892,3735,12.37,4.92,4.76,0.25,0.0,410092551,404692000,5008000,424250520,23
223678632,3340052,125457746,740290,123446343,728928,2039405,9442310,453013685,114422,224989548,16567,12187,700014896,2650,3.77,1.49,1.44,0.09,0.0,122515772,116146000,6007000,136745347,23
223865183,3323784,124848686,746356,123322794,734681,2098191,9492967,453122936,114744,225940690,12695,8657,700111707,2627,3.82,1.49,1.45,0.09,0.0,121917168,116595000,5025000,136328733,23
430626264,3105235,243840511,1112931,242033461,1086464,1484292,10389249,652620655,62046,430656593,22917,296752,1274405267,2291,5.62,2.28,2.22,0.11,0.0,176939991,172558000,4012000,191148415,23
220802811,2850462,123552290,663084,124196401,665448,1350661,8795677,423868353,65537,221612283,41445,18920,688944841,2143,3.53,1.44,1.4,0.07,0.0,114984765,105703000,8974000,129195283,23
498253122,2547949,271106437,1237106,269027815,1227835,1554078,9261907,755270464,64934,494242253,25717,20598,1456233046,2758,6.37,2.6,2.53,0.12,0.0,203905304,195622000,7984000,218150166,23
289734828,3796075,163368053,722561,161250452,729336,2342970,10130419,583262706,72472,282530431,40186,20143,919361812,7389,4.84,1.93,1.87,0.11,0.0,157681471,141256000,16029000,171663275,23
437087174,3225346,246621037,1131748,242284150,1125117,1575467,9867111,662576501,74368,433788824,15716,12185,1282547943,2260,5.59,2.27,2.21,0.11,0.0,179259934,172829000,5994000,193589281,23
668991717,8753048,359103015,5640149,359907438,5623797,2223653,23475543,1507189150,206093,669719154,28152,16968,2048015816,3254,12.18,4.97,4.82,0.24,0.0,407127975,398779000,7995000,421385614,23
480886127,2962767,261253333,1115100,259340916,1111938,1270057,9089867,720548249,83991,476178139,20737,25696,1402780014,2157,6.24,2.5,2.43,0.12,0.0,194665448,190346000,3986000,209070573,23
432188226,4122339,243406257,1199879,243434042,1135242,1551735,10671429,669049882,76225,434013478,35850,12643,1286520178,2251,5.76,2.34,2.26,0.11,0.0,178543152,169178000,9009000,192647387,23
262150625,2988018,141917348,692293,140636167,655904,1542356,9786607,489908715,66084,255258340,22125,20449,803487985,2326,4.1,1.65,1.6,0.09,0.0,132870870,127408000,5016000,147164920,23
440810268,3470774,252107132,1209959,247693639,1171076,2563860,11577789,692357950,169568,427461163,27972,54971,1289609859,2861,5.85,2.38,2.31,0.12,0.0,187613180,179186000,7963000,201869702,23
482074774,2787212,260643696,1120330,257951996,1111368,1282128,8536025,717014604,55681,486592886,26690,18117,1417858652,2234,6.23,2.49,2.42,0.12,0.0,193811335,188508000,4986000,208056457,23
480324365,2754700,259734470,1115618,257695400,1117757,1257362,8258556,726980231,56388,490720742,22065,10349,1419857017,2158,6.12,2.5,2.43,0.12,0.0,196050899,189759000,5992000,210434501,23
304275203,2983045,154415216,775686,156580170,758983,1989884,9197710,586925471,145733,307510456,26968,58703,926640863,2675,4.82,1.93,1.87,0.11,0.0,158809511,151497000,7023000,172949772,23
438104331,3175107,247906125,1111765,244286895,1101110,1523613,9508360,669297113,72861,438265423,21213,16921,1286201103,2250,5.88,2.34,2.26,0.11,0.0,180977808,176640000,4014000,195077094,23
441074246,3431992,249405199,1222500,245177463,1232531,2501868,12304449,697835221,176575,432487520,17520,18546,1292267048,2864,5.92,2.4,2.33,0.12,0.0,188686033,181349000,6974000,203211048,23
222938347,3187357,120828123,673487,120422223,683663,1379783,9187729,418023823,60361,226621540,9239,4923,697465285,2129,3.51,1.41,1.36,0.07,0.0,113166657,107897000,4995000,127500366,23
295088656,3141442,149902449,768165,150933566,746808,1917469,9213662,564519939,140006,294457421,19871,13832,888126310,2741,4.63,1.86,1.81,0.1,0.0,153059257,146798000,5991000,167239975,23
300305796,2756216,148997505,699005,146379841,715416,1536520,9136370,532170511,62513,299111281,21201,14884,912766699,2162,4.58,1.78,1.72,0.09,0.0,143179464,139880000,2997000,157468956,23
226685024,3107782,124298241,679173,125196568,650523,1537343,9620816,430476714,68447,224916956,12672,10129,706456820,2269,3.59,1.43,1.38,0.08,0.0,116617678,111189000,5008000,130759688,23
220290949,2911217,123433692,662262,121942372,671903,1286441,8274446,411415930,52881,220182615,15266,9600,690015673,2139,3.42,1.37,1.33,0.07,0.0,111186815,108897000,2016000,125332903,23
280061464,3300073,142897114,723854,144247803,725274,1932832,9342912,518162532,73198,286229228,33897,7832,860860213,3035,4.41,1.71,1.66,0.09,0.0,139693459,135317000,4009000,153667452,23
450824207,3838869,253581690,1253699,252429336,1267897,2068845,11296101,726778824,142986,456470096,27717,12134,1334360698,2762,6.26,2.5,2.42,0.13,0.0,196318660,189912000,5997000,210507437,23
219606530,3152745,122493160,663921,123409189,647618,1368514,9156106,420634076,69291,220187667,18367,7426,688165540,2283,3.5,1.4,1.35,0.07,0.0,113920875,106446000,7029000,128154036,23
291609826,3079579,146478778,717662,144866442,742921,2063906,9539164,537484324,126737,295512518,20270,10669,892458071,2677,4.45,1.77,1.71,0.1,0.0,145543570,142151000,3003000,159860213,23
304888328,2532749,151127928,693796,149007956,698560,1384944,8761202,531876377,68225,296772803,18760,6456,912876452,2160,4.5,1.77,1.71,0.09,0.0,144132059,139802000,4023000,158473677,23
235166767,3064545,127212018,707159,128548411,702456,1397656,8732677,448688508,61394,234293073,16886,14212,725444284,2277,3.73,1.47,1.43,0.08,0.0,121762249,115465000,5972000,135839456,23
229637225,3593596,127121791,742022,125720222,727450,2321438,10438706,473635816,151837,233836373,20477,21862,712682242,3062,3.9,1.55,1.51,0.09,0.0,127930415,115650000,11963000,142007460,23
441745348,3152104,250463185,1110975,248526947,1100420,1564034,9185902,676645156,62418,446601374,20209,19821,1308605505,2266,5.73,2.36,2.3,0.11,0.0,183086014,175472000,6979000,197549961,23
544476446,8470427,280368309,2273807,280209206,2229251,2717657,18992839,1085140124,227284,544678544,28820,11658,1642421094,3516,8.93,3.58,3.47,0.18,0.0,292888441,288628000,4008000,306998176,23
278489646,2612004,140627114,711093,141176026,697059,1257721,7888646,502947960,59294,276437854,19387,9847,838385286,2228,4.15,1.66,1.61,0.09,0.0,136694503,134464000,2006000,150927592,23
285239280,2965218,143264751,741603,141312742,749896,2083458,9337514,545430947,128849,290171354,17881,26390,873760942,2740,4.65,1.8,1.74,0.1,0.0,148020597,140631000,6981000,162373807,23
494460920,2670526,270802144,1132009,268435279,1114668,1489212,8965170,745678472,64649,493619476,22366,24785,1455792903,2758,6.27,2.59,2.51,0.12,0.0,202621989,197306000,4982000,216899209,23
581095412,3235447,311970457,1188142,311529999,1178851,2185590,11000477,940542059,67264,587554099,54849,33908,1732477501,7058,7.81,3.19,3.1,0.15,0.0,253384052,239964000,12998000,267775450,23
262434505,3060675,140001360,731748,140895702,715927,1378534,9538529,499170647,53509,267377112,17112,17966,809763055,2191,4.29,1.67,1.63,0.09,0.0,134910547,133586000,1004000,149071117,23
497002044,2617044,271457808,1142865,269661541,1128190,1533779,9110668,747363026,63834,492892694,28983,60424,1456763052,2757,6.3,2.58,2.51,0.12,0.0,202663405,191402000,10965000,216883010,23
282121753,3109750,141700785,743500,139273155,756083,1951308,8894929,528364224,120874,290076766,16493,13680,868912875,2743,4.35,1.74,1.69,0.1,0.0,143111726,135854000,6992000,157313429,23
223775612,2662759,122562958,679849,121995774,690223,1040609,7652826,416538428,42931,226615658,11811,4510,701367496,1808,3.53,1.4,1.34,0.07,0.0,112973849,109582000,3016000,127267499,23
449880257,3081780,254443832,1236710,255837922,1200938,1581745,10880922,695585646,85746,453329132,35753,17472,1323809657,2263,6.09,2.42,2.35,0.11,0.0,188375074,186005000,2000000,202721057,23
280730429,2543662,141059581,699963,141697596,678875,1309022,8060249,500048742,61413,273262949,18657,8191,844362531,2230,4.17,1.65,1.6,0.09,0.0,134878521,128508000,6023000,149071561,23
309457786,1237550,176998162,678855,177165553,672256,257852,3879737,369258045,13843,325731098,17131,5197,906897266,337,3.3,1.33,1.29,0.05,0.0,99774494,97432000,2008000,113895882,23
221552359,2894133,124880260,653766,125512931,646305,1420235,9410835,431209389,66147,222551223,41628,20088,686386874,2283,3.7,1.43,1.39,0.07,0.0,116744393,110302000,6016000,131044083,23
434586830,2995620,244857387,1175781,243215255,1152472,1465741,9681476,660192542,58949,437809628,19366,14600,1286315833,2251,5.62,2.28,2.21,0.11,0.0,178533838,175182000,2986000,192689543,23
225671327,2808196,123347878,709449,124553651,678950,1280492,8614006,442507421,62145,228895854,15220,11174,709489833,2294,3.7,1.46,1.41,0.08,0.0,120017061,113637000,5980000,134124355,23
225833821,2769142,124869476,658052,123795581,656549,1235187,7797102,419474792,55712,225401446,12770,10629,705179120,2139,3.52,1.41,1.37,0.07,0.0,113584167,109179000,4006000,127682920,23
285257437,2575054,139269051,701585,138188499,699505,1209015,7928470,506987548,67661,275387431,23568,6821,857672711,2160,4.17,1.66,1.61,0.09,0.0,136718208,129435000,6969000,150977804,23
246417145,3566775,131152317,853279,129296827,851686,2032160,10968502,481652595,130935,245219552,16608,6153,758150344,2510,4.17,1.58,1.52,0.09,0.0,131152804,127777000,2994000,145510887,23
385871863,2080780,215069633,1036953,214788526,1038130,270900,5129145,505272716,15571,383081430,17531,4266,1091419581,479,4.28,1.76,1.72,0.07,0.0,136368146,133080000,2979000,150501589,23
425990685,3001544,241066181,1095500,241136617,1088217,1441530,10262593,640870084,58879,429985331,28659,21590,1258237796,2110,5.47,2.25,2.18,0.1,0.0,173449274,167081000,6002000,187670315,23
435168599,3271885,247059722,1119962,244489693,1109615,1530264,10121253,662960544,69274,435986535,30365,15592,1287654742,2867,5.69,2.32,2.25,0.11,0.0,179189138,171919000,6996000,193685379,23
516598170,2578127,276785961,1127532,276980938,1130048,858239,8813284,764816715,56800,515235936,20133,10413,1504908617,1776,6.48,2.66,2.59,0.12,0.0,206643517,200360000,6010000,220945506,23
229108505,3593400,127195472,740973,126214517,732281,2333652,10349076,469239603,143141,233894534,21417,172998,725097637,3580,3.95,1.55,1.5,0.09,0.0,126915047,115685000,10970000,141051909,23
195899403,1361559,102583878,411510,101074665,400347,202620,4053092,295270527,9464,195262705,5847,2878,585889314,585,2.51,1.0,0.97,0.04,0.0,79778096,78347000,1004000,93977950,23
450881164,2111244,252749549,1076421,249852946,1051275,1065521,8511558,647926344,40175,446605152,17841,14044,1327764304,1857,5.63,2.23,2.18,0.1,0.0,175063488,169755000,4992000,189377588,24
256029409,2137524,138021837,877152,135188853,905439,919060,7012707,456357649,30144,252971930,22681,11228,787504548,2059,3.8,1.51,1.47,0.08,0.0,123008188,115753000,6985000,137190244,24
367617280,3317147,190162456,746042,186954043,741755,2228091,9550287,690495923,51379,365843343,51849,37424,1145039909,9019,5.8,2.25,2.18,0.12,0.0,183406126,175282000,7967000,197769181,24
248884541,2775725,136484854,705652,135006148,733381,1472857,8202693,469663854,82176,250924177,22051,13857,779645433,2489,4.05,1.54,1.5,0.08,0.0,126577435,126362000,0,140723512,24
315492156,2172316,157945033,682291,157033549,675626,872040,7586225,522751105,32344,311814347,14922,15541,950830381,1866,4.36,1.75,1.7,0.08,0.0,142515552,138282000,4008000,156812053,24
330801918,2457638,169311077,713926,170065614,686824,1012792,8231925,575830735,34019,334796952,16494,14538,1022475575,2821,4.79,1.92,1.87,0.09,0.0,155882550,152596000,2992000,170069453,24
454789636,2330644,254314109,1210552,251479749,1229399,890911,8299658,659808945,36703,452208400,17412,15760,1344913409,2003,5.69,2.28,2.22,0.1,0.0,178366441,175157000,3002000,192609489,24
245306118,2145860,133046121,634988,131010045,630374,931269,7367003,426015337,29909,243811532,16436,11257,760126344,1887,3.59,1.42,1.37,0.07,0.0,115400651,112117000,3003000,129666483,24
451184925,2031777,253361542,1069637,249929656,1047247,1053381,8366579,640908338,35293,441234820,15889,17918,1321342915,1883,5.46,2.23,2.17,0.1,0.0,173495542,168277000,5008000,187933258,24
256420043,2743725,140203649,684288,138665200,701436,1760987,8664857,481114092,78203,253747870,13111,23750,791739382,2879,3.99,1.58,1.53,0.09,0.0,129880845,124655000,4986000,144142077,24
253430300,2085384,135026055,686509,134002597,663164,954963,7751369,444205578,37200,250745675,7556,8621,779482575,1958,3.73,1.48,1.43,0.08,0.0,120111916,114935000,4997000,134194320,24
248261741,2121760,132747429,666740,131575271,650136,1067576,7898895,434237620,34191,246372340,11714,13315,760388663,1961,3.69,1.45,1.4,0.07,0.0,117599952,113364000,4012000,131727420,24
310887369,2250252,153447403,660761,150895594,672454,929565,6970432,517470467,32388,312010449,10545,9147,950987086,1964,4.33,1.71,1.66,0.08,0.0,140427581,135216000,5008000,154682382,24
865999382,8351473,440861504,6039260,440479815,6003751,5638295,25979830,1941876169,794381,864227720,33626,26515,2619764169,3398,15.92,6.26,6.07,0.33,0.0,524902619,519891000,5008000,539060673,24
473478763,2333650,260056599,1130496,257090962,1120191,1008457,8600745,686098337,38725,473818516,19599,27010,1404044300,1860,5.82,2.42,2.35,0.11,0.0,185509225,181302000,4006000,199760365,24
939128562,11264016,549200493,1046948,549119026,1067031,12364241,27189188,2092339575,188651,936592172,284320,207313,3192326073,60165,17.06,6.51,6.29,0.39,0.0,564937032,481835000,82971000,579286997,24
304683750,3468550,153006817,878452,153243338,826865,1753609,8972120,567034050,93467,301855885,8271,18909,922529780,2562,4.79,1.84,1.78,0.1,0.0,153622215,149345000,4009000,168003901,24
466047975,2795765,260373620,1272623,258204856,1272275,1871853,9524298,721628518,122294,463144934,27288,33518,1371711670,2869,6.05,2.47,2.4,0.12,0.0,194974572,189762000,4993000,209100457,24
249041059,2889422,135197411,731385,133637179,750290,1669829,8732000,462188186,82134,250040222,9909,14652,774825779,2681,3.92,1.51,1.47,0.08,0.0,124850633,119548000,5023000,139264873,24
249862808,2032427,136266181,662536,134514672,641921,1126154,7681116,436132098,28607,244835305,16851,9707,768556788,2057,3.63,1.44,1.41,0.07,0.0,118353672,114075000,4002000,132549784,24
495241504,2142923,266535688,1104311,263999374,1082653,892781,8225184,706181247,37330,488769500,15863,16149,1448652828,1954,5.98,2.45,2.39,0.11,0.0,190717545,185510000,4986000,205066916,24
247443006,2218543,133980794,640672,131834878,627402,869783,7682820,425751808,32303,245627568,12202,16067,766544978,1961,3.65,1.43,1.39,0.07,0.0,115415094,109089000,6004000,129759031,24
257089679,2749293,139385376,782974,137604490,789803,1551188,8580659,476709282,75012,255529218,15389,13106,796577190,2681,4.05,1.58,1.54,0.08,0.0,129226495,122900000,5995000,143246085,24
415222817,4564546,220653752,1692108,219467555,1663229,3343083,12520802,831284349,248214,418251204,28635,23306,1279462096,3720,7.01,2.76,2.68,0.15,0.0,224323959,214046000,10002000,238549786,24
257355306,2685192,139491652,718078,137393515,708166,1712945,8488196,481306453,75139,253792680,15195,12938,794675236,2684,4.07,1.59,1.54,0.09,0.0,130190279,126923000,3021000,144393247,24
241560417,2285261,131784180,641816,130681181,618262,990610,7578325,425558328,32571,241595759,12760,23405,752541787,2347,3.52,1.42,1.39,0.07,0.0,115290023,111018000,4000000,129608472,24
448200058,2257120,251905086,1072080,249343200,1056286,1198194,8930230,643382860,38676,444106053,20089,13421,1321979706,2068,5.45,2.23,2.17,0.1,0.0,174094075,167757000,5991000,188363643,24
810315240,7332938,460151623,1215493,459053736,1206425,7974331,22032631,1702262983,684582,811208052,53675,43294,2510627585,8568,13.73,5.38,5.21,0.33,0.0,464160597,441032000,23001000,478202882,24
504183096,2728700,283015727,1146109,278318581,1137702,1803385,9889284,748499585,43151,494381743,25285,25419,1493508465,3323,6.49,2.6,2.52,0.12,0.0,202357784,196995000,5025000,216564742,24
452205659,2326426,256151227,1072674,253800527,1093498,1061887,7975719,658517180,37057,450304523,14775,12752,1333438280,1957,5.55,2.22,2.16,0.11,0.0,180785999,177533000,3009000,194984842,24
299176749,2409204,152923727,666698,151375158,680104,1224670,7661537,521600485,37368,301441945,9505,16724,923164727,2431,4.33,1.73,1.67,0.09,0.0,141305361,135927000,4997000,155715219,24
294249956,2773209,150733533,747972,149531276,762353,1647719,8705648,570680118,89856,295456032,16485,269813,898634882,2688,4.84,1.89,1.83,0.1,0.0,154448278,150182000,4004000,168696800,24
291119867,2136911,148508506,678409,146062319,685809,992502,6857111,510889251,32548,291028742,8696,15051,888726496,1868,4.21,1.68,1.63,0.08,0.0,138265068,135068000,3001000,152472465,24
283979236,2226616,148543690,908599,147284427,918275,1283246,7529179,516095157,33273,282453810,11738,9160,864028665,1959,4.24,1.67,1.62,0.09,0.0,141463488,136267000,5009000,155544079,24
447153720,2235833,251777357,1076936,249205984,1054984,1144468,8787226,647009889,36765,444441965,13077,18032,1323420233,2152,5.66,2.26,2.2,0.1,0.0,175101446,169850000,4995000,189736856,24
475400705,2957155,265654382,1580043,263578587,1593434,1944093,10200118,763654005,87168,477395306,45873,33732,1410829107,2671,6.55,2.58,2.5,0.13,0.0,210046756,203770000,5993000,224209065,24
290225832,2305034,147891552,836854,145585660,864495,954489,7159321,516658890,31396,293941252,12710,13264,889778685,1964,4.26,1.71,1.66,0.09,0.0,139802168,134497000,5018000,153802170,24
258790398,2232096,137582721,676369,135508471,699137,960250,6940438,459449609,39961,259716342,9790,13428,797039325,1960,3.79,1.52,1.49,0.07,0.0,124596282,121272000,3006000,138725025,24
488142380,2481979,258726189,1496378,256386281,1491253,1568227,8953252,743699564,98187,489550105,22143,441159,1432462290,2673,6.63,2.56,2.49,0.12,0.0,200605700,197196000,3002000,214883304,24
248404877,2180019,132588070,644160,131173063,639156,994524,7783119,429011316,35106,247028310,8951,17539,763527177,1862,3.57,1.42,1.38,0.07,0.0,116715548,113412000,3010000,131120318,24
269930759,2887608,146966307,764154,146066052,765033,1722335,8920808,518001619,81765,269556220,22351,11558,844525680,2994,4.32,1.72,1.67,0.09,0.0,139918062,134666000,4987000,154111922,24
456419163,2184541,255208799,1182636,252981266,1157178,1017025,8140651,655168868,34197,448649724,13514,12151,1343666455,1859,5.65,2.28,2.21,0.1,0.0,177547731,174292000,3005000,192051274,24
242546524,2158471,131598365,632605,129788210,631081,982794,7395067,425986253,29517,241805834,7069,16959,755305340,1863,3.64,1.43,1.38,0.07,0.0,116086556,109879000,5993000,130256569,24
501138595,2872019,280783160,1101052,280583997,1114809,1504215,10443375,768040484,63005,500572330,28144,33939,1485548288,2897,6.53,2.67,2.59,0.13,0.0,207138045,201744000,5018000,221239905,24
317380510,2077588,156530444,706335,156088580,697122,1282094,8096781,539482952,36670,312402492,16899,17958,949668456,1867,4.6,1.81,1.75,0.09,0.0,145060345,140655000,3990000,159392215,24
242991384,2260779,131796487,642053,129841342,625104,1004136,7584711,422947778,29938,240540144,9609,16659,753163546,2004,3.61,1.42,1.38,0.07,0.0,114746697,112469000,2008000,128945753,24
253850942,2093012,136200571,675338,135014360,654754,1024438,7394179,445436232,32200,249915526,11820,15241,781960970,2058,3.71,1.51,1.46,0.07,0.0,120543972,116296000,4010000,134880323,24
522255939,2073296,276620394,1139386,273268318,1117764,1101375,8863129,750306849,50151,513772925,22638,167060,1525698852,1859,6.34,2.62,2.55,0.12,0.0,202530067,198088000,4001000,216833853,24
246526978,2801195,135859571,842337,133500615,895016,1691742,8558320,469275841,74957,246039708,12598,12068,770028553,2535,3.88,1.53,1.48,0.08,0.0,127907123,123602000,3987000,142020035,24
1221104428,2456160,585922552,3568422,584387616,3550145,1327171,13140626,2155178962,73130,1217072843,23553,38540,3776548657,1956,17.42,7.16,6.95,0.31,0.0,582602071,579291000,3001000,596562193,24
265618329,2788176,141703180,716953,139669530,701127,1850756,9372470,488806024,82688,262389890,25357,14766,820579708,2683,4.06,1.65,1.59,0.09,0.0,131965352,125711000,5986000,146204487,24
250452567,2923530,136782201,688602,134692336,712394,1722367,8879583,469604542,85638,251867157,22634,18445,780425240,2683,4.07,1.54,1.49,0.09,0.0,127656881,120403000,6965000,142039421,24
245883834,2167823,132113232,666015,131298626,646499,1142265,7834677,439506501,30654,246581042,8874,11036,763609257,1858,3.58,1.47,1.43,0.07,0.0,118294741,111854000,5992000,132624140,24
242745938,2124446,131612534,632081,129784525,628760,993893,7281047,425683463,30985,241389841,10926,15181,755719478,1862,3.56,1.43,1.38,0.07,0.0,115050494,111770000,3020000,129232510,24
446753585,2327071,250237879,1049285,247419349,1044183,1078404,8650175,637597005,40008,447565854,13384,15903,1321885926,1884,5.41,2.24,2.18,0.1,0.0,172546836,170284000,2003000,186811566,24
262810257,2372238,141343072,639858,140444166,658283,1032217,7541186,468365290,30957,264448163,13043,14819,814933735,1984,3.97,1.57,1.53,0.08,0.0,126728185,121399000,5016000,141052168,24
258421389,2259989,141661095,656476,139843476,680665,1148749,7321084,466332308,30903,254036612,12037,17562,798010613,2449,3.87,1.57,1.52,0.08,0.0,126114372,124852000,1006000,140272157,24
317429528,2124819,162398773,713736,160770428,702805,991651,7368615,558857751,33741,316180286,10269,18960,963103382,1963,4.71,1.86,1.81,0.09,0.0,150651114,148261000,2003000,164864093,24
241776898,1956470,128635061,661172,127149637,649264,1073657,6776161,425998230,28823,241662775,9151,13812,748810104,2075,3.5,1.42,1.37,0.07,0.0,114566590,113195000,1001000,128690865,24
242878399,2170958,131593857,639758,130119858,632736,985007,7442971,429506905,27909,242497785,28674,15302,755192011,2006,3.77,1.44,1.4,0.07,0.0,116083351,111811000,3993000,130475542,24
244874687,2061332,132396367,656111,130738716,636248,988743,7495334,431816897,30884,242483476,9470,13869,758283116,1880,3.61,1.45,1.4,0.07,0.0,117902694,113633000,3987000,132349985,24
307793184,3001922,172393920,660171,172234211,667159,2194978,9539547,588717633,45642,304581976,29862,33854,972840457,7232,4.85,1.95,1.89,0.1,0.0,159380701,148142000,11010000,173810816,24
294013658,2059141,147970013,698001,145708565,681862,931530,7027763,501750926,35319,288658853,11188,14129,889753640,1868,4.21,1.66,1.62,0.08,0.0,135935863,131675000,3990000,150186155,24
457329327,2254810,253923652,1100422,252248322,1089790,1019639,8383551,658772109,38163,456652755,25033,11131,1348309932,2054,5.74,2.29,2.23,0.1,0.0,177970727,176708000,998000,192183314,24
337457271,3194260,172588960,827568,172952817,818000,2291833,9896513,630854239,98878,338250283,21930,27728,1042465669,4229,5.22,2.07,2.01,0.11,0.0,170741057,165493000,4984000,184964070,24
256423764,2713821,139528178,677574,136893869,705755,1698049,8578963,474581381,81566,251902395,14201,11762,790633992,2685,4.05,1.57,1.53,0.09,0.0,128778573,126503000,2007000,143000646,24
560546765,2665417,300656573,1136205,296643832,1123718,1491730,9945233,840353815,52740,551488453,21688,17367,1656310611,2520,7.14,2.95,2.86,0.13,0.0,227355339,219910000,6997000,241742215,24
429099178,2407134,212148213,1538641,210192565,1562680,946366,8094553,772679778,44217,431010214,15425,21659,1312711683,1961,6.44,2.58,2.51,0.12,0.0,208950556,203694000,4992000,223289891,24
477462889,2224045,263065211,1094822,259695463,1070573,1084189,8761468,689243436,37618,472153870,32886,24122,1400992878,1954,5.98,2.4,2.33,0.11,0.0,186998871,180728000,5991000,201301022,24
272589308,2690391,144645399,777424,143369339,770916,1643878,8941781,506055070,86728,268253416,18759,32571,832052846,2683,4.29,1.7,1.64,0.09,0.0,136721286,132445000,4013000,151029409,24
302605203,2702870,153351149,729958,151498017,713081,1718629,9196443,539448518,81613,300717032,12575,17717,920097595,2490,4.46,1.8,1.74,0.1,0.0,146362604,141073000,5002000,160697944,24
507332703,2198785,271649453,1072381,268350674,1062982,1146552,8327595,740072169,36110,504259240,22252,11919,1485884990,1862,6.42,2.59,2.52,0.11,0.0,199201104,191806000,6992000,213476766,24
576555692,2656347,318859616,1116643,314046098,1112958,1469241,9940569,903180728,55025,571950681,34202,20824,1724662294,3161,7.59,3.12,3.03,0.14,0.0,244013121,236730000,6992000,258333297,24
380795160,2719373,204222257,1544691,201556370,1528497,1762507,9530439,711391036,93463,374021352,12943,23909,1159017381,2683,5.85,2.38,2.32,0.12,0.0,192167801,186884000,4996000,206370435,24
500967375,2344817,269617559,1088983,265972243,1101557,1003313,7923144,718840136,47311,499673399,13231,17681,1467046608,1859,6.21,2.48,2.4,0.11,0.0,194711679,189468000,4986000,208955840,24
448645833,2187611,252170361,1096782,249953297,1074209,1214373,8695896,650828075,37538,443222605,19118,14547,1325024483,2048,5.72,2.27,2.21,0.1,0.0,175646515,168263000,6969000,189974866,24
1266118012,12006726,696126107,8092569,697609831,8101176,9029859,33244660,2906461477,1044696,1274668859,56801,47857,3949263636,8737,24.34,9.45,9.15,0.5,0.0,785141304,776922000,7999000,799544685,24
496995491,2297672,269178055,1077191,265777266,1089887,915536,7700338,722902878,48149,495469520,16964,11083,1459056817,1855,6.25,2.52,2.44,0.11,0.0,195608922,186353000,9017000,209847274,24
225322050,3292721,140309206,470821,138035791,474808,3150958,9140747,503552014,282264,222715943,15434,16352,763465578,3994,3.98,1.59,1.54,0.11,0.0,135955016,128671000,6982000,150152407,24
243218924,2305584,129085803,622125,127986982,626336,1063166,7503824,421310454,33215,244279660,9364,8140,754192157,1979,3.52,1.42,1.37,0.07,0.0,113796060,107472000,6026000,128007895,24
237051388,3446441,137576337,664749,138902652,665138,1283843,9610636,446596137,68573,228073897,14785,12896,738226220,2885,3.75,1.47,1.42,0.08,0.0,119947444,109404000,9945000,134049764,25
241240155,4115040,136775659,709186,138514765,722537,1462110,9322535,461283989,62634,248766292,22870,12508,768049271,3472,3.81,1.51,1.46,0.08,0.0,126166837,116868000,8989000,140294479,25
236919387,3437012,133484114,676180,136075234,670129,1397782,8564246,460196838,59335,247394203,22378,17247,745329437,3037,3.77,1.48,1.44,0.08,0.0,123822206,118491000,4978000,138164383,25
337384366,3333854,173396920,765995,174216558,749586,1764785,10446761,609290128,120456,325501926,16826,12456,1021995306,2523,5.0,2.0,1.95,0.1,0.0,164304596,155565000,7977000,178454285,25
233641054,4131221,127441582,729190,130922682,704812,1945026,9660767,468430081,115388,249942950,16806,13487,748343968,3288,3.88,1.55,1.5,0.09,0.0,126598800,121231000,5009000,140844431,25
238687736,3565028,136236061,693060,138940795,679302,1482114,8701124,465180959,59862,249480240,18986,20229,760067328,3520,3.94,1.56,1.51,0.08,0.0,125889772,119493000,5974000,140054444,25
260614763,3624989,146632907,738829,145726177,720290,2152961,10571460,498766821,172282,242999196,18823,26637,794431534,3237,4.17,1.63,1.58,0.1,0.0,136593180,130239000,6011000,150761886,25
453121952,3206326,254507279,1104158,254788542,1102534,1076612,9401911,674012137,55159,463052869,21671,10498,1355248921,1968,5.72,2.35,2.28,0.11,0.0,182563914,177174000,5004000,196712340,25
466643870,3192882,259566587,1116654,254907037,1125365,1291516,10673676,684887304,52594,472300319,22335,11514,1401058938,1873,6.0,2.4,2.33,0.11,0.0,184992133,180582000,4012000,199184527,25
279769482,3947122,153795177,759944,151137532,750337,3263104,12052564,551633577,183822,262476391,39205,20103,861299090,7033,4.67,1.78,1.71,0.11,0.0,148974582,137645000,11051000,163122320,25
303767756,3794415,152387697,741358,155424439,734987,2181514,10158959,571291175,163012,309681118,23008,16161,930603415,3838,4.69,1.87,1.82,0.11,0.0,155031292,146638000,8035000,169401864,25
226748411,3607985,146369114,686737,147359061,670610,1355808,8931478,458319036,60599,231211345,14972,10295,806489262,2932,3.78,1.55,1.51,0.08,0.0,124214578,118973000,4998000,138888886,25
296345762,9793617,194663228,3713375,193788851,3646149,2992050,28696587,703104230,93824,297884016,149609,73177,973947774,6117,6.73,2.39,2.3,0.15,0.0,230688831,90691000,1563000,244977627,25
306556237,3969351,154321460,745945,147712341,737249,2541617,11495873,584030414,164183,312650670,20466,24112,952663077,4034,5.0,1.91,1.86,0.11,0.0,157915641,152626000,4987000,172102395,25
466879156,3537912,264154577,1227003,257471444,1242827,2169494,12816352,705571121,152951,453528350,22109,13220,1390684395,2536,5.96,2.42,2.36,0.12,0.0,190333315,184930000,4998000,204606482,25
466900932,4482712,260812300,1307354,256305215,1271076,2171580,12997613,733969213,99190,475800307,22890,11957,1402708750,2857,6.23,2.53,2.47,0.12,0.0,198442619,191162000,7005000,212672232,25
258138530,3656701,137846105,705822,138148913,702819,1312575,10500383,476411351,60312,268434779,16685,12502,818532296,2665,3.94,1.57,1.53,0.08,0.0,128648861,122230000,6011000,142854317,25
234049790,3653557,132760032,673870,135798696,663464,1348840,8787192,446762947,61545,239254021,13666,9883,728477324,2886,3.76,1.46,1.41,0.08,0.0,122578006,116094000,6004000,136864969,25
458073400,3339123,256236089,1116264,254470345,1112198,1241474,10103026,680923877,55677,468030167,24174,11270,1371069996,1970,5.89,2.35,2.29,0.11,0.0,183780121,178478000,4985000,197944302,25
271463542,3388984,147785403,741107,142578749,749594,2124094,11381351,494861837,119683,262334500,14017,18338,845701938,2518,4.07,1.63,1.59,0.09,0.0,133902467,127568000,5979000,148260738,25
247808979,3652136,137721853,746112,141802040,743350,1088876,9569367,458756909,56150,253748852,9211,5915,786263835,1928,3.81,1.53,1.48,0.08,0.0,123717230,120366000,2984000,137937784,25
458480356,3624825,257925210,1086959,250479775,1158828,1817257,11809591,691231999,92913,462113369,25539,16146,1382738730,3130,5.82,2.41,2.35,0.11,0.0,186367381,178085000,8003000,200514577,25
445188987,3481817,252632993,1108784,252359879,1089279,1523384,9360051,680498834,62049,457970984,33043,11919,1338111208,2832,5.93,2.38,2.31,0.11,0.0,182682682,177283000,5007000,196936576,25
440723122,3790025,250337475,1141796,251199543,1128739,1380623,9996885,673814945,64071,452245171,24275,9836,1323243496,2955,5.82,2.34,2.27,0.11,0.0,181783017,174513000,6980000,195850678,25
242533823,3175469,137725115,702793,142723361,704246,1195865,9379785,462347207,55291,247881506,21017,9981,756166963,1987,3.83,1.54,1.5,0.08,0.0,122766287,121442000,1003000,136799092,25
439306106,3833988,251666224,1071452,254130880,1073431,1408802,9995108,670244014,75294,447029930,22648,10482,1309428829,2856,5.7,2.35,2.29,0.11,0.0,180216898,174016000,6000000,194340683,25
302880321,4124647,177844562,716495,178551284,720271,2480803,11580018,601828037,99555,292450014,42242,31477,965613273,8402,4.92,1.92,1.87,0.11,0.0,166402228,145119000,21017000,180459770,25
455756173,3345940,258097064,1105344,251872278,1110271,1744030,11647245,674319287,72575,451137132,37734,12102,1365773806,2880,5.85,2.27,2.21,0.11,0.0,186169003,181938000,3998000,200412289,25
242681066,3006098,136804959,684883,137852231,639425,1112034,9137947,448919616,50060,237686214,9765,8145,748254211,1878,3.8,1.51,1.47,0.08,0.0,120931601,117601000,3015000,135286360,25
234093401,3358979,132921805,684002,135867259,679788,1340519,8822123,452347685,60991,239035972,15392,11325,729372207,3037,3.8,1.5,1.45,0.08,0.0,122300696,115904000,5995000,136522124,25
238157479,3932725,129408877,685250,133110536,676893,1409310,9286693,460731700,66857,250753095,32558,9997,759555606,3090,3.85,1.53,1.48,0.08,0.0,124501993,118234000,6011000,138706970,25
300497966,3836500,152474314,736851,155302168,726852,2222401,10075409,575123245,161091,307925830,24615,13689,927546919,4040,4.76,1.91,1.86,0.11,0.0,155514921,144204000,11015000,169775025,25
240064036,3215000,137683969,674725,139638464,664037,1285576,9534809,443022594,70984,232655530,20404,16443,744736476,3036,3.84,1.51,1.45,0.08,0.0,119939257,109690000,9971000,134176062,25
441463312,3835696,252387427,1212036,252476594,1231092,1268002,9528393,666907256,56327,448655326,20990,13798,1312429946,2807,5.84,2.33,2.24,0.11,0.0,180541856,178222000,2002000,194736617,25
238628520,3205941,138243802,813527,140217284,796581,1164258,9221513,446747466,66473,232583221,13184,12016,743761252,2837,3.7,1.5,1.46,0.08,0.0,120808000,113434000,7026000,134904264,25
236280345,3772154,136764394,669088,139063195,664297,1295127,9902335,442366820,76943,230467806,18534,10985,733207239,3127,3.72,1.46,1.41,0.08,0.0,120480725,115144000,5006000,134760548,25
443083703,4205692,251110915,1208108,251559323,1203479,1408115,10768561,670400107,74521,452503770,28121,13903,1329274988,3123,5.69,2.32,2.26,0.11,0.0,181717217,172455000,8971000,195997474,25
271241852,3045981,148174113,695865,141005792,703821,1700016,10512917,481046840,69651,263361030,19681,13512,851163040,3038,4.09,1.63,1.58,0.08,0.0,130315413,124955000,4998000,144455940,25
341654472,3230931,172673178,736510,172519066,741270,1667717,10267772,597419322,82702,332948656,29712,9478,1034113250,3240,4.99,1.97,1.91,0.1,0.0,161611879,154133000,7006000,175708004,25
268497245,3330610,149729317,723796,148342335,719260,1890563,10710282,501425292,120956,253831292,13933,14597,829060632,2518,4.14,1.66,1.6,0.09,0.0,135484883,130063000,5002000,149807383,25
244030952,3050760,137090532,706700,140827324,693635,983246,8344506,456901570,55667,249921748,13559,13853,756692761,1975,3.87,1.55,1.5,0.08,0.0,123306078,121016000,2000000,137625492,25
306348183,4199693,170548734,743119,166218685,729201,2820176,12439750,599516368,77833,304578936,45669,33240,1003176280,8163,5.01,2.02,1.96,0.11,0.0,161935703,148514000,12957000,176292345,25
476190561,4126774,268723112,1215292,268927644,1191327,1460267,11855360,726722083,67039,479725613,21100,15443,1420406318,2656,6.3,2.55,2.48,0.12,0.0,196697897,187383000,9018000,210816138,25
236022458,3911405,128388216,751865,127438779,775257,2144584,9921065,467292607,120890,242195177,18221,10352,742004186,3313,3.88,1.56,1.52,0.09,0.0,126336481,118061000,8004000,140770748,25
510298658,4013937,283257970,1488863,277156737,1485001,2510016,13420909,800097452,142955,504941714,28542,23583,1519406023,2787,6.73,2.75,2.68,0.14,0.0,216423631,209979000,5999000,230635109,25
664959962,7247392,348848845,1662704,348852635,1613673,5101216,19999724,1252475161,506831,672595911,25392,21029,1976749427,4979,10.55,4.17,4.05,0.23,0.0,338901623,330622000,7990000,353277749,25
234820150,3287273,134404326,669038,137073629,658480,1274702,8710030,450261238,61671,235509252,17524,13957,728480365,2835,3.74,1.5,1.45,0.08,0.0,121875708,117548000,4018000,136051657,25
441608824,3981057,252556702,1096473,253896407,1086093,1386866,10138434,665598178,67357,447827827,22440,18604,1314246178,2878,5.62,2.31,2.25,0.11,0.0,180270402,173890000,5996000,194633238,25
258232094,4014938,145236925,739608,150436078,711115,1685513,10716586,513707908,125296,265288983,21217,17839,807052673,2721,4.33,1.71,1.67,0.09,0.0,139256356,134792000,4023000,153511444,25
261467503,3517832,145519989,715893,141091574,712059,2395589,11054330,496044124,150675,250335639,22427,12169,818046929,3835,4.2,1.65,1.61,0.09,0.0,134199397,122920000,10992000,148323832,25
264113628,3485519,139639652,721862,135815124,715151,1254570,10017376,474195106,53642,270671148,27340,14402,830944620,2063,3.96,1.61,1.56,0.08,0.0,128327382,124981000,2999000,142612852,25
466816743,3044568,262138868,1177828,255139093,1146800,1769862,10656716,694744010,66754,466055590,18024,20476,1397689681,3231,5.91,2.45,2.37,0.11,0.0,188165075,178837000,8991000,202170194,25
269015490,3329887,146491489,732197,140964889,744901,1982346,11235073,493161757,121645,262952425,11934,13701,842005198,2518,4.09,1.64,1.59,0.09,0.0,133282295,127996000,4999000,147501542,25
706628830,10836411,382141652,5905038,376773167,5934736,5173046,31219905,1727186106,796813,702143728,50706,33945,2180519054,5365,14.3,5.53,5.37,0.3,0.0,466105074,450743000,14991000,480448168,25
235881574,3733312,133300601,667184,136292067,663670,1294817,8808569,460460911,57841,245442177,16754,14554,740634467,2885,3.83,1.54,1.48,0.08,0.0,123630880,119202000,3973000,137918025,25
237928797,3193358,134028392,668308,135416059,660261,1318897,9584657,436145843,65201,226852711,15220,13140,735608284,2933,3.63,1.46,1.41,0.08,0.0,118106958,110899000,6993000,132190323,25
599966770,3812216,308156723,1306621,308661172,1299327,1691757,11345762,926086122,93810,599500096,25261,18179,1743177540,3319,7.94,3.21,3.11,0.15,0.0,250561115,240249000,10010000,264833257,25
235698341,3555852,134739190,692417,136896194,674889,1563170,8979161,461882900,59111,243222778,18476,15356,735795675,3518,3.84,1.54,1.51,0.08,0.0,124596047,116290000,8020000,138951206,25
314089097,5693970,184367469,875968,186591684,873515,3915712,14962301,682771958,232901,305037731,53897,31941,991501820,9298,5.63,2.23,2.16,0.14,0.0,183989300,164735000,18969000,198312878,25
458855904,3094806,269641340,1191103,264335996,1191630,1668575,11383849,693423083,82544,440536035,31377,19896,1357067665,3514,5.99,2.36,2.29,0.12,0.0,190940507,187610000,3009000,205293027,25
468846394,3595692,265093690,1178741,266066153,1168372,1645261,10894288,716278567,85072,473278228,19396,15311,1391276715,3231,6.0,2.51,2.44,0.12,0.0,193946731,185554000,7980000,208203635,25
154498238,3105557,122103627,613592,121798678,618358,1403377,9541443,330642407,57126,146991508,12484,6512,550241178,2639,2.85,1.1,1.06,0.06,0.0,88739008,83319000,5019000,102985870,25
445927654,3463887,251111707,1088891,249844892,1077441,1509361,9652545,676636636,63043,457615615,23124,11636,1341593495,2831,5.72,2.34,2.28,0.11,0.0,182520836,177062000,5001000,196707517,25
588617661,4868801,338919018,1195598,332910339,1181405,3966085,14313832,994058606,121864,582553859,74378,54181,1824204461,14061,8.47,3.38,3.28,0.17,0.0,268758305,242509000,25947000,283039721,25
481115993,2929194,268722581,1145879,262207362,1161039,1284298,10650060,705510433,54075,474347909,20155,19902,1427659790,1873,5.96,2.44,2.38,0.11,0.0,187571109,186349000,1001000,201961939,25
233127069,3269027,132135152,674509,134201937,663175,1351643,8922298,447978241,65402,232502342,15356,12030,724558412,2931,3.71,1.5,1.46,0.08,0.0,121025719,117493000,2987000,135358823,25
573373349,3561824,304173911,1253514,304766163,1253866,1562224,11432148,866908786,101836,566462964,32095,28767,1682950625,3333,7.46,3.01,2.93,0.14,0.0,233910577,230629000,2995000,248191523,25
457681617,3866381,263544661,1219476,264709365,1217698,2139893,11806368,718705961,199651,451689856,24145,23610,1351348736,3831,6.02,2.49,2.42,0.12,0.0,194770001,184403000,9967000,209136077,25
239979520,3786097,136468693,772584,138818742,791476,1456701,8595473,464736105,54734,246507039,18189,13916,754931963,3401,3.9,1.54,1.5,0.08,0.0,125656377,116331000,9025000,139887292,25
685507749,14071722,357650288,5724686,353100545,5719039,7845944,36578806,1780436962,1143762,691558519,37308,27668,2106477116,5254,14.82,5.76,5.59,0.33,0.0,481710212,463485000,17980000,495966438,25
277304916,4439945,156200824,724688,160468228,747407,2366204,10969930,562799248,161996,272559705,27897,27169,851888267,5267,4.68,1.89,1.84,0.11,0.0,151856518,136462000,15051000,166034442,25
454299851,3170329,255330366,1108057,249946699,1079618,1598591,10138514,668449915,66802,457342206,27064,12172,1363063443,2830,5.76,2.3,2.24,0.11,0.0,184246221,180025000,3978000,198689695,25
269959782,4284511,144806025,762918,142214769,757658,2715912,12723110,542242632,161328,273216103,38379,23975,863734542,5000,4.53,1.8,1.75,0.1,0.0,147287516,137997000,8999000,161579435,25
263190333,3275781,145502043,725124,143910694,715298,1843306,10347753,502813089,126953,248214960,12907,15769,804237947,2520,4.14,1.67,1.63,0.09,0.0,135964793,130689000,4988000,150248523,25
669988901,5299193,371422481,1354780,367477881,1408938,2942477,19166427,1168043029,190616,659033463,41341,32907,2022389169,4544,9.98,3.98,3.86,0.19,0.0,315351535,306032000,9000000,329607682,25
263899428,3040716,138450051,721888,136986954,699514,1056578,8536860,474058065,46423,274390728,20426,11862,832713477,1881,3.97,1.6,1.56,0.08,0.0,128048523,120765000,6986000,142320218,25
334815617,3738846,195099195,799306,198184255,797928,1828754,10921172,672798202,138385,337909027,22418,34079,1111840829,2996,5.6,2.24,2.17,0.12,0.0,182449912,174121000,8005000,196833403,25
239651428,4445999,138655317,1279956,142631051,1266253,2720476,11504971,534693184,179254,246910771,27081,275340,757702183,4613,4.41,1.75,1.69,0.1,0.0,142635274,131341000,10945000,156876362,25
1238579721,9922893,682631627,11473175,681631448,11426329,2620139,29854016,2780939153,386415,1239844064,33600,37241,3878091328,4445,23.14,9.08,8.81,0.42,0.0,751011275,741712000,8996000,765460577,25
491201596,16992311,224323829,2558911,227177401,2580162,2537897,44145992,1023171534,267263,499085853,22281,24501,1606574023,2431,8.22,3.3,3.21,0.17,0.0,278062740,271770000,5994000,292226361,25
416239952,1997400,236065006,891231,232211242,887091,913234,7439568,585521971,33248,415863102,23429,9843,1227107162,1860,5.03,2.06,2.0,0.09,0.0,157872868,152473000,4982000,172142742,26
420707774,2032543,242499586,999648,238874141,974065,1054731,8022430,597992272,35940,412108205,25914,184280,1233574726,2728,5.09,2.1,2.04,0.09,0.0,161325017,152032000,9001000,175460328,26
452510848,2141004,254502478,1057856,249438562,1013763,1097981,8487420,648937867,46837,443269564,23839,10189,1329889515,2819,5.53,2.28,2.22,0.1,0.0,174969439,167685000,6986000,189265852,26
224212525,1891460,123551880,512563,123475850,493143,758256,6475883,392701515,30134,224134351,9488,10951,694980653,1954,3.36,1.34,1.3,0.06,0.0,105991760,101709000,3988000,120315552,26
224727382,2875759,128739493,534326,131521812,538371,1742803,8063733,449485051,77358,229028046,34412,10250,708359594,4606,3.86,1.4,1.37,0.08,0.0,125273610,111969000,12996000,139425048,26
209442849,1982548,116196551,475580,115208919,479123,756594,6047107,366859274,31958,208322756,16329,4983,649865799,1954,3.05,1.24,1.21,0.06,0.0,99296151,97024000,2000000,113520134,26
408572546,2237757,232437349,887026,231621340,894572,782496,7446626,577792302,44527,414620855,41508,8756,1210791350,1874,4.98,2.07,2.0,0.09,0.0,156036169,150809000,4960000,170327377,26
423690046,3542885,238101877,1064768,235048342,1046147,1535893,10436652,641315989,77974,426102986,24865,7649,1256900467,2884,5.42,2.25,2.19,0.11,0.0,172637372,166218000,5971000,186973723,26
204088781,2342005,114084307,513307,112684485,515378,1175984,7119775,377498373,65620,207567035,23763,7566,644816544,2626,3.18,1.29,1.24,0.07,0.0,101959779,93693000,7973000,116237249,26
199673546,1664406,109858627,477282,109048637,481746,562198,5219283,351436553,27936,198582066,15071,13159,621217138,2073,2.92,1.18,1.15,0.06,0.0,95229012,89931000,4996000,109484512,26
208570038,2409738,115365612,522477,113558365,519049,1371700,7648880,377225870,70418,208854408,12056,7187,649556052,2468,3.18,1.27,1.23,0.07,0.0,102696664,96353000,6022000,116882968,26
212518170,2240514,119342826,530467,117365264,515366,1348032,7111300,391195559,61774,208033843,25008,9802,659532186,2653,3.38,1.31,1.26,0.07,0.0,106068704,95813000,9980000,120215956,26
40680550,511410,24675384,109022,22160569,123719,230637,1633219,73421648,6628,36527987,5933,2137,141743088,1132,0.64,0.24,0.24,0.01,0.0,20217674,16945000,2990000,34349310,26
212980888,2201441,119979834,523261,117909677,509026,1255694,7121627,388446327,61069,207246304,40990,6475,658458531,2654,3.43,1.31,1.27,0.07,0.0,105461084,97145000,8012000,119652194,26
324526437,3786645,177493758,681062,179996102,672110,2293057,11903484,706333978,225102,331372807,34047,16151,1014930665,3041,5.8,2.27,2.21,0.13,0.0,190785489,182538000,7979000,205011409,26
228716003,2718988,124508714,660038,121323386,649123,1555364,9524567,425174776,79297,225192296,13858,14327,708450000,2463,3.58,1.43,1.39,0.08,0.0,115336753,109045000,6002000,129606200,26
213229283,2232437,119469508,528052,117048094,515626,1359489,7207957,386979480,61087,208471062,14982,11481,658332435,2557,3.34,1.29,1.26,0.07,0.0,104977349,98689000,5981000,119021442,26
211081044,2170297,117730779,516885,115718221,504501,1276600,6849393,388093079,65661,210294285,16160,13821,659993639,2470,3.26,1.3,1.26,0.07,0.0,105299637,101992000,2970000,119557498,26
450339511,2049462,254255411,925335,251197840,905644,888511,7755843,642934618,35685,445946243,28666,10176,1323190232,2595,5.43,2.24,2.19,0.1,0.0,173534481,168187000,5005000,187600900,26
203386002,1893210,113795402,482490,113122812,493110,717445,5838950,357728248,29251,202438904,14386,5541,635789086,1858,3.0,1.21,1.17,0.06,0.0,97472348,93087000,4003000,111568885,26
200614803,2048246,113931362,487238,113846315,496376,773733,6243829,361292478,27214,202826267,12397,9896,632191812,2045,3.04,1.21,1.17,0.06,0.0,97366829,94057000,3001000,111562582,26
209384651,1922310,116328107,477949,115164521,478720,817345,6005042,369126309,30350,208589637,27665,15810,650918105,1855,3.1,1.23,1.19,0.06,0.0,99685872,94397000,4968000,113743022,26
408051075,2223575,232331754,897619,230561982,901048,903625,7510720,576944727,33798,411994493,28174,11167,1207340154,2042,5.09,2.01,1.95,0.09,0.0,156175111,152897000,2997000,170432843,26
419723826,1776695,238088206,1170051,234287203,1143928,934162,7258997,591212293,36080,411135768,21261,12637,1227691862,1935,5.13,2.09,2.03,0.09,0.0,159753468,156341000,3006000,174265758,26
225077059,2877312,123440062,622936,123137576,523340,776531,6969551,404903404,32140,223199305,15705,17730,700971225,1946,3.37,1.37,1.32,0.07,0.0,109208644,105811000,2994000,123467316,26
410221722,2206301,233641122,896672,230922276,889941,887935,7528432,578887568,51598,413390593,18725,12034,1212137265,1951,4.92,2.03,1.98,0.09,0.0,156224482,152879000,2997000,170553504,26
140022612,932290,73731004,115451,73238485,116207,314485,2415580,199722151,7973,147226226,5693,3448,434227399,1618,1.64,0.65,0.63,0.03,0.0,54485352,51186000,3010000,68689851,26
201423955,2103495,113764916,490862,113359772,501412,919202,6310745,359664364,29828,203221773,21330,5638,635822942,1895,2.99,1.21,1.18,0.06,0.0,97031882,91576000,4976000,111337883,26
201205310,2043582,114256385,490517,113899184,499880,781992,6248642,358958085,29209,202294401,13803,16165,634468608,2062,3.04,1.22,1.18,0.06,0.0,96587311,93293000,3009000,110776935,26
518217976,3771778,291746792,1074139,291316626,1069467,2536610,13189251,907226300,233545,523226773,24058,27888,1547300026,3119,7.62,3.03,2.95,0.16,0.0,245221852,239993000,4999000,259456194,26
17032957,588049,12087413,138016,11517801,70389,229393,1188377,40281043,3309,18758537,3781,1266,70841088,1136,0.36,0.15,0.13,0.01,0.0,10798726,5769000,4808000,25020522,26
138446768,2470273,105451715,515781,103612506,502999,1390186,7756366,272301866,57035,137806146,9141,5867,498964468,2464,2.28,0.92,0.89,0.05,0.0,74230527,66871000,6986000,88552154,26
201191424,2072817,113596078,480773,113447923,490716,748544,6305334,360995848,26870,202842910,9859,6143,631709285,1900,3.03,1.21,1.17,0.06,0.0,97479826,95095000,2002000,111720417,26
221636391,2677629,124342235,588047,123301754,592100,1285754,7898156,413090139,44213,219546461,17261,10393,690211029,2474,3.46,1.36,1.32,0.07,0.0,110767770,105298000,5014000,124944488,26
203589125,2039827,113293136,475288,112223292,478607,783219,6420339,353501367,28646,204336023,12946,6494,636607159,1950,3.02,1.12,1.08,0.06,0.0,99720662,93455000,5965000,113909328,26
183983427,2892949,118511817,241929,118806758,235878,2574644,8442667,423575042,242890,185540042,34036,8444,627400753,4042,3.45,1.32,1.28,0.09,0.0,114821750,105488000,9041000,129268892,26
206846837,2323812,114476598,515527,113210567,506382,1288157,7360818,383231582,68668,209170752,11034,6859,649910342,2274,3.23,1.27,1.22,0.07,0.0,103339937,98055000,5002000,117598411,26
416137717,2551322,240286919,1049696,240197169,1044766,1466135,8280149,632896226,81989,415619472,33284,10088,1228867750,3392,5.47,2.23,2.16,0.11,0.0,170511609,164267000,6009000,184424062,26
246475884,3640006,138223406,725129,136815701,716372,2051826,10437769,502444089,159421,244401266,19810,25096,758345221,3893,4.32,1.67,1.61,0.09,0.0,136179397,128788000,6988000,150635416,26
557727990,3618060,310283339,1202586,306744127,1204147,1038050,8304230,845067244,42746,559846872,27245,8852,1657847500,3008,7.25,2.93,2.84,0.13,0.0,228190553,222967000,4976000,242497760,26
209442210,1898704,115717869,482572,114013422,478858,812225,6093786,367738382,28577,208493038,22601,18670,650886903,1904,3.18,1.2,1.17,0.06,0.0,100832647,98535000,1990000,115151864,26
434612822,3163114,245798877,1251092,242745475,1243902,2053810,10423552,681525358,164604,429437934,24428,8893,1287632887,3452,5.73,2.32,2.26,0.12,0.0,184314462,177034000,7001000,198578698,26
212026146,2265217,117834636,530620,116482851,513972,1272578,6927137,392492822,61892,209411953,16320,10535,663763031,2662,3.27,1.29,1.24,0.07,0.0,106907697,99639000,6974000,121288376,26
231637694,3170380,125834045,790191,123977719,760403,1652540,9268153,449887977,68995,231125655,18682,17416,716806886,3143,3.72,1.47,1.42,0.08,0.0,121890699,112624000,8970000,136105675,26
210170324,1923538,116415373,481585,114615107,479857,800410,6132505,369103744,30747,208629829,20083,8878,649345338,1955,3.08,1.2,1.17,0.06,0.0,100726286,95470000,4972000,115055127,26
207581782,2223781,115321661,525725,113326679,512451,1415639,7274195,382557154,66500,206876404,17863,21189,650326932,2807,3.31,1.29,1.25,0.07,0.0,103872580,99427000,4017000,118150308,26
519885464,3766621,291309472,1065089,290673398,1061658,2516106,13394985,903925874,245236,524825154,29169,16284,1558528592,3036,7.49,3.06,2.97,0.16,0.0,245477640,234077000,11003000,259748054,26
211985733,3103911,119162054,589219,118904111,529249,1294160,7451271,402345514,72051,206762791,14209,11758,661606126,2464,3.34,1.34,1.3,0.07,0.0,108236007,105911000,2017000,122580647,26
416259495,2443148,237005749,1071768,234720155,1050006,1435441,8852918,603961563,75821,410715822,19384,12305,1230229279,2657,5.18,2.13,2.08,0.1,0.0,162933082,157658000,4989000,177146106,26
415796533,2109222,234778458,1014824,231596797,1004403,1102641,8113099,586403462,41588,413691624,14614,7750,1223292072,1953,5.14,2.08,2.02,0.09,0.0,158681990,154365000,3983000,172989894,26
208072830,1956483,115214845,488234,114473325,494483,895796,6240424,375051692,29986,208881471,19906,7491,652427299,1916,3.11,1.26,1.22,0.06,0.0,100255607,96982000,2999000,114391152,26
213203137,2225341,120083081,533702,118492794,517556,1261621,6993994,390609853,62287,206292268,36037,6918,655410172,2654,3.31,1.31,1.27,0.07,0.0,106125508,100863000,4993000,120425537,26
420876958,1906433,238241771,908205,234155764,888909,1017746,7499606,582927589,35332,411517581,20821,8113,1223988068,1858,5.03,2.07,2.01,0.09,0.0,158650364,154341000,4008000,173025201,26
425837588,1886116,240608698,923188,237929061,902898,800453,7009437,603235429,54981,417448538,17579,6939,1246479290,1886,5.26,2.12,2.06,0.09,0.0,162642333,156365000,6014000,176793414,26
226889609,3178382,125939916,639339,124394518,620584,2010593,9516753,448941005,152409,220869588,22138,13605,706132495,3516,3.9,1.47,1.42,0.09,0.0,120640031,114363000,5966000,134763860,26
201859249,1916136,113563926,485426,113234402,494307,774317,5824583,360735846,28067,202884077,12171,4236,633851470,1803,3.03,1.19,1.16,0.06,0.0,97044972,87767000,8976000,111166021,26
212586193,2282215,118014021,528728,116240423,513622,1361708,7202771,393335170,66565,211322370,17382,10375,662642201,2862,3.24,1.3,1.26,0.07,0.0,106071873,94816000,10978000,120168387,26
211091651,2263307,117665825,519422,115455693,509880,1370609,7263200,388810171,63645,211387424,21612,6976,660005547,2658,3.27,1.3,1.26,0.07,0.0,104906135,99564000,5028000,119425731,26
406763611,2198072,232039232,883603,231501693,889272,803872,7345115,574103595,33188,411281346,19577,33269,1203048724,2050,5.01,2.01,1.96,0.09,0.0,155839188,153474000,2006000,169947687,26
420422220,2022753,241212300,936703,237974494,914513,1068889,7917073,597383644,42555,411308890,36007,52781,1232889400,2444,5.17,2.1,2.04,0.09,0.0,161744844,155366000,6014000,175862033,26
219281477,1920992,123136052,502804,121913256,486618,1118306,6533552,393342499,29218,213387603,17735,14082,679665291,2455,3.24,1.3,1.26,0.07,0.0,106212449,97839000,7986000,120451210,26
210689539,2147338,118196326,526908,115962699,512711,1217563,7003126,387662415,62539,207544867,13754,11584,658069876,2270,3.2,1.27,1.24,0.07,0.0,105434781,102140000,3004000,119538755,26
213776617,2324019,121900456,540970,119832483,527394,1372962,7266186,397223204,65116,205240199,23571,8936,663443354,2910,3.32,1.32,1.28,0.07,0.0,107449490,99155000,8012000,121734049,26
415879228,1992247,235647082,889498,231938842,882462,866036,7150745,582941347,34902,415823890,26754,6887,1224673961,1854,5.02,2.05,1.98,0.09,0.0,157584864,152296000,4977000,171880069,26
414255325,2366048,236640720,1042467,234582795,1022462,1305622,8475881,603388221,71612,407465988,17473,7825,1220431996,2476,5.17,2.13,2.06,0.1,0.0,163036021,157759000,4992000,177310038,26
908971092,11604267,505979615,6610034,505398244,6581537,9600542,34584476,2107278042,1215259,907472562,46309,30385,2730234761,6970,17.67,6.9,6.68,0.39,0.0,568981286,556706000,12015000,583058477,26
194894943,2154462,128266835,510995,126444019,508553,802475,6736412,369246312,31405,194602233,15997,8725,695413408,1936,3.12,1.25,1.21,0.06,0.0,99622863,96306000,3009000,113726585,26
220737960,1970371,120701674,511237,119586061,495912,851406,7017402,390335809,26154,220067529,12158,9028,692153975,2065,3.27,1.32,1.28,0.06,0.0,105395960,99109000,6006000,119706292,26
75418498,705292,38971467,172998,41337288,156784,417525,1868010,135535345,9791,75943508,18682,9689,207196180,2947,1.14,0.45,0.44,0.02,0.0,37671541,33338000,4040000,51857830,26
237281342,4482231,132594454,829849,131397447,815022,2563487,12126604,502750741,182778,231936492,25438,9209,735514481,4044,4.15,1.63,1.58,0.1,0.0,135386108,127054000,8003000,149528899,26
231772052,3520011,130359269,743333,131257116,736496,1474166,9793888,445503802,71324,227131434,14568,12564,718571697,3002,3.74,1.49,1.44,0.08,0.0,119414139,112011000,7000000,133929471,26
419496251,1862138,237870041,898571,234151536,883255,856800,7280360,587625112,42900,411622433,16165,16622,1224828472,1856,5.11,2.06,2.01,0.09,0.0,158810919,155553000,2991000,172962174,26
410144600,2167183,234506756,931795,231942772,939033,1446028,8538455,597554862,54702,411341640,17538,8579,1216246161,2078,5.23,2.05,1.99,0.09,0.0,158541731,155150000,3002000,173014627,26
212658113,2211697,118401290,531888,116065254,520842,1341676,7271298,385026718,63296,208477613,15584,5985,658794849,2480,3.24,1.29,1.25,0.07,0.0,104439523,99135000,5006000,118913614,26
519239208,3785247,292089520,1062099,291248880,1063573,2808261,13414813,908680926,236086,524530850,27355,18760,1554933628,2935,7.92,3.06,2.97,0.16,0.0,244391257,233706000,9987000,258619089,26
208878455,2320444,116504355,529778,114018608,515644,1405002,7510627,387902002,62873,207268372,21209,10683,655441582,2665,3.21,1.28,1.25,0.07,0.0,104606062,98307000,6018000,118762257,26
345953465,2693201,231419296,1058662,232103347,1047734,1049251,7990622,502052371,68285,340309532,25630,8265,1069464620,2273,4.39,1.77,1.72,0.08,0.0,135985238,132753000,2994000,150198867,26
389217273,2400498,223298512,1069761,221884113,1061847,1254166,7718661,576786863,70355,389575150,27642,6457,1155654532,2644,4.93,1.99,1.94,0.1,0.0,155850261,149595000,6023000,170107086,26
225526430,3042504,123227299,660833,122238056,646596,1364054,8643409,428219331,52738,224668602,14161,10384,699609754,2777,3.6,1.42,1.37,0.08,0.0,116369729,113938000,1998000,130708106,26
147556686,3107014,124603661,524055,124308442,507800,2626537,9219987,336430253,73738,148362580,41204,18177,550092237,8082,2.84,1.13,1.09,0.07,0.0,91567130,81226000,10027000,105766249,26
407583839,2017336,216464399,1070356,210169993,1072950,1369929,7256357,693227137,43231,402069433,30586,19863,1287721424,2828,5.81,2.33,2.26,0.11,0.0,187462333,181175000,6005000,201477329,27
401185284,1833701,229671287,1390591,227453423,1365984,1212812,7025646,705056936,49198,386351314,25440,13277,1239576024,2341,5.79,2.38,2.32,0.11,0.0,190317211,185877000,4018000,204585115,27
394921807,2035908,205116862,1089029,201708534,1093782,1134457,6611291,678969151,50615,402414992,33526,16536,1244304882,2266,5.51,2.26,2.18,0.11,0.0,184392023,180041000,4000000,198685283,27
766737891,1957554,428770652,1942448,422757259,1913165,1437310,8446187,1059384705,51552,754871607,34545,18966,2273839099,2821,9.05,3.72,3.62,0.16,0.0,286861014,278499000,8014000,301045679,27
448755858,1822881,232293103,1161423,230025866,1156269,1118389,7227479,755666328,70331,439154094,14276,20953,1382098676,2244,6.15,2.54,2.48,0.12,0.0,204200710,196924000,6997000,218352052,27
442900879,1841323,251196180,1415849,251255073,1407336,803432,6575537,762462477,32614,440445863,31623,13400,1356624031,2024,6.54,2.58,2.51,0.11,0.0,206300281,199937000,5998000,220278757,27
503842210,3067887,254837956,1756535,256408784,1757392,1118868,8951384,884269052,50130,514169369,15971,9708,1566174078,2288,7.23,2.99,2.91,0.14,0.0,239365211,233920000,4998000,253472211,27
422194568,1851441,222164275,1066509,216876842,1072115,1142085,6971147,699986312,50020,410693474,23433,12590,1309323893,2246,5.8,2.38,2.31,0.11,0.0,189667374,182369000,6975000,203746872,27
384529972,1997053,207132217,1078953,208794976,1074754,996729,6262606,666813359,43525,388894795,28126,11091,1191562910,2288,5.57,2.25,2.19,0.11,0.0,180305897,173957000,5998000,194405347,27
801106132,2836807,447883357,1912854,446746302,1895492,1656040,9459639,1145907532,66944,797613510,66739,17305,2374847863,3428,9.71,4.04,3.91,0.18,0.0,309965543,304674000,4994000,324111716,27
397376881,2069187,206830905,1086765,207164335,1082336,1055674,6390252,676451242,42715,406035889,36212,12910,1248439896,2242,5.64,2.27,2.19,0.11,0.0,183963025,179609000,3991000,198265910,27
1422024602,3892891,728492287,2322905,725841640,2320826,4006397,16434361,2504562971,382349,1409250089,65817,37436,4268168639,4908,20.99,8.33,8.09,0.39,0.0,675344536,661095000,14002000,689445404,27
398204238,2074635,208887390,1085643,206040244,1084678,1239431,6785170,685047822,47275,406130317,20580,13982,1259273176,2629,5.78,2.29,2.23,0.11,0.0,184509263,176042000,8001000,198573628,27
771529121,1908631,433095489,1774629,428430708,1784250,1113900,8388682,1068820059,61191,764398617,26205,21151,2281645215,2261,8.83,3.77,3.66,0.16,0.0,288493280,284161000,4002000,302803510,27
738461310,6512305,398950282,2603166,396855884,2595396,1806452,9608565,1305074222,78816,741095862,50569,21152,2217131940,3995,10.45,4.35,4.23,0.2,0.0,353146485,345770000,6995000,367277302,27
564054578,4402289,298802707,1158529,300499673,1166696,4419004,11744672,1091633665,89646,567870642,95400,32218,1777907066,17090,9.02,3.59,3.48,0.19,0.0,294205733,273813000,20059000,308341457,27
396466415,2100542,207785315,1087089,206519006,1084584,1132594,6540318,678923172,45245,406203936,19974,14951,1253069268,2631,5.82,2.3,2.22,0.11,0.0,184035840,178764000,4993000,198231168,27
391052074,2076645,208383036,1071644,210814536,1066851,1048940,6549720,673933258,50331,396620673,21525,17101,1215638052,2243,5.58,2.26,2.19,0.11,0.0,180387509,175941000,3998000,194703486,27
470213823,1967437,251600076,1070342,252466412,1061876,1012307,6990533,821540005,58754,466989262,18316,12798,1464292066,2242,6.67,2.76,2.68,0.13,0.0,221628613,220347000,1001000,235818816,27
350119330,1987886,184394205,1426168,182169237,1421790,804083,6145322,577502930,32226,357294277,18714,18864,1056929446,2024,4.76,1.97,1.91,0.09,0.0,155897140,153574000,2007000,170276029,27
979892987,3786025,485164080,1474964,481097628,1485058,3939657,14779220,1973478456,387715,972888027,44888,26242,3043426779,4211,16.06,6.45,6.26,0.31,0.0,532080571,525764000,6008000,546316534,27
482848874,1835414,244879214,1590126,241609363,1579389,1147031,7518201,803603884,58207,470712620,23800,12941,1511125713,2244,6.77,2.72,2.64,0.12,0.0,217466423,214163000,3002000,231704118,27
390530755,1687389,208778237,1053928,211495663,1028088,692812,6056716,658564644,34435,390668716,16786,16332,1208295229,1829,5.43,2.25,2.18,0.1,0.0,177900326,174643000,2993000,192101394,27
417919380,1927321,220206485,1056683,216596422,1062933,1186554,7106047,704004610,46089,406689969,15539,510178,1295181322,2245,5.89,2.39,2.32,0.11,0.0,190744106,188426000,2004000,204778099,27
779013853,2020782,432435708,1817851,430785304,1809437,1093898,7799151,1080674800,62698,769145536,32803,20443,2278810356,2239,9.4,3.82,3.72,0.16,0.0,291636589,285306000,6006000,305684333,27
405131746,2022162,213355676,1082808,209003913,1077418,1344894,6896397,690209251,45677,406659274,21708,15006,1280846082,2832,5.66,2.32,2.26,0.11,0.0,186334143,176040000,10002000,200620836,27
410618089,1853425,220898443,1069425,219977248,1055584,1061739,6812564,708347456,46925,400952886,22401,12961,1272383279,2290,5.93,2.4,2.33,0.11,0.0,191065165,186769000,4016000,205217699,27
776625775,2142381,430940149,1947533,430481900,1933287,1150499,7820096,1089606616,68165,772899863,34321,22132,2277920868,2240,9.57,3.86,3.74,0.16,0.0,294424656,289146000,5002000,308815948,27
386543666,1918900,203972544,1056443,197427160,1076309,1247350,7019155,640189728,41884,380779224,23171,9647,1216358666,2245,5.28,2.2,2.13,0.1,0.0,173390197,169158000,4003000,187787314,27
775031880,2158618,435712028,1769497,434404272,1757748,1231231,8065865,1081471800,56325,766369285,33224,13151,2273076534,2237,9.29,3.82,3.71,0.17,0.0,292366647,286941000,4998000,306511945,27
418217424,1710712,218777393,1122654,214845528,1129635,846168,6670354,686710102,34242,415573383,15633,18102,1314843557,1829,5.66,2.33,2.26,0.1,0.0,185748684,181438000,3987000,199902517,27
406739431,2105244,223023079,1470172,222073133,1447796,1276752,6777390,714163507,47110,396384043,27192,246403,1256035104,2874,5.92,2.41,2.34,0.11,0.0,193663626,182287000,10957000,207700482,27
382606952,1945447,204909852,1077412,205731527,1075864,948298,6243436,660363682,42249,384915231,16458,13501,1180563504,2248,5.64,2.23,2.17,0.1,0.0,179037921,172724000,6025000,193328830,27
402706989,2017699,210299531,1072341,205292745,1086128,1188665,6833251,686582903,48027,409949794,15726,17530,1276948023,2339,5.6,2.3,2.24,0.11,0.0,185826115,184527000,1002000,199957043,27
361971925,1665193,230627688,1056484,232206450,1036031,664748,5814308,660518563,28126,362054286,16114,10362,1280177306,1876,5.58,2.26,2.19,0.1,0.0,178393410,169079000,9004000,192590520,27
423571153,3017898,218358233,1182078,220478072,1182512,1147535,8493698,727542750,58839,430712189,18758,14087,1310329188,2497,6.05,2.44,2.37,0.11,0.0,196982868,189706000,6989000,211156761,27
392028499,1792248,208558360,1055453,210299010,1033847,672744,5689144,666051132,26494,398452596,17332,17762,1226282158,1834,5.65,2.27,2.21,0.1,0.0,179660739,178367000,1002000,193865801,27
765059010,2082354,425748605,1708912,421030678,1690971,1472359,8637411,1057006390,55276,754734131,29378,21418,2265674971,2873,9.02,3.73,3.63,0.16,0.0,285693292,280451000,5008000,299737486,27
731072947,1991181,424210077,1890005,417640264,1911054,1262148,8415408,1012730500,55226,720510021,44813,57951,2169928755,2235,8.84,3.62,3.52,0.15,0.0,273701342,268436000,4989000,287813845,27
407482674,1942482,213816585,1081575,208983301,1077276,1239814,6727100,688654993,43082,409021250,22199,11577,1281670282,2341,5.68,2.33,2.26,0.11,0.0,186727007,182264000,4005000,201059840,27
768960622,2082389,428453597,1829901,421230190,1825212,1341049,8732513,1061425419,52809,762282266,34389,137724,2299213726,2432,9.18,3.72,3.61,0.16,0.0,287329959,282040000,5000000,301499612,27
389767597,1794315,210416459,1062465,209024585,1054044,1084043,6825840,651044623,44858,379411788,15620,12874,1213929357,2242,5.39,2.19,2.13,0.1,0.0,175998787,170714000,4991000,190204919,27
824512329,2313792,457592170,1719983,458463500,1712932,1201177,8549003,1195187616,64663,832539679,31397,17839,2471028695,2236,10.22,4.21,4.09,0.18,0.0,322919043,315539000,6989000,337076734,27
433085040,2037123,220672972,1086167,215118026,1095908,1240773,6821400,738939618,46419,437176567,25846,16528,1358777089,2441,6.04,2.51,2.44,0.12,0.0,199890154,194624000,4990000,214126511,27
760786257,1961388,426509750,1842908,424123964,1847093,1276615,8673670,1069936439,59867,748685971,31198,18303,2242582791,2283,8.81,3.75,3.64,0.16,0.0,288664357,283181000,5003000,302874747,27
398268587,1920754,226938559,1363065,224101503,1373013,1261945,7129622,704420204,45925,386020606,29029,19406,1246516120,2437,5.88,2.4,2.33,0.11,0.0,190262791,184977000,4999000,204607118,27
399663649,1864680,206317226,1144479,208077284,1120925,747183,5898423,673257911,32861,406313907,19605,11246,1249523811,1828,5.51,2.29,2.22,0.1,0.0,181782543,176438000,5012000,196100982,27
417746742,1846853,217255420,1057380,212124413,1066638,1251383,6954190,697078877,44077,411581048,21107,18256,1302843451,2243,5.69,2.35,2.28,0.11,0.0,188767398,183478000,4985000,202831137,27
1005101777,5652279,571894051,2998775,572312671,3000999,4659321,17833373,1720531106,447155,996911898,73210,30386,3033045181,7401,14.33,5.87,5.71,0.29,0.0,463563027,449207000,14006000,477723875,27
398728752,2077372,209329991,1088937,205614055,1090845,1175252,6706917,683684140,45344,406200793,18701,15707,1262788853,2631,5.91,2.3,2.23,0.11,0.0,184408664,181075000,3001000,198641739,27
763626261,1980359,429994347,1814110,425380418,1816157,1219645,8458452,1070254186,63435,757079852,50322,36190,2266395124,2432,8.76,3.74,3.63,0.16,0.0,289022068,279745000,8991000,303631781,27
421541639,1899908,223605722,1073580,222307090,1069787,1080823,6580388,711702958,53648,410690272,23720,8330,1292790483,2245,6.1,2.42,2.35,0.11,0.0,192413264,186179000,5973000,206791147,27
362963779,1651910,196833796,1032709,199136285,1006132,749362,6150564,606671826,27545,358543859,15963,16313,1133099930,1829,5.14,2.07,2.01,0.09,0.0,163511489,158174000,5005000,177646536,27
768231509,1950564,429601501,1973101,421897427,1965752,1330863,8515989,1068760089,56229,759701466,34571,17400,2291630828,2238,8.98,3.77,3.66,0.16,0.0,287612826,278162000,9005000,301862730,27
383771716,1807420,203270038,1058554,203801904,1053512,653539,5619122,649083638,28496,390873918,19500,8161,1197096121,1827,5.5,2.13,2.07,0.1,0.0,179184673,174973000,3999000,193237876,27
743226093,1887070,415035185,1662419,417834272,1647068,681827,7214888,1026951689,37376,748172085,42920,11642,2193531794,1820,8.83,3.64,3.54,0.15,0.0,277309316,272990000,3999000,291488188,27
797730738,2081433,450529722,1780449,445379355,1795331,1300303,8349847,1130561432,59172,787651506,34642,20600,2353200141,3019,9.67,3.96,3.86,0.17,0.0,306457839,301131000,5002000,320343266,27
767914093,2076234,428745308,1804114,421414404,1792397,1515658,8939712,1062735697,55116,761068395,51258,29424,2294321288,2238,9.15,3.76,3.65,0.16,0.0,287175440,278586000,7988000,301533228,27
409542148,2133006,222838995,1076021,218669214,1089580,1464395,7303520,708270038,53341,398428746,34478,17180,1290523336,3807,5.9,2.38,2.32,0.11,0.0,191332711,185981000,4999000,205505756,27
403212535,2093042,234379057,1314494,234068471,1312842,1266099,6546980,722131952,47278,397144128,30016,11892,1251325991,2828,6.04,2.42,2.36,0.11,0.0,194254656,187961000,5998000,208509415,27
389305766,2056347,208304592,1081195,208872367,1081972,1073272,6547744,667213563,44437,389734181,21350,32172,1191087814,2243,5.61,2.25,2.19,0.11,0.0,179950964,175669000,3992000,194236695,27
428153414,2075943,225249867,1102829,220622517,1106032,1275553,7330439,713023882,45918,414885969,22169,12980,1327894691,2243,6.07,2.41,2.33,0.11,0.0,191228583,179987000,10999000,205393913,27
765433997,1948053,440410979,2009884,443757018,1980691,761805,7697820,1086822604,59721,773199060,39863,24277,2281556987,1823,9.11,3.8,3.7,0.16,0.0,296094016,292824000,2998000,310232623,27
750898690,2211258,422287083,2244683,425879947,2234115,1198018,8135699,1094163874,61460,758504897,26003,16394,2222128930,2236,9.21,3.87,3.76,0.16,0.0,294486112,289191000,5003000,308685927,27
896212339,2209375,479769203,2245473,478487500,2242222,1327394,8955513,1310445369,73800,901441612,39095,22228,2666580435,2254,10.96,4.6,4.47,0.19,0.0,352504117,343175000,9004000,366793529,27
432290003,2127018,220071187,1089103,224635897,1066515,1282987,6956459,734363264,45912,442798315,21558,8931,1349103816,2244,6.2,2.52,2.45,0.12,0.0,197713684,189433000,8018000,211918796,27
441155033,2693621,236166222,1157528,238291999,1153102,1705740,7671749,778069423,60493,446306553,38948,17164,1377494580,4141,6.39,2.65,2.57,0.13,0.0,210566088,202170000,8006000,224872315,27
752376648,2025317,419351442,1690760,418528620,1675804,936887,7454476,1029564526,47067,751386190,34896,22014,2208818380,1821,8.86,3.69,3.59,0.15,0.0,278684556,277295000,1001000,292956186,27
412513981,1778263,212356279,1047568,209275524,1056398,807032,6291503,683769690,36732,413625816,15667,13262,1289178909,1830,5.77,2.33,2.27,0.1,0.0,184390602,177083000,7003000,198453933,27
455470657,1721608,233164119,1050940,227805691,1067631,956646,6744252,743216153,31565,450693676,19337,12662,1408929642,1837,6.17,2.58,2.5,0.11,0.0,201083218,197651000,2994000,215438871,27
403331254,2058634,211089724,1072295,205504555,1088362,1190549,6857447,684711519,44860,406470533,16710,20364,1274238731,2241,5.76,2.3,2.24,0.11,0.0,185571112,182249000,3004000,199678366,27
759355894,1929188,421796964,1667975,418595961,1663253,933043,7590188,1048534241,39128,761167106,29869,15976,2252820157,1823,8.92,3.76,3.65,0.16,0.0,282156673,274723000,6992000,296636772,27
390312595,1910777,208318584,1067628,208622424,1045765,1067435,6685477,662973248,47441,381862864,20795,16960,1212130028,2244,5.46,2.25,2.18,0.1,0.0,178955968,174645000,3991000,193202570,27
464948995,1886269,251618405,1093247,253405150,1075204,1109635,7176078,816317665,46756,459783349,15734,10590,1454074044,2241,6.81,2.73,2.65,0.13,0.0,220357491,214013000,6000000,234840823,27
388715049,2098104,204608402,1097369,205548193,1100215,1193385,6788671,773430095,52401,395492085,26899,735290,1220202289,2289,6.53,2.55,2.47,0.12,0.0,210515229,205155000,5003000,224747138,27
415657243,2026575,221390023,1157918,222146204,1156384,979912,6259390,723720552,44808,422358241,15204,13587,1282059498,2241,6.19,2.44,2.36,0.11,0.0,195462232,192153000,3002000,209564302,27
270615777,2099635,198485375,1332795,196161066,1366455,1349254,6651319,471232405,41577,270185463,18850,7412,948043878,2437,3.93,1.6,1.56,0.08,0.0,127314799,121015000,6000000,141422711,27
767576671,1985824,426045868,1804369,418536582,1786635,1425443,8824114,1063260908,55198,762484333,41432,13197,2287380385,2237,9.2,3.73,3.62,0.16,0.0,287628511,284316000,3003000,301686886,27
405737622,1990799,213153849,1073219,207188397,1083093,1305145,6766198,681215843,46393,404433469,24610,17353,1274232348,2445,5.88,2.29,2.22,0.11,0.0,184803392,179512000,4986000,198914116,27
768565528,1968051,427095080,1704317,419738656,1693257,1309108,8588581,1053617163,55704,756091096,48735,13225,2280014808,2261,9.01,3.69,3.59,0.16,0.0,285815274,278478000,7012000,299941478,27
2686714616,16576402,539263188,813371,539507893,818777,330904,40320312,2131304132,59730,2699977047,10273,14790,6095782639,631,17.76,7.6,7.39,0.29,0.0,575496324,574197000,1000000,589712049,28
1025373238,9273833,283374711,846574,283885112,846812,313200,26664924,1190512844,133443,1029333312,10218,112862,3543661661,624,9.7,3.95,3.83,0.17,0.0,319535854,287131000,32014000,333856053,28
5553546774,7789733,2175600331,1608163,2174117714,1612941,530717,33618350,5533922184,243513,5552286017,73871,241614,16434590545,1124,46.46,19.85,19.31,0.76,0.0,1492917126,1466537000,25991000,1507161330,28
13965653123,14283525,6733905267,6309269,6734067609,6299115,1871220,109578868,30055813896,839789,13972123371,145638,535152,43594650675,620,229.82,88.79,85.88,4.14,0.0,8118599835,8092167000,25000000,8132973976,28
2112074637,6409602,473036764,700995,471142952,691751,256188,18635420,1535615466,47125,2106075449,8040,11423,4993729814,622,12.49,5.24,5.09,0.21,0.0,414797583,411619000,3004000,429028652,28
2808870318,17526160,602232431,1096994,602114664,1096959,1220199,48010315,2625706952,174184,2784886566,243695,218233,8444330646,2122,21.61,9.18,8.93,0.38,0.0,708866487,667591000,40974000,723035488,28
10827580900,204808641,3552615113,2407122,3551993660,2411499,958246,112119806,12020847608,307391,10829710940,50931,82771,33403760033,631,101.4,44.19,43.03,1.66,0.0,3246905971,3244674000,2000000,3261137325,28
7706296275,18383376,2547124213,1677916,2548193092,1692791,684958,60015075,7686809384,208064,7693906148,28197,51316,22386909954,631,64.71,27.71,26.96,1.06,0.0,2075952023,2072434000,2999000,2090425920,28
7809528891,19421153,2609921166,2071317,2611143190,2073966,813879,63672023,8506137250,323923,7801488251,101429,337471,23717985383,1118,70.69,30.07,29.24,1.18,0.0,2306892397,2272177000,33987000,2321212856,28
350149945,6152327,326449793,553940,323881517,550960,335219,16611198,568666813,83658,348037543,12586,106473,1931292937,2113,4.6,1.91,1.86,0.08,0.0,153508648,148103000,5003000,167851265,28
1565409721,16860370,287823065,656303,284484205,648291,293853,42248587,1226755381,35211,1559372832,8139,8752,4479279142,808,10.34,4.47,4.34,0.17,0.0,332281798,329840000,1999000,346692428,28
2692267759,16691803,543020277,829710,546491314,836872,282838,40634874,2254940602,61153,2682482311,10233,16804,7888028623,622,19.3,8.35,8.13,0.31,0.0,609413865,606112000,3000000,623578946,28
8605209110,18591937,2560531262,2121681,2560637001,2122984,618560,61864257,8343691039,319289,8615473267,57844,451742,23254252950,632,69.32,29.65,28.84,1.15,0.0,2256369839,2223794000,31997000,2270693346,28
7725890746,18474985,2562084646,1994971,2562378782,1995663,584390,60957955,7878555782,302982,7736274850,31802,353514,22476328664,634,65.82,28.29,27.52,1.08,0.0,2126066515,2094552000,31008000,2140238804,28
1669151035,16449533,349649195,964026,350112983,957509,479014,39341271,1618858308,138696,1688766628,11964,110916,5059108470,637,13.12,5.5,5.33,0.23,0.0,436115261,402794000,32983000,450302409,28
7800140050,18594064,2601404669,1981706,2600214087,1998479,679378,62251328,8233125188,312675,7800996093,37095,181941,23959553517,624,69.32,29.84,29.04,1.14,0.0,2229124869,2199533000,29007000,2243252082,28
2799273625,17423291,599522300,1092936,599910558,1091571,394277,45260244,2614660261,168972,2800946633,289546,116015,8435345817,831,21.76,9.26,9.0,0.36,0.0,706473324,675066000,31003000,720786199,28
7735007775,19026093,2570714871,1974006,2571967129,1975736,903051,60766745,7798651074,300438,7739765794,65147,164829,22501386596,3374,65.2,27.68,26.92,1.08,0.0,2111014325,2077387000,33006000,2125263780,28
5542374398,7992005,2088442541,1691729,2087375490,1691848,463813,35339479,5929935855,255410,5543752516,142312,136576,17203712205,642,50.24,21.85,21.29,0.82,0.0,1603892072,1563506000,39987000,1618061176,28
3308489227,16780160,598636685,1096758,599744317,1113186,359537,43363748,2670447396,180610,3282017248,17425,117105,7794351935,624,22.4,9.44,9.19,0.37,0.0,720973543,689567000,30980000,735395254,28
2055422921,16386329,349480600,945611,349835108,933740,398781,40458218,1667008186,152090,2060611035,181120,112715,5431926365,1109,13.69,5.66,5.5,0.23,0.0,450261555,415946000,33995000,464462729,28
7701491141,18460781,2543439844,1771173,2543048592,1769377,708660,61157204,7740575606,209054,7698310769,32989,50496,22767211527,647,66.01,28.76,28.02,1.07,0.0,2089122653,2086710000,1999000,2103588370,28
6779397899,18250509,2502580254,2039036,2503418352,2035183,719089,59431417,6865298204,284511,6781080925,33444,362892,20324720648,627,56.76,24.26,23.59,0.95,0.0,1859956154,1833449000,26006000,1874182219,28
2799176167,9626230,974662773,1167354,973658689,1174784,376563,32773986,3027153115,180295,2802433674,15818,305744,8245862423,623,24.99,10.6,10.3,0.42,0.0,818432026,785141000,33005000,832509646,28
1558183477,16348665,281528168,658051,281629092,663841,273115,37013987,1222884242,36051,1558750481,7777,9267,4460802278,624,10.27,4.45,4.34,0.17,0.0,330236815,328947000,999000,344479985,28
5353505194,8002967,2090040344,1788783,2090356617,1784664,558736,35002320,5832602146,253301,5355483675,30748,135750,16953873617,634,49.37,21.44,20.86,0.81,0.0,1575729714,1550397000,25006000,1590058682,28
7725943454,18637517,2560880251,2067473,2561646508,2075133,878557,62001672,8318726973,315164,7728007361,82612,155255,23480123348,643,69.76,30.14,29.33,1.15,0.0,2254960148,2219485000,34991000,2269153518,28
1790237249,6552063,579690790,982942,577895388,991805,357346,21362490,1988676752,155816,1777769430,16123,109686,5501848718,820,16.85,7.19,7.0,0.28,0.0,537366372,503056000,34003000,551657268,28
4945896456,7814598,1985565350,1727437,1985877074,1731801,621524,33141177,5314992731,237392,4955245080,72517,254597,15334224591,631,45.19,19.36,18.85,0.74,0.0,1440241915,1406752000,32994000,1454477211,28
8224372357,187632055,2561272325,2146277,2561530276,2144976,594138,69376294,9120573036,343147,8224322836,111838,220160,22476394237,630,76.36,32.61,31.73,1.26,0.0,2460907741,2428517000,32006000,2475267377,28
5450523777,7916523,2140845222,1631687,2138509260,1643475,616540,34511738,5648759514,254778,5434322720,31290,137636,17221882901,1122,47.4,20.14,19.6,0.78,0.0,1520874847,1492582000,27992000,1535347785,28
5352229469,285519473,2172945084,1914670,2173602021,1896308,456380,125617505,6714171158,270187,5355728532,36401,145174,16402104041,628,56.39,23.44,22.79,0.93,0.0,1813584253,1784976000,27999000,1828109559,28
5329066305,17766522,1796033071,1354566,1795488377,1351101,616773,54551606,5480138221,142328,5330701246,22323,36788,16774990538,631,46.65,19.82,19.29,0.76,0.0,1484838778,1482495000,2000000,1499243627,28
2684090805,16882102,551637446,883601,549206480,877152,294534,42492982,2540943120,67779,2688382040,11998,17259,9390248761,631,21.14,8.93,8.69,0.35,0.0,686675567,683443000,2997000,701004095,28
2434957700,17482060,1912543096,948962,1911144554,942576,518279,48135948,3625386496,93755,2434849191,14979,23753,8335738199,650,29.63,11.99,11.64,0.51,0.0,982506595,977208000,4995000,996634203,28
6535592205,56766157,2496279292,1919994,2493944508,1926188,870794,50724089,7369124431,300604,6523083912,105250,336265,20680340899,1999,63.14,26.77,26.04,1.03,0.0,1998896148,1967620000,30994000,2013089794,28
7706614060,18734956,2547592595,1712017,2549698325,1781999,1171462,62375674,7756153819,216325,7719069496,103214,63253,22436960519,632,64.49,27.64,26.89,1.08,0.0,2089872715,2086661000,2999000,2104150716,28
2682224778,16983790,537050858,887732,536955135,887579,624800,42631014,2540896175,73917,2689707062,14407,20392,9330741232,644,21.23,8.89,8.64,0.35,0.0,685198273,682818000,2002000,699463129,28
1776951113,6503626,490722989,946899,491760806,955265,339592,20035386,1765146064,148580,1780798140,40415,114243,4729003285,624,15.04,6.28,6.11,0.24,0.0,477426915,446175000,31012000,491742714,28
5426053205,17815740,1854147311,1604507,1855581699,1600672,842409,55648423,5813501771,247895,5442806020,26171,138841,16702717582,625,49.36,20.98,20.42,0.8,0.0,1570653032,1536108000,34002000,1584999334,28
2685563065,16844505,541214087,932800,539637361,915084,400859,43796753,2693539041,74462,2690166862,12578,19277,9847250807,631,22.29,9.32,9.05,0.37,0.0,726299018,725857000,0,740823591,28
3197755382,16901170,534180754,864937,536991032,877885,364690,43274299,2454898161,72971,3185143923,11956,16224,8480830640,624,20.83,8.89,8.66,0.34,0.0,663207381,661815000,999000,677456949,28
1860265139,6464495,581251318,965820,580639181,965051,375957,20421700,1904208126,154214,1855637514,18431,119392,5783446256,1105,15.79,6.43,6.25,0.26,0.0,515757524,482394000,33027000,530057309,28
8198952132,18603703,2924225942,2106963,2923656190,2127399,798828,62318350,8244891980,321563,8201126958,229487,154738,23281620836,631,69.13,29.25,28.45,1.14,0.0,2229198440,2195645000,32994000,2243552315,28
2697839885,17033516,540078123,927985,540028132,912684,432389,43966261,2721651610,77436,2690189837,12341,19021,8876010946,636,23.11,9.96,9.69,0.38,0.0,733053935,729577000,3002000,747280434,28
2681153383,16848468,537051517,905421,535073058,887614,455532,42503365,2684834625,69869,2685497793,13887,19229,9830508060,629,21.82,9.24,8.99,0.37,0.0,725653624,723241000,2000000,740059586,28
1749449537,9445041,533566162,728960,533435842,732545,284366,25316436,1629798876,45435,1740807421,8188,12919,5647216539,661,13.77,5.85,5.69,0.23,0.0,442080925,440751000,999000,456175349,28
4654025805,7774854,1845851378,1474779,1842450133,1476551,823215,32123157,4678786561,217856,4658278554,115545,130848,14135854258,1638,39.13,16.67,16.22,0.65,0.0,1263939930,1229481000,34013000,1278342828,28
7444375028,18470319,2664330039,1820157,2665732970,1826832,570354,60922528,7840950388,211101,7440981150,34268,47958,22861191630,632,65.89,28.37,27.61,1.08,0.0,2121063662,2118557000,1999000,2135453697,28
4321033846,17513571,1792491904,1235325,1793469983,1233053,481520,51138607,4610294668,125172,4325142991,18796,31741,13877075644,631,38.38,16.06,15.59,0.64,0.0,1248040113,1244748000,2999000,1262421723,28
3187405529,32890663,536916687,992167,534504346,986750,3094360,77947796,3147795917,82487,3183001792,16200,20583,11097498662,1122,26.47,11.39,11.08,0.48,0.0,849264401,843013000,6000000,863748514,28
2687396003,16825522,538508290,882319,535218536,872339,299915,43905941,2733189770,74033,2684327248,11199,18777,9851396510,642,23.21,10.08,9.82,0.38,0.0,737725552,737451000,0,751901653,28
4536850125,7599273,1862863112,1272740,1864244900,1282119,416042,31421423,4901026243,124894,4534203254,21227,29888,14656160524,631,41.17,17.91,17.44,0.68,0.0,1323472283,1319889000,2999000,1337794016,28
2691680375,16549532,540229407,844626,540134941,849904,285243,40491037,2238034238,57534,2698307070,10056,15746,7863188041,624,18.53,7.93,7.73,0.31,0.0,604121727,600885000,2999000,618190454,28
5321598891,7770085,2070042506,1338416,2067804874,1330219,406242,32437885,5318476150,135558,5322181560,25329,36127,16253396393,630,44.43,19.12,18.62,0.73,0.0,1438412938,1436125000,2000000,1452713315,28
7810606160,21033229,2674744725,2924056,2672948478,2974447,1830562,65402265,8206830588,329299,7804239579,99396,365127,22909272327,1475,66.8,28.46,27.69,1.11,0.0,2146342416,2117403000,27992000,2160631905,28
2791761453,17057908,598482599,1176734,599272528,1171222,335516,45026287,3083147395,185868,2782333526,16946,120788,10421031870,625,25.95,10.84,10.54,0.43,0.0,835166754,805781000,28992000,849394213,28
2841041649,9652160,969758414,1178524,969952917,1167954,484039,32854747,3058710823,172420,2859875562,17221,121084,8635729187,624,25.89,10.97,10.68,0.42,0.0,827856876,793642000,33984000,842059847,28
2694767781,17048511,543304320,883779,544960089,887218,349393,43499973,2613300944,70951,2678698132,14032,18347,9405973294,1062,22.28,9.65,9.39,0.36,0.0,708330949,705917000,1999000,722749654,28
7705027862,18506079,2546188740,1710350,2547968741,1720714,657061,60690413,7704191024,204202,7704057319,32546,51675,22401081923,631,64.7,27.64,26.89,1.07,0.0,2090844781,2087372000,2999000,2105000435,28
2102115660,6897074,659385620,1098186,658820464,1094329,407996,23658626,2472808679,165525,2105517766,59554,203473,8094921104,636,20.93,8.58,8.33,0.34,0.0,670094456,638649000,30982000,684458972,28
5351309114,17875713,1809788569,1593332,1810425526,1594436,479782,55017756,5669769364,247966,5356423851,30076,139626,16488024648,635,48.47,20.48,19.92,0.78,0.0,1534341650,1502680000,30993000,1548638953,28
3225062036,16918534,555047918,1128570,554920203,1131718,521587,44010378,2791450239,182156,3210724365,13196,121567,8820794962,635,23.59,9.98,9.7,0.39,0.0,754429774,725982000,27999000,768782952,28
2995315603,6962774,1148530395,1061362,1148255594,1088617,521279,25679630,3202463083,186277,2998908270,19115,123306,9246251521,645,26.98,11.4,11.1,0.44,0.0,862120793,834709000,26990000,876387519,28
5427748027,7863449,2133882114,1662898,2133969433,1651683,413267,34368075,5800288986,251352,5425301603,29598,244460,17151386855,625,49.18,21.09,20.53,0.8,0.0,1565538911,1537146000,28002000,1579475167,28
1782619328,1231586,799870006,1284540,797422935,1285334,295702,7067732,1819985588,48874,1787400575,8802,12929,5646451705,645,15.5,6.81,6.65,0.25,0.0,490803968,488493000,1997000,505172645,28
2696792624,17307290,542899891,864796,542192572,855774,600775,43841554,2136407654,58659,2704117779,14707,14094,6882185870,1547,17.93,7.75,7.54,0.3,0.0,575562880,573299000,2001000,590006794,28
2710922633,16589847,551923687,1050492,552098579,1046924,426318,41168863,2357434661,161029,2718136650,12261,368201,6928220743,626,19.58,8.18,7.95,0.33,0.0,636307262,611984000,23999000,650568526,28
1379904513,6496166,387446497,705693,390372025,730622,327380,18727580,1534218597,43422,1379392633,9947,11206,5506717003,627,12.65,5.36,5.21,0.21,0.0,413434982,411130000,2000000,427842035,28
5422004260,17772647,1853882458,1603174,1856023691,1589436,557498,53954016,5704019647,238849,5436112315,33408,344894,16937722789,626,48.14,20.56,20.01,0.79,0.0,1540599579,1507093000,33002000,1555179969,28
1676725043,17118768,348426024,932003,348625900,937080,664356,44319235,1615335870,143026,1673264647,15103,110223,5068971371,1119,13.23,5.48,5.33,0.23,0.0,438179449,408982000,28928000,452361260,28
5321091452,7843184,2073017623,1370976,2073250396,1357826,448371,32978237,5417958293,135339,5331948652,22081,36637,16848491531,632,45.65,19.91,19.38,0.75,0.0,1468936384,1466628000,1999000,1483166960,28
3422110776,344887372,604123135,1333496,599914351,1328019,743122,145816778,3974611827,200449,3434337773,24699,125781,11180764109,1082,32.95,13.87,13.48,0.56,0.0,1078168485,1041756000,35991000,1092470501,28
3320683601,148116596,540860432,999170,537193406,993345,1199457,76116549,3046704954,88753,3304744451,21913,23270,10364008215,2096,25.5,10.97,10.67,0.43,0.0,821898533,815304000,5994000,836322279,28
2688302953,16827249,533826861,855494,536147797,862779,343024,41522427,2403978527,63971,2684376975,11577,16470,8849519087,634,20.37,8.94,8.71,0.33,0.0,648568873,646139000,2000000,662985140,28
5321462923,17726563,1791797674,1303081,1789855769,1286611,459926,51640364,5119214163,127085,5324894965,22735,31560,15633446345,631,42.35,17.99,17.5,0.71,0.0,1383059615,1380528000,1999000,1397376590,28
2779634627,16862168,596610984,1143193,597157204,1142993,408856,44233675,2732694277,172943,2781981747,19227,330074,9125985772,623,22.62,9.47,9.19,0.38,0.0,739013653,707771000,30989000,753046548,28
2687633079,16815510,541040395,909207,540048832,901043,340765,43729291,2688802301,71503,2689480634,12373,17429,9847103820,631,22.61,9.68,9.42,0.37,0.0,726259115,723978000,1999000,740623956,28
3853338836,7441337,1658974450,1214971,1657127861,1221033,762712,30532795,4285449104,117493,3851953464,17728,28954,12212733638,1142,35.9,15.31,14.9,0.59,0.0,1154073995,1152675000,999000,1168383711,28
5471302284,17670507,1806841475,1544303,1807635146,1551894,522091,53212219,5401615387,237901,5475230372,23198,340984,15834247211,632,45.15,18.76,18.23,0.74,0.0,1457956819,1430686000,26994000,1472199011,28
193555103,1069654,103676546,101335,102948272,99990,1104927,3180217,286073818,21107,190908652,28999,6705,634195542,3879,2.44,0.98,0.95,0.05,0.0,77175455,66902000,9985000,91503398,29
103770156,552828,60264951,78735,61857476,79585,417740,1493391,152556206,9262,104007221,13662,3350,329586429,1958,1.21,0.51,0.5,0.02,0.0,41466510,38114000,3009000,55727479,29
98914668,563825,59896242,75652,62864139,78152,351631,1520638,146299677,10415,94450323,12078,4813,323637188,1957,1.21,0.49,0.47,0.02,0.0,39681641,34338000,5049000,53930698,29
215608143,600211,124582102,573558,124538109,568723,444047,3483525,702621579,220981,216247501,186287,202757,691364986,1951,5.52,2.19,2.13,0.1,0.0,190134527,130893000,58952000,204464997,29
195484895,1147275,105571356,100810,104315353,94507,1102837,3165311,292819403,22757,188270632,28279,11385,635660104,4137,2.44,1.01,0.99,0.05,0.0,79065109,69810000,8975000,93368673,29
199797574,732552,105894556,96940,107342696,100508,506574,2156258,274150617,14697,191948754,22801,6499,606834306,2598,2.31,0.94,0.92,0.04,0.0,74536965,64380000,9904000,88837133,29
127077006,657240,71320791,85002,72462368,88306,459010,1895149,191501924,13619,121904468,22018,5889,405252124,2929,1.53,0.6,0.59,0.03,0.0,53084411,45853000,6977000,67196584,29
270356244,1432596,149006505,132322,155754232,129332,860838,3653584,492308527,29424,269256708,31833,9519,859906684,4289,4.0,1.66,1.62,0.08,0.0,133626674,129347000,4010000,147799579,29
129083193,476975,69065531,80550,64987232,81336,563748,2036191,180520404,13564,115311168,18843,5072,396404669,2153,1.5,0.6,0.59,0.03,0.0,48801526,44445000,4040000,62856210,29
97184569,433305,64414421,68064,61036088,67434,402662,1612497,134097341,10879,86275046,14089,3353,316888095,1960,1.11,0.46,0.45,0.02,0.0,36127053,33770000,1986000,50219856,29
82508586,421065,41662471,65220,35886799,67307,481931,1628864,110630371,10175,71908748,18261,4484,267399532,1957,0.89,0.34,0.33,0.02,0.0,31423969,25101000,6024000,45732166,29
156358285,498728,92400948,87336,91545540,84623,438002,1730832,209004496,13837,149824342,21212,3646,484419989,1950,1.78,0.73,0.71,0.03,0.0,56696871,53420000,3023000,70901677,29
103769774,503464,67338575,77321,66468875,77928,392650,1591017,165440189,11233,100509352,11953,2617,393477737,1953,1.36,0.58,0.56,0.03,0.0,44897453,39508000,5065000,59188051,29
104758850,520487,69221061,74743,66648648,76230,416827,1670548,167633750,10664,97877864,14462,2759,399505570,1952,1.46,0.59,0.57,0.03,0.0,45554004,42247000,3017000,59735454,29
196745711,1109534,111057716,110467,107218763,110796,1101938,3289799,301310888,23119,187613347,31040,195313,623878045,4136,2.53,1.05,1.02,0.05,0.0,81484290,74208000,7019000,95771062,29
212667880,1185269,115530860,109922,113936405,111949,1202269,3472562,331658475,23255,210678525,30797,7598,673669366,4527,2.85,1.15,1.1,0.06,0.0,89952310,83562000,6040000,104045915,29
115572581,666643,62324689,74613,61856920,79517,555795,1835317,167959915,12600,111192806,21088,4572,373166423,2607,1.39,0.58,0.56,0.03,0.0,45639712,38456000,6902000,60078715,29
199274327,1006059,114483971,105694,115540867,108269,1032547,3244493,299295827,22155,192775238,28436,8048,627646454,3687,2.48,0.98,0.94,0.05,0.0,83514038,77246000,6019000,97638466,29
309177839,1964228,172838883,158382,170166823,159134,2000125,5112534,515488733,36803,311871342,47759,40540,1006071611,9540,4.26,1.74,1.68,0.09,0.0,140307292,127998000,11999000,154360905,29
156768735,544606,92230067,89500,91219309,92416,499194,1845401,210459121,13881,151044544,22249,3321,489900903,2147,1.75,0.73,0.71,0.03,0.0,56947774,52623000,3971000,71242548,29
113615940,659431,62197556,84119,61242138,86550,566803,1888261,168897398,12256,114396127,15700,10950,368280412,2606,1.44,0.58,0.57,0.03,0.0,45341696,41104000,4010000,59636423,29
122914189,607801,73819504,81281,68230449,79281,622525,2222622,184563483,18441,114257337,16840,5075,396588354,2997,1.5,0.63,0.61,0.03,0.0,49742259,44507000,4945000,64099081,29
108593723,559481,59053862,75408,58631816,76058,450110,1627735,150451643,19135,104842565,11192,2305,342964787,1959,1.29,0.53,0.51,0.02,0.0,40994054,39674000,1017000,55109419,29
154772025,595159,86511103,86698,88076235,87083,464010,1843610,206179409,11436,154971839,23632,4928,469332099,2146,1.75,0.71,0.69,0.03,0.0,56616512,54338000,1975000,70827291,29
117267933,654511,63350369,76430,61798500,83277,539797,1852085,169604500,12676,114159524,19853,4807,375763931,2605,1.43,0.58,0.57,0.03,0.0,45709382,39334000,6051000,60022981,29
211794797,1164811,121810830,118667,119289401,115928,1547010,3508727,341359250,28487,202572192,59559,10433,676785561,7420,2.89,1.16,1.12,0.06,0.0,92517227,82052000,10006000,106948870,29
223510553,1205145,114043128,111611,112717390,111387,1092785,3468313,324414729,23870,215198998,36549,7307,696254042,4529,2.75,1.1,1.08,0.06,0.0,89694683,82281000,7024000,103782955,29
243402822,1042551,135787007,115550,133428205,116883,799933,3017815,352231410,20812,238939826,25305,7536,765883949,3679,2.93,1.23,1.2,0.06,0.0,95741373,92423000,3013000,109907562,29
185373384,1036709,102308359,99421,102544412,97135,1112622,3036506,275892245,19924,177813310,35210,8745,592461261,4137,2.32,0.95,0.92,0.05,0.0,75807729,70484000,5034000,89987217,29
245304129,1036776,136446927,113570,133635817,115918,871284,3121996,352725185,19649,239885318,34108,8121,769068179,3483,3.02,1.24,1.2,0.06,0.0,95669356,91371000,4016000,109824371,29
173653417,460176,82269660,86354,76708242,89276,519276,2276789,229222807,26416,158930439,8343,3916,527913159,1959,1.96,0.77,0.75,0.04,0.0,61603515,58292000,3015000,75720755,29
171850246,527134,91047906,83443,91273819,88258,492530,1996836,222354137,14224,161286850,18594,4323,516050604,2146,1.92,0.77,0.76,0.03,0.0,60680230,52330000,8050000,74895814,29
159839454,748139,88509841,85708,87176430,92304,494441,2136978,221695615,12422,168742119,23575,4664,513682163,2147,1.97,0.77,0.75,0.03,0.0,59895726,52628000,6950000,74115647,29
186271529,551870,88009883,96864,88840314,102795,466532,2194049,277599606,15982,186017381,16112,4383,580441338,1959,2.34,0.93,0.91,0.04,0.0,74765179,70524000,3973000,89060231,29
1169542524,9827740,639676474,768300,641417749,764405,12043983,24567490,2465656901,202536,1168773693,492548,82840,3741844227,60907,20.16,7.84,7.58,0.44,0.0,666764187,567383000,99067000,680937678,29
156568232,590329,91733838,88046,91291800,88162,498317,1816274,211976965,15013,151102485,22951,4200,488553994,2601,1.76,0.72,0.71,0.03,0.0,57313647,53080000,4006000,71709250,29
255744374,1232803,141483176,121892,136495072,124376,1375436,4068631,371051594,36412,251132727,34354,13159,796242224,4716,3.19,1.29,1.26,0.07,0.0,100457016,90164000,10018000,114639510,29
913197810,15777314,497094218,1402430,495815098,1422185,4782090,13911299,1781482243,134336,906571009,210899,54911,2850340445,37391,14.85,5.88,5.71,0.29,0.0,480785168,419522000,60930000,495054383,29
786034756,10197469,424433492,1851346,423297415,1865516,2445449,9862024,1402653888,63658,779103699,60031,26653,2423321026,7261,11.72,4.69,4.56,0.22,0.0,379326834,370046000,9001000,393612936,29
108687533,554939,59783164,79735,60107457,81556,432492,1639721,161544323,10650,113485407,15293,3290,358514943,1958,1.3,0.51,0.5,0.03,0.0,44237372,40957000,2996000,58577548,29
276812246,1629268,132911396,133945,135641319,135546,1478058,4338332,432418291,28841,278416510,49138,11454,824008069,5854,3.63,1.49,1.44,0.08,0.0,117461693,106225000,11023000,131553983,29
152084909,561927,77620565,94130,74799352,95319,602989,2127306,224807194,12945,149311224,14666,5736,481500014,2350,1.85,0.76,0.73,0.04,0.0,61259186,54167000,6894000,75293985,29
157415113,527921,92498421,84867,90712067,86507,463247,1855363,213108132,12691,151202911,17706,3233,493296199,1951,1.81,0.74,0.71,0.03,0.0,57667442,55363000,2013000,71972641,29
194480007,1225581,105267562,104070,104107205,99756,1148458,3280818,291717427,26433,188649488,29511,9039,632664590,4137,2.44,1.01,0.98,0.05,0.0,78816446,70439000,8050000,93188811,29
522321302,4511407,283568508,779620,281676129,780965,993251,5116991,892228642,33090,526935835,30265,23430,1632162335,4853,7.45,2.94,2.86,0.13,0.0,242265147,232959000,8998000,256699936,29
155466210,570765,90738543,88963,90979880,91476,381390,1750297,211248542,12362,155957230,20130,4004,491461101,1967,1.8,0.72,0.69,0.03,0.0,57907613,51704000,5965000,72123644,29
106798883,502743,58208254,77875,57279405,81995,444485,1758940,150230580,12187,106048126,15392,4491,356400799,2055,1.24,0.45,0.43,0.03,0.0,44339690,40012000,4001000,58686717,29
318069998,1140539,174609108,604252,173368380,603606,962188,4799555,869841962,232989,320756841,29347,212074,1008585651,3484,7.09,2.78,2.68,0.13,0.0,236015074,165494000,70209000,250395095,29
222594129,1148807,117699018,111432,117893555,111019,1133897,3435380,336497185,23128,221050780,29545,8272,700953042,4137,2.94,1.15,1.13,0.06,0.0,91719436,87320000,4014000,106091055,29
205170509,1005093,109686903,106306,105585332,99813,964672,3321521,297606615,32410,195433224,25404,8080,659259566,3488,2.54,1.04,1.01,0.05,0.0,80305074,67980000,11996000,94478636,29
198144674,738222,99256626,114112,103685260,116600,580956,2504863,303151986,18604,195392484,17542,8578,600364141,2597,2.49,1.02,0.99,0.05,0.0,81875961,74667000,6968000,95932271,29
103709737,545363,53819239,80773,55386693,81523,379667,1577994,154581023,9605,107695965,14180,3245,325112384,1960,1.29,0.52,0.5,0.03,0.0,42368087,40003000,2000000,56609768,29
167248551,651432,92213605,100315,92694361,94969,599377,2216987,239316748,16153,177656337,19849,4770,530279972,2989,1.97,0.82,0.79,0.04,0.0,64684359,58445000,5943000,78965221,29
198877801,1150639,111929363,112576,107747203,120222,1209655,3432875,307490379,23208,191809383,30341,6745,638248389,4135,2.59,1.01,0.99,0.05,0.0,82885824,74540000,7950000,97217759,29
103215821,550904,53183341,79572,55317235,79585,387668,1582134,156205590,9619,106493615,17310,3676,327137908,1958,1.29,0.53,0.51,0.03,0.0,42574768,38256000,4026000,56813618,29
147308620,564006,83576264,86314,88780406,89759,305868,1465093,196811760,12129,142884307,21879,4411,443730491,1963,1.66,0.68,0.66,0.03,0.0,54095693,48815000,4981000,68443672,29
285363863,779753,156729601,599088,158394876,590820,506108,4197772,836222598,223499,292776712,448555,210490,895280429,2372,6.92,2.6,2.52,0.12,0.0,226127278,168923000,56974000,240520969,29
100223357,702656,58482097,81207,60537276,83506,454637,1639490,151493915,10262,99354348,17360,4240,324377164,2605,1.25,0.51,0.5,0.02,0.0,40940680,35634000,4949000,55147008,29
116159455,773803,59633504,80492,59276538,85832,758252,2350420,171537187,19511,124070714,17186,5607,387267644,2995,1.42,0.58,0.57,0.03,0.0,46923895,43653000,2976000,61093778,29
187016167,1054219,98748857,95320,97130376,99125,1075601,3109531,277293037,19727,183556300,25297,12000,592942343,3487,2.37,0.97,0.94,0.05,0.0,75334639,72118000,3004000,89659929,29
255119642,1873173,129347078,294934,123479203,279811,2040108,6590672,485784661,67438,252212485,88533,35539,790337267,8443,3.58,1.46,1.41,0.08,0.0,112606469,96268000,15879000,126917672,29
145287200,613894,69807600,99779,71701846,114780,506903,2242077,223191210,13798,148647014,20922,3481,438940584,1959,1.82,0.72,0.71,0.03,0.0,56407484,52121000,4009000,70785125,29
155730169,571199,91122698,87491,91218908,87593,476851,1838184,212484069,15273,151032581,23903,4585,483153172,2598,1.8,0.75,0.72,0.03,0.0,57495724,53263000,4019000,71732370,29
103731591,560623,60811210,80126,63189154,86821,456571,1652880,154021392,11931,102219243,14889,3427,330335702,2055,1.37,0.53,0.51,0.03,0.0,40901669,34684000,5945000,55337622,29
252066849,1069782,139850979,118163,135465052,118904,1044289,3588429,362539704,35515,245693405,30982,22662,786456276,3482,3.23,1.28,1.24,0.06,0.0,98608281,91271000,7020000,112836238,29
199726479,741685,108997448,108792,112464677,100069,478161,2253236,294585960,16216,198598801,22801,5660,614477507,2599,2.45,1.01,0.98,0.05,0.0,79613972,72305000,7029000,93930288,29
164386202,495690,94923033,83562,93354586,89847,492487,2164283,222283685,24717,154639904,13773,3254,500324693,1951,1.89,0.79,0.76,0.03,0.0,60360261,55837000,4060000,74610370,29
93764424,624904,53882006,86592,56686817,79165,407634,1708075,143718468,20891,89943989,8721,3905,295433452,2604,1.19,0.48,0.48,0.02,0.0,38497326,32202000,6038000,52728286,29
155386748,567641,91570066,291367,90317235,294985,404484,2082576,256772845,14743,149595036,20895,410444,485385053,1950,2.08,0.79,0.76,0.04,0.0,73538556,67348000,5942000,87886853,29
161458678,532311,94470769,87397,93266019,89512,474900,1872389,214179990,13034,155264335,21441,3547,496906385,1952,1.82,0.76,0.74,0.03,0.0,57984434,53638000,3973000,72372672,29
146317153,589140,73731281,87417,73576079,94170,474825,1933291,219215469,11753,148584953,15794,4866,471721972,1959,1.86,0.74,0.72,0.03,0.0,59894581,51699000,7953000,74195799,29
237259087,1158733,130166874,105971,130233193,109685,951988,3059094,340715157,21958,231816075,44965,8758,755295888,4066,2.85,1.19,1.16,0.06,0.0,92340375,81070000,11009000,106721234,29
91533492,692458,53354250,80922,56163865,79936,373278,1552220,145090308,12226,89816654,25588,5283,290816396,2994,1.2,0.49,0.47,0.02,0.0,39088538,33815000,4972000,53128475,29
192173439,1066883,103806924,92057,103293196,96054,1066829,3034741,281811337,20483,191455092,29269,8295,620321142,3491,2.51,0.98,0.95,0.05,0.0,76058232,67805000,7977000,90359129,29
170482548,469391,100060729,102950,98284687,104696,444485,2011116,238702045,16108,164102407,21785,4145,526450041,1950,2.12,0.74,0.72,0.04,0.0,68030471,62777000,4982000,82270889,29
221762677,1015857,115475999,115906,114472133,111177,1041279,3604003,326740856,34483,214609291,22215,7546,708173533,3686,2.67,1.04,1.01,0.06,0.0,92787133,86537000,5968000,107086823,29
77498804,461697,47170031,68070,43399275,71171,538760,1721906,105442769,8070,78458750,7450,2569,277694999,1957,0.89,0.37,0.36,0.02,0.0,28409626,23108000,5023000,42734212,29
96354791,315489,55964313,63758,50157594,64701,441558,1628293,123881806,10713,81150983,12332,3612,303794177,1959,1.04,0.42,0.41,0.02,0.0,33949184,30517000,3051000,48047227,29
158780458,491153,93849875,87626,92793512,87025,457841,1813197,211613875,13788,151143996,24669,4055,487567310,2089,1.81,0.74,0.72,0.03,0.0,57594299,53251000,4018000,71914194,29
211808495,1032303,114292506,117826,114935367,120062,1046693,3125445,321239500,22265,208471038,24952,12027,668710153,3490,2.73,1.11,1.08,0.05,0.0,86479746,77179000,9020000,100614647,29
401784754,4769877,189509256,4798928,193994186,4781377,1673297,11161848,651758184,108967,408298932,24323,11055,1187748190,2573,5.65,2.22,2.15,0.11,0.0,176071125,166801000,8989000,190510089,30
542334877,5219003,228916072,5854557,228924804,5841532,1962981,13008287,849325997,168974,543259521,44367,13994,1592840976,3587,7.32,2.9,2.82,0.14,0.0,229192655,221875000,6996000,243476599,30
636223205,6955537,293579529,5529273,295254000,5532388,1734164,16878598,1075341240,147224,637657119,20028,11309,1855636292,2185,9.14,3.66,3.56,0.17,0.0,290423390,283017000,7000000,304428616,30
1809115811,23509007,627351256,9655941,630088330,9627984,8717023,56534219,2514124798,1116746,1808257766,32367,34573,5028225148,5216,21.4,8.75,8.51,0.44,0.0,678639910,672296000,6002000,692703590,30
1041913853,4740749,445121367,7238457,445843294,7212239,1423087,14036225,1592233711,101894,1045048534,25711,14145,3088639113,2572,13.43,5.35,5.19,0.23,0.0,430406918,422065000,8001000,444805146,30
498796877,5528394,216440345,5097955,220758729,5079657,1470535,12752721,961769806,194932,503464488,24174,110412,1407150969,2572,8.03,3.18,3.1,0.15,0.0,259470754,226316000,32900000,273660886,30
734136719,11055316,265676531,6225736,267379175,6208239,2933008,24165903,1078438943,333342,735058004,37451,24858,2110192038,4527,9.06,3.7,3.59,0.18,0.0,292525584,287181000,5003000,306811382,30
465220852,4153508,204039666,5021161,208029385,5009438,1156688,10846993,752107161,80546,471070639,20545,8679,1357254509,2382,6.35,2.56,2.49,0.12,0.0,204022737,196740000,6990000,218228441,30
1032798126,13525136,533876188,7328795,537614125,7330702,11470978,34890971,1797286167,837337,1041983105,75157,116948,2821161142,7160,15.31,6.08,5.91,0.33,0.0,485453733,424118000,61017000,499581747,30
1159585638,12242740,377099425,8506485,377299296,8510960,2963042,29848551,1593205368,341864,1165943405,51962,24916,3336180175,4427,13.94,5.53,5.37,0.25,0.0,431958982,424548000,6992000,446430801,30
459552389,15610517,257034064,4178600,259068264,4154000,5899708,32004021,943460479,941884,460635010,26278,15102,1557862920,3402,8.27,3.23,3.13,0.18,0.0,254855452,246513000,8016000,269012033,30
644991015,6933486,249251526,6137855,252896371,6108303,1832490,16329301,984272120,170539,657248103,20801,12495,2070519156,2964,8.41,3.33,3.22,0.16,0.0,266032333,259656000,5992000,280225903,30
302995122,4318477,197728931,4886984,201573636,4839711,1343870,10110479,592207300,80057,309601756,25750,9438,1037923735,2576,5.15,2.0,1.96,0.1,0.0,159742691,149482000,9965000,174080268,30
1172507572,7706225,459068041,7605324,460392481,7602003,1897515,19585100,1584775553,178560,1165909207,32681,35516,3262716454,4626,13.47,5.46,5.3,0.24,0.0,428468650,416072000,12002000,442710792,30
428004434,4881620,185203841,4964289,189396089,4932330,1446465,11251479,679200816,80986,434607114,23193,8906,1210675310,2577,5.99,2.31,2.24,0.11,0.0,183495655,180254000,2987000,197834305,30
581914428,6213412,268948687,4822325,272136246,4776749,2881585,14692559,1160516501,227086,589263173,74287,141182,1685413289,11862,9.69,3.73,3.63,0.19,0.0,313601278,261494000,51899000,327876221,30
734838856,13308483,282329978,8636716,285021148,8607885,6134321,29778817,1334358096,729495,741425951,81510,21844,2345403335,8481,11.4,4.41,4.27,0.25,0.0,360761486,350491000,10014000,375150613,30
585941914,6046945,270931583,6585127,272472850,6571864,2298473,15138853,1154657824,394838,589885205,173141,314032,1736923342,2963,9.85,3.88,3.77,0.18,0.0,312095987,270832000,40974000,326390589,30
1110001089,8380686,546099413,8082964,541749796,8096284,4997139,22266428,1807433530,395488,1105701173,65220,119011,3325702267,6620,15.71,6.13,5.95,0.29,0.0,486936761,439577000,46954000,501297630,30
1376162049,4959832,651217350,7229431,650458746,7195730,1972627,16944439,2291235420,151523,1372424863,44339,23893,4022403372,4041,19.01,7.61,7.39,0.34,0.0,618924105,612638000,5996000,633384827,30
1948944717,13952766,782981130,8171349,778780837,8116834,3801058,32830397,2741802306,557363,1945360381,54246,305211,5398224796,4038,23.34,9.2,8.93,0.42,0.0,740261335,701038000,39002000,754489313,30
1236281872,14705920,512014512,7629542,512110041,7646682,3745737,31505681,1822796981,546518,1256004911,72940,112219,3424130365,4036,15.58,6.26,6.08,0.29,0.0,492696407,450360000,42033000,507148984,30
999585400,13639186,384366141,6973825,384781098,6928308,3035547,29516380,1707079601,445841,1005669009,26743,111941,2832408959,3846,14.54,5.78,5.6,0.27,0.0,460701152,426328000,34026000,475030856,30
1374786720,25840342,511465988,7864553,508721776,7841188,8861934,59049337,2089334493,1151417,1376329533,38349,32369,3854438843,5607,17.17,7.05,6.84,0.37,0.0,565533939,553225000,12004000,579848551,30
1000323023,6418822,401553738,8471176,405514903,8413982,3138364,18392939,1830990951,393241,1003760612,43776,119192,2732181852,4620,15.62,6.02,5.85,0.28,0.0,495063684,458798000,35984000,509481143,30
577448755,4824969,235321444,3920764,234690599,3899655,1302658,11259569,802542276,55334,569872031,23448,14904,1693025116,2967,6.76,2.74,2.66,0.13,0.0,216676545,209383000,6979000,231028331,30
645077586,3970219,259158509,6002126,257203376,5981105,1364079,11355294,919136765,51497,636063676,18000,12131,1913077255,2184,7.84,3.13,3.04,0.14,0.0,246946525,239667000,6990000,261368791,30
786760275,7412680,432466554,4842302,428381863,4833869,1509861,18172879,1219020536,183933,775754531,42622,109231,2210224215,1692,10.53,4.19,4.08,0.18,0.0,329473535,287095000,42013000,343583471,30
685702874,8383544,290744589,5485056,294327436,5532137,2246453,19149770,1281360899,270559,699070571,27849,300812,1978712370,4041,10.78,4.24,4.12,0.2,0.0,345913575,310596000,34954000,360260722,30
669821427,4935192,278546396,5236263,280860663,5236465,1867746,13581461,1012740716,94278,671704598,27031,13450,1860988159,3652,8.7,3.44,3.34,0.16,0.0,274971185,267601000,6989000,289222867,30
429021912,6061880,192593142,5000319,196547305,4993762,2856749,14558316,753401797,183825,438223577,19395,11042,1318206337,3601,6.52,2.52,2.45,0.13,0.0,203590129,189211000,14015000,217648907,30
537586378,4167960,226409993,5092313,227329290,5093408,1133266,10615532,831626949,47650,548879171,17489,14778,1536214861,2382,7.08,2.85,2.77,0.13,0.0,224687283,219362000,5008000,238963085,30
516371373,4698831,225718199,4978958,225916294,4968600,1441313,11701652,825214148,83220,525277533,30652,13361,1535194135,2966,6.99,2.76,2.68,0.13,0.0,224884072,217433000,7013000,239298188,30
833186168,19700726,327079441,7016542,324068627,7007218,18818433,53245582,1439661320,876780,834960757,44417,18136,1963094598,7166,12.45,4.64,4.47,0.36,0.0,388822722,376567000,11986000,403005969,30
1560874640,6171794,740571355,7595427,740426750,7658687,2319472,22431208,2730257073,139241,1571978131,68985,689288,4696932018,3656,23.44,9.22,8.95,0.4,0.0,737077433,730633000,5996000,751408873,30
629958086,5211557,273114515,5501804,276151762,5469735,2385394,13744054,1007618001,125437,631585264,31821,11961,1857903485,3651,8.74,3.45,3.34,0.16,0.0,272235275,264826000,7021000,286406819,30
1794876158,20528899,665225928,10397726,665767620,10354426,16162438,50665260,2559902171,968898,1785528629,80839,312125,4108816131,6778,22.03,8.6,8.33,0.5,0.0,691757126,650352000,40959000,706071038,30
511884446,4436668,272813728,5318418,268084597,5301412,1802183,12236276,872694902,120182,515323781,26947,10038,1633535628,2376,7.5,2.98,2.89,0.14,0.0,235567390,231242000,4004000,249770875,30
1675273724,7063891,587092166,6286333,591261496,6296400,2820437,21074811,2526706450,292402,1671051777,45683,25881,4574199874,5047,20.47,8.28,8.03,0.38,0.0,682121786,670719000,10995000,696468327,30
1332084498,13277700,504489787,7034604,506782210,6987883,3618550,30053405,2024115159,458178,1330252155,31224,167055,3723942582,4042,17.36,6.75,6.56,0.32,0.0,549909459,512565000,36968000,564215243,30
3295206609,13826221,1193692271,9387998,1192699589,9386473,7787765,50246347,3859828083,673326,3284015960,51666,37347,8844595214,5609,32.62,13.39,13.0,0.61,0.0,1043154839,1032852000,9998000,1057372528,30
867527297,7165987,358308708,6250731,353954292,6263057,2544204,18493050,1286591378,216691,860443466,31794,13416,2518541474,4044,11.14,4.36,4.23,0.2,0.0,346158581,336855000,8996000,360350520,30
682025292,4609476,291950827,6058530,290419098,5982216,1947043,13183315,1094619036,92526,683327495,17796,12322,1955287127,3850,9.17,3.64,3.53,0.17,0.0,297977145,291694000,6014000,312214574,30
526540774,5034086,241433932,5481515,245400937,5446935,1392815,12420442,1064942741,209898,533544349,37701,118255,1544108205,2571,9.03,3.51,3.4,0.16,0.0,287477368,254113000,33014000,301890293,30
870637647,5105028,361760866,6621397,361987544,6591598,1914574,14645990,1396026816,307462,878821716,25090,19193,2515375168,2575,11.96,4.61,4.48,0.21,0.0,377114739,365830000,10994000,391395053,30
573127224,4490570,237660453,5192976,239569412,5236203,1876901,12108437,870017369,89275,589332383,34572,10407,1654481637,3456,7.63,2.96,2.89,0.14,0.0,235280550,228960000,5998000,249634782,30
807782917,12493208,286094466,6080975,285688699,6092356,3813842,26435032,1214732494,432988,808717981,64101,15578,2454769001,5408,10.37,4.12,3.99,0.21,0.0,328311586,317016000,11000000,342348986,30
405937222,4236496,177872478,4863527,175813299,4850078,1436795,10927316,673215714,79706,409939462,10132,7575,1212072640,2964,5.77,2.29,2.22,0.11,0.0,182436910,178120000,4002000,196592968,30
755841355,13302560,336421924,7753106,339952006,7754636,6289649,32580395,1339462529,610019,759698125,33152,18651,2260029157,5773,11.64,4.51,4.37,0.25,0.0,361565568,354325000,7006000,375751569,30
951421421,4857502,490974001,6273965,496605220,6260066,1722533,13125165,1483345706,281155,961696230,42726,113958,2790247432,2568,12.65,5.15,5.0,0.22,0.0,401188998,369818000,30984000,415435067,30
297439642,5237703,206156017,2440774,208372957,2458405,1596190,13159976,737697027,179085,301751210,21617,127668,1015760779,2089,6.23,2.4,2.33,0.12,0.0,199582298,157418000,41845000,213751724,30
1392025261,13297311,539828529,8242235,541929424,8235585,3303482,33534536,2239410542,443815,1396967862,60982,118470,4016436638,3848,19.09,7.66,7.45,0.34,0.0,603506429,569130000,34007000,617721452,30
810032392,4969558,354549263,5713222,357290664,5701917,1855349,13891868,1290585024,93997,814517163,23089,42819,2409170682,3655,11.07,4.38,4.26,0.2,0.0,348391514,341996000,5999000,362649151,30
1950997085,14136462,781525278,7816295,776520803,7763434,3677959,33142515,2712490385,558736,1947386831,49223,127942,5398984322,4037,23.49,9.24,8.98,0.42,0.0,732225223,691923000,39995000,746462086,30
1060041742,7610416,556408321,6717324,557658628,6680790,2389671,18858927,1722141658,336747,1064943535,52355,117297,3074607938,2571,15.05,5.92,5.74,0.26,0.0,465373508,441034000,23947000,479690313,30
1951531193,14132907,782309524,7866078,776645329,7815790,3629986,33185237,2711453944,559072,1945636878,53201,121968,5402107642,4037,23.41,9.22,8.95,0.41,0.0,731503340,683156000,48010000,745811646,30
1252575397,11619730,453235911,7282905,455374636,7254688,3267267,29249306,1750685956,342728,1257978953,21742,27207,3451633348,3847,14.75,5.94,5.77,0.28,0.0,470932580,459647000,10991000,485220511,30
1484005880,14310715,504420250,7277119,505663371,7243585,3555045,31928495,2146149813,507800,1488775698,35027,120906,3925191405,4040,18.18,7.18,6.97,0.34,0.0,581083611,543757000,36983000,595450964,30
785087190,10007921,252446002,9470179,253094191,9369760,4278534,23735940,1308274403,393813,790717655,24488,19636,2468699022,3988,11.23,4.48,4.36,0.23,0.0,355396435,349109000,6001000,369760891,30
976604738,11373310,598322090,6113979,600522947,6124302,3030667,31139223,2887212171,359375,986014230,40359,36361,3261170644,5540,24.47,9.45,9.17,0.43,0.0,779913046,764534000,14990000,794286097,30
454498863,4363035,203812126,4951687,207952557,4963476,1239628,11269391,708628553,78609,461467514,21596,9352,1300253127,2573,6.04,2.44,2.37,0.11,0.0,192085008,186816000,4995000,206330678,30
1175407791,10768237,386014564,7818083,385845542,7808541,3458708,26451725,1578541580,506038,1169203079,37444,17400,2916839230,3650,13.55,5.26,5.11,0.26,0.0,426038924,417735000,7994000,440206397,30
937377768,5757426,488799986,6079453,491899464,6036634,2044380,15250958,1445638229,228857,948516944,69157,117833,2664836031,2567,12.56,5.06,4.92,0.22,0.0,390948269,356622000,34059000,404987905,30
140122755,4784328,112949710,2125562,109156911,2093292,1290750,10879478,317029281,32022,134520069,4622,2802,580412091,1823,2.51,1.05,1.03,0.06,0.0,85627575,80178000,5011000,99923813,30
1320404384,14276611,562704876,7517684,566387950,7515549,4725171,30908952,2084758358,704915,1330646549,94597,123483,3999721569,5009,17.83,7.12,6.91,0.34,0.0,563360445,521158000,41932000,577844085,30
1088146916,5376506,555541316,6743734,558424700,6708321,1922808,15252135,1686959261,209432,1090613968,52846,118239,3090599713,3647,14.74,5.87,5.7,0.25,0.0,455502254,420162000,35013000,469682674,30
408817766,7312625,205679571,5492654,201246959,5475388,1572321,17011248,935374054,161320,403002207,106810,310402,1207107973,1697,7.96,3.09,3.0,0.15,0.0,252182832,217090000,34853000,266643577,30
561932026,7236385,251685617,5192653,246526087,5186295,2746259,18166616,866941206,182652,556095120,36140,13649,1606398992,5996,7.7,3.0,2.91,0.15,0.0,234601335,227306000,7009000,248785170,30
555979131,5254578,239920852,5179471,241835737,5176361,1970308,13139473,1050118531,207735,569728565,17913,111165,1575136961,4043,8.82,3.48,3.37,0.17,0.0,284238259,252992000,30999000,298546983,30
586598783,9927862,241763525,6632385,241820019,6626162,1197709,22105766,929368862,43424,589012779,29829,8757,1761702856,2288,8.0,3.26,3.17,0.14,0.0,250431375,242067000,8002000,264586452,30
843722076,10869829,346426059,4264552,350748118,4284366,4113539,25267580,1292242327,386516,855974348,43094,19261,2427794714,7822,11.19,4.41,4.28,0.22,0.0,349653365,336302000,13011000,363825873,30
459125920,15702129,257934516,4154279,259889404,4136640,5790503,32750861,944421885,941914,459867432,28461,13063,1554235507,3401,8.11,3.24,3.13,0.18,0.0,255353970,251967000,2999000,269552481,30
1031646435,5565344,529291391,6568525,531153526,6580452,1751292,15057528,1604436531,247300,1031804563,65333,124593,2909909667,3449,13.91,5.55,5.39,0.24,0.0,433734013,397313000,36028000,448026573,30
739945988,4980573,307375282,5759664,310416348,5706930,2064633,13941215,1077152221,91401,743099192,27218,11550,2053896507,3651,9.17,3.7,3.6,0.17,0.0,292071938,281784000,9992000,306293521,30
1103089951,10681126,432376105,6286526,428568948,6260935,5018723,27371656,1705463236,533806,1104012636,32113,30145,3144206455,6387,14.12,5.7,5.53,0.29,0.0,460793489,451498000,9009000,475247498,30
452116936,13463786,238423882,5270394,242166196,5216239,4467215,27108301,833908236,473580,462293776,19434,10390,1474473597,3403,7.13,2.85,2.76,0.16,0.0,224964735,216682000,7988000,239313651,30
517009140,11397708,248546483,6180776,249248287,6179543,7271074,27402857,1119951991,1852290,523258139,25633,19525,1968809205,6667,9.71,3.75,3.63,0.21,0.0,301880917,286558000,14976000,316036050,30
2165795240,7272821,902818964,6623397,904983541,6573698,465794,20649293,2430186560,165193,2166605376,187704,308162,6070519957,355,21.3,8.76,8.52,0.34,0.0,655585012,619089000,36005000,669788940,30
1425773853,5102071,677137051,7846516,677003881,7819261,1426332,16504820,2194642278,189929,1439828444,52466,129715,4127497954,2569,18.78,7.56,7.34,0.32,0.0,592037966,558573000,32974000,606405862,30
768580975,4349323,362830496,5702647,366173424,5660628,2034446,13676041,1468054748,235286,772396283,62521,112870,2408042260,2574,12.57,4.92,4.77,0.22,0.0,396730871,367466000,29036000,411000553,30
58563634,298378,20264328,192056,19932268,178551,479493,1371940,106382296,27253,51982423,12031,2156,139754352,2176,0.89,0.34,0.32,0.02,0.0,28945984,24554000,4092000,43075592,31
11439946,157068,8974642,115748,8891136,110871,75294,648205,78838103,3256,11299963,974,1148,56745408,138,0.65,0.25,0.23,0.01,0.0,21308114,21011000,0,35480016,31
283409246,310229,100797993,6785466,100860083,6783377,112024,3046401,792969010,21295,284151353,3652,5951,794196603,132,6.18,2.39,2.31,0.11,0.0,218162395,216830000,999000,232114689,31
424482161,350584,145306316,7053566,145604817,7070703,158237,3330793,856945713,22370,427002304,3942,6186,1159227121,139,6.8,2.73,2.66,0.12,0.0,230795027,228324000,1994000,245020451,31
3454597120,10631059,1647426900,12846616,1646734326,12839242,11539089,37898181,6214219521,277696,3461351065,259887,83156,10497500941,42080,52.74,20.99,20.36,0.97,0.0,1683112532,1618237000,63969000,1697414672,31
3213823013,9412720,1502428503,12723415,1503215763,12757773,10098565,33555364,5647945731,241964,3218684943,209648,83075,9673923229,35930,47.7,19.13,18.56,0.87,0.0,1528082507,1469336000,57973000,1542076109,31
244226377,292069,61309912,7036445,61298573,6992360,195764,3102582,792972366,20380,245340446,3582,5765,619016914,126,6.15,2.31,2.23,0.11,0.0,215914951,214467000,997000,230062290,31
280244814,279149,97333834,6409641,97195720,6405972,124122,2845229,740366399,19072,280430336,3221,5055,730738992,133,5.76,2.32,2.25,0.1,0.0,200020389,198694000,998000,214249476,31
12447233,238880,45577739,6441310,45815719,6481925,117925,2052661,508729965,13461,11599075,2375,3638,173928865,132,3.81,1.47,1.41,0.07,0.0,137322647,136027000,1000000,151566235,31
147927342,274572,48675597,6852128,48759502,6869881,106139,2525225,648504196,17790,148425604,3137,5146,382524798,132,4.93,1.9,1.83,0.09,0.0,176316001,174914000,999000,190670505,31
8870252,445326,8908741,92414,8311362,82657,312873,1116268,88490101,6181,8201527,10421,3148,57126898,2180,0.72,0.26,0.25,0.01,0.0,23857475,19462000,4097000,38124498,31
124223466,182921,76133563,6785804,75959210,6769041,100213,1508839,332702946,9110,124493191,1687,2860,574367785,133,2.55,1.02,0.99,0.05,0.0,90313354,89026000,1000000,104139991,31
305964695,375318,113096848,6817946,113150218,6840502,145109,4210725,1148857971,29007,306621709,4206,7313,898967392,133,8.98,3.52,3.4,0.16,0.0,310536880,309194000,1000000,324540814,31
199584740,287134,59022793,7044306,59106319,7055950,115937,2796222,723087365,18071,200430259,2675,4960,497914230,129,5.75,2.26,2.19,0.1,0.0,195823875,193484000,1994000,209878781,31
559096094,338111,337011803,4051676,337142293,4056016,131150,3696843,951815125,26651,559073353,4581,35592,1624384865,135,7.74,3.22,3.12,0.13,0.0,257475012,256236000,1000000,271503811,31
216326186,300392,80809026,6485204,80835775,6464032,133159,2769924,698904945,18369,216889654,3027,5421,613548177,134,5.65,2.22,2.15,0.1,0.0,188991723,187739000,998000,202973066,31
305832703,339138,102003372,6913090,101956602,6890840,193974,3038917,811756422,19746,306210789,3537,5601,794669986,134,6.35,2.58,2.5,0.11,0.0,219887010,218428000,997000,233973806,31
324886022,269753,110839148,6725629,110804504,6756350,126081,2389475,606326829,15880,326479450,2805,4549,1040927503,134,4.93,2.06,2.0,0.08,0.0,163816415,162488000,1003000,177949138,31
399798164,387590,143073062,7332895,143181988,7349575,152041,4334397,1195503758,29200,400042282,4537,7924,1072503325,134,9.3,3.75,3.64,0.17,0.0,322892392,321639000,1001000,336925143,31
233945763,167232,80446038,6860763,80745007,6845486,109430,1872245,429536614,11902,232978745,2212,3142,624311253,133,3.47,1.43,1.38,0.06,0.0,116623025,116291000,0,130780857,31
106395618,115905,32974109,132186,33000216,132245,98721,1010402,153643069,6502,106473987,774,1244,296265912,133,1.26,0.51,0.5,0.02,0.0,42172124,40873000,996000,56259218,31
103806596,147821,37032593,139313,37118559,139426,107887,1086008,169123293,6617,105432659,1525,1967,304763220,134,1.43,0.54,0.52,0.03,0.0,45359748,43096000,2004000,59297337,31
194455352,260056,64254867,6987618,64351904,7000680,142988,2834851,727350312,18707,195561268,3055,4789,511789280,134,5.77,2.23,2.17,0.1,0.0,196094403,195818000,0,209940570,31
38383235,233596,74119048,6214100,73983021,6197678,114094,2239817,536269894,15029,38162406,2479,3912,282493698,135,4.1,1.61,1.55,0.07,0.0,145554375,144298000,1002000,159529062,31
292189332,570355,97855054,12644834,97476870,12715821,421904,3212408,704641740,24063,290491732,9545,11479,779197486,2178,5.91,2.33,2.26,0.1,0.0,190671374,187381000,3006000,204963166,31
165352432,428966,50251137,6657993,51151579,6558710,514138,3123988,686663408,31505,164163226,17846,22479,469726928,4041,5.35,2.05,1.98,0.1,0.0,185283573,175961000,8998000,199433196,31
168806665,269587,48597779,6889845,48754274,6886285,171701,2618830,650534380,17334,170266342,3140,5099,385220418,128,4.91,1.91,1.84,0.09,0.0,175063054,173755000,998000,189207200,31
213781329,255900,58388948,5549127,58412049,5550242,127739,2589974,636166752,17138,213955115,2959,3968,442756144,133,4.87,1.92,1.85,0.09,0.0,172438165,171174000,1001000,186612624,31
170000236,235142,48729764,6991379,48662700,7012561,206778,2623113,640750920,18406,170100050,3209,5249,380629028,127,4.93,1.91,1.84,0.09,0.0,173496080,172217000,1001000,187749037,31
189272194,270896,59081689,7023667,59143556,7017259,154208,2814154,697679489,19200,189798635,3124,5152,487865312,134,5.32,2.09,2.02,0.1,0.0,188669790,187389000,1002000,202810237,31
48508771,219035,78326594,6607494,78280087,6599129,124512,2203956,531337426,14453,48756380,2729,3538,288109316,134,4.07,1.6,1.54,0.07,0.0,143739619,141367000,1991000,157688911,31
210894447,296855,69730219,7064512,69885853,7108074,137785,2860035,707842251,19771,211505245,3504,5907,606377875,133,5.5,2.2,2.13,0.1,0.0,190871346,190579000,0,205242451,31
75405266,219231,31356634,1664009,31279980,1665286,109752,1910350,441060770,12326,75606750,2624,3147,183409250,133,3.33,1.29,1.25,0.06,0.0,119090975,116827000,1997000,133168890,31
211194765,280392,81378698,6641379,81489890,6654906,122970,2726152,700792889,18525,211996725,3152,5132,535541582,132,5.56,2.18,2.11,0.1,0.0,189318240,188080000,1000000,203366996,31
213475175,282583,58550868,5550849,58565764,5555466,214488,2628387,638600587,16381,214350805,3115,4549,442460881,132,5.0,1.9,1.84,0.09,0.0,172982475,171689000,998000,187205815,31
948868393,585189,420034051,7484632,420183623,7488323,278322,6900410,2015515820,56628,950702120,6753,17702,2909872649,129,15.95,6.46,6.27,0.28,0.0,543232697,541760000,999000,557525652,31
815474381,559452,379583501,18363526,379358952,18367057,164244,6072770,1746766922,43200,815779750,6976,11841,2739098661,137,14.11,5.93,5.77,0.24,0.0,472022787,471702000,0,486285557,31
360420260,480678,131980688,6674437,132003980,6668481,214688,5044424,1380310812,36066,360835381,7060,10561,858837885,135,10.85,4.27,4.14,0.19,0.0,372628672,371029000,1000000,386760483,31
2552098729,1198339,1155027112,12282006,1155265072,12289571,313143,14298682,4283808856,106130,2553705562,18959,28446,7451548553,133,36.46,14.47,14.06,0.59,0.0,1158735043,1158328000,0,1172848257,31
195798467,306781,67934352,6546994,67914308,6579186,193991,2787843,707258249,18342,195228044,3128,5113,536747112,133,5.57,2.11,2.04,0.1,0.0,191322933,190012000,1000000,205236737,31
460298202,334418,181434885,7275364,181452110,7266349,134602,3746329,997081374,26780,459146134,4790,7358,1348434473,128,8.0,3.33,3.23,0.14,0.0,270466196,270145000,0,284710560,31
159939115,341577,49472862,7886569,49733818,7895495,182550,3154472,692187620,17409,162369405,7754,4304,418635948,132,5.29,2.02,1.94,0.1,0.0,182875411,181555000,1003000,197077045,31
350980483,324691,153804876,7298909,154262503,7293280,150414,2944475,742652386,19855,352787428,3502,5350,1233279426,132,6.11,2.46,2.38,0.11,0.0,204333028,203954000,0,218582468,31
350791030,312444,154416255,7328308,154316905,7350313,124822,2946797,768013533,19675,352478613,3462,5662,1231478438,136,6.38,2.63,2.55,0.11,0.0,207354676,206101000,1000000,221484699,31
200317782,283684,69503141,7157119,69474131,7166593,119657,2640512,672059936,17063,201874751,2713,4603,420649784,132,5.09,1.98,1.92,0.09,0.0,181899877,180628000,997000,196040994,31
351510271,280062,154287343,7186716,154279472,7192530,129420,2866707,723863074,18643,351501114,3076,4973,1189812393,132,5.93,2.48,2.41,0.1,0.0,195432821,192169000,2987000,209712730,31
350529959,299356,154219424,7198193,154480739,7163706,185606,3046419,745472474,19828,352102429,3486,5572,1228847367,134,6.08,2.57,2.5,0.1,0.0,201151955,200866000,0,215350874,31
353617375,286534,159429282,7156035,159262101,7128141,113105,2859953,745496366,18707,354891719,3546,5493,1299871103,136,6.21,2.56,2.48,0.1,0.0,202357735,201059000,1000000,216559513,31
350769079,302552,154273936,7346423,154043296,7401712,116951,2814087,764743272,18912,352400490,3636,5652,1231457134,136,6.28,2.62,2.54,0.11,0.0,206685975,206414000,0,220572658,31
201518377,290835,70012798,6971068,69906766,6935867,200905,2791802,688184485,18679,200916014,3213,4352,523332026,133,5.38,2.15,2.08,0.1,0.0,186414661,185140000,1000000,200724265,31
281068534,219491,98673774,6202124,98600937,6199748,114223,2098487,514346829,13163,281448618,2072,3771,850186802,133,4.13,1.72,1.67,0.07,0.0,138153726,137930000,0,152058180,31
297867482,303411,102645027,6742711,102644440,6772003,146838,3225832,839827866,22327,297292356,3356,5390,816786590,134,6.75,2.69,2.6,0.12,0.0,227246664,227017000,0,241350362,31
350251447,255585,123115084,7273387,122985175,7278201,133484,2422238,573215381,14783,350369168,2650,4547,917812450,130,4.61,1.95,1.9,0.08,0.0,154879180,152604000,1994000,169125900,31
2078430744,1425740,1022392349,41268081,1022401375,41252833,332573,17518866,5174735792,139501,2082174598,27560,33888,5442750668,135,41.8,17.28,16.77,0.71,0.0,1396918592,1394527000,1999000,1411105370,31
270040987,229118,115269319,4367138,114767380,4402699,99921,1846840,456948235,11244,273186658,2192,3312,722428860,132,3.6,1.47,1.43,0.06,0.0,123460707,122197000,1001000,137612098,31
301043451,305437,130417419,6881383,130545930,6887332,141913,3499493,924104838,24615,301099154,4010,7413,766097103,127,7.4,2.98,2.89,0.13,0.0,249606000,249329000,0,263971614,31
216879431,264360,70236566,6502702,70143128,6470373,119836,2702183,688047509,17799,216849065,2973,4397,597428867,137,5.36,2.14,2.06,0.09,0.0,186075052,183814000,1997000,200242041,31
294566920,322227,101307496,6758922,101436380,6706318,173000,3064503,809212240,21085,295466880,3501,6350,804785327,134,6.49,2.58,2.5,0.11,0.0,218764702,217533000,1002000,232865983,31
351138326,295790,154106710,7308282,154025165,7347030,110660,2830610,759172506,20079,352265559,3219,5361,1231730255,136,6.2,2.6,2.52,0.11,0.0,205174424,203916000,999000,218919367,31
3116612,89845,2822522,45039,2828622,34083,47613,319682,37406254,954,2358596,511,737,22008966,65,0.29,0.1,0.1,0.01,0.0,10033462,9826000,0,23963431,31
281419169,341058,100669245,6681550,100812955,6715549,231352,3347858,850683373,23164,279582092,3460,5923,825539581,127,6.63,2.65,2.56,0.12,0.0,231325382,229988000,999000,245420572,31
59117190,135679,19952064,194689,19917249,195101,101462,950398,153180595,4251,59990969,526,946,167348302,131,1.2,0.48,0.46,0.02,0.0,41435496,39219000,1960000,55467755,31
813880217,513697,420253627,7221306,420047237,7234485,239117,5512053,1500198292,38880,812828066,6638,9418,3102939091,135,12.52,5.26,5.11,0.21,0.0,406895864,405536000,998000,421103424,31
222388028,293282,71250020,7099676,71258981,7120891,143004,2693587,722293233,17941,223469362,2448,5275,522164586,135,5.68,2.24,2.17,0.1,0.0,194773063,192501000,1994000,208859762,31
203610618,274562,60548380,7171107,60878790,7041969,257120,2857898,702402386,21308,206558909,7386,5776,490606524,1111,5.37,2.13,2.06,0.1,0.0,189446287,186152000,3002000,203730505,31
296176120,295724,102498079,6860598,102649647,6883682,314144,3459745,836725600,21831,295845009,3200,5753,811694562,132,6.68,2.66,2.58,0.12,0.0,225105399,224483000,0,239184105,31
295534918,325473,112096362,7066331,112161940,7067071,157860,3497724,884689653,23099,296075807,3625,6355,860554297,135,6.99,2.86,2.77,0.12,0.0,239267248,236985000,1999000,253130833,31
201062849,273184,70396408,7058181,70441296,7040940,112801,2637959,671494967,15835,201849580,2542,4188,521110860,128,5.19,2.0,1.93,0.09,0.0,181474214,180223000,1001000,195721762,31
362105864,351679,138533256,7123693,138737716,7138040,165347,3558687,979033663,24230,363911899,4543,6806,1045566260,133,7.74,3.15,3.05,0.14,0.0,263975080,262687000,998000,278148491,31
212679751,315521,71001169,7155977,71108321,7176740,180128,2803362,705577120,18260,212513599,3128,4890,531117302,135,5.63,2.21,2.15,0.1,0.0,190724076,189255000,1001000,204997143,31
113501754,167252,38841865,379090,38821516,376622,97775,1038430,201058593,4932,116416748,840,1668,314664661,128,1.59,0.65,0.64,0.03,0.0,54446938,53166000,1003000,68456939,31
221447355,293798,70947279,7912964,71021746,7916469,121009,2851598,766258630,19421,222049508,3489,6106,528582922,132,6.08,2.39,2.32,0.11,0.0,207134652,204878000,1998000,221079047,31
190135096,330478,70621431,6834048,70631785,6838755,220731,2834951,720723930,18796,190712223,3124,5740,503023795,134,5.71,2.23,2.15,0.1,0.0,194625157,194150000,0,208888728,31
398117917,2202382,191855576,201524,194585196,201533,796793,5256537,733936709,40846,400908985,38386,16591,1203626965,6150,6.16,2.39,2.32,0.11,0.0,198948572,187592000,11034000,213054307,31
36193529,142655,11949041,71963,11957731,64680,91177,637303,89980830,2518,37626418,798,965,102693864,132,0.74,0.28,0.28,0.01,0.0,24053569,21815000,1983000,37942785,31
216693126,279172,70185174,6582433,70153339,6582079,132935,2746449,685700228,18409,217305538,2947,4926,564911280,130,5.38,2.13,2.07,0.1,0.0,184966300,184679000,0,199146488,31
151265996,277538,50763351,7117461,50854996,7119001,153903,2768460,673498223,17160,151843657,2767,4950,379060939,133,5.22,2.01,1.94,0.09,0.0,182076727,180859000,999000,196103092,31
211307055,262916,69597028,6876973,69640362,6871285,134111,2684862,688664005,17738,211764554,2435,4296,581534786,134,5.46,2.12,2.06,0.1,0.0,186002030,185690000,0,200379997,31
293948081,321747,100810187,6650699,100812956,6684665,122378,3211939,867809347,20878,294669588,3759,5771,803770694,128,6.83,2.74,2.65,0.12,0.0,234417346,233176000,1000000,248357457,31
20166097,150248,6733473,107396,6599086,101276,79736,625574,86952051,2875,20755408,790,1003,72923738,133,0.68,0.26,0.25,0.01,0.0,23408951,22174000,1007000,37302821,31
