@relation problema
@attribute 'pkg' real
@attribute 'cores' real
@attribute 'ram' real
@attribute 'gpu' real
@attribute 'psys' real
@attribute 'duration_time' real
@attribute 'user_time' real
@attribute 'system_time' real
@attribute 'class' {0,1,2,3,4,5,6,7,8,9,10,11,12,13,14,15,16,17,18,19,20,21,22,23,24,25,26,27,28,29,30,31}
@data
1.43,1.38,0.07,0.00,3.98,134314322,97312000,36740000,0
1.56,1.51,0.07,0.00,3.85,131839389,104789000,26945000,0
1.52,1.48,0.07,0.00,3.98,132062293,102055000,30016000,0
0.09,0.08,0.01,0.00,0.24,7277024,5178000,2071000,0
0.97,0.93,0.05,0.00,2.53,88195767,55113000,33068000,0
1.51,1.47,0.07,0.00,3.96,131628736,108675000,22931000,0
1.50,1.46,0.07,0.00,3.98,131318124,106435000,24868000,0
0.31,0.31,0.01,0.00,0.77,25945697,24928000,997000,0
0.90,0.87,0.05,0.00,2.57,88381467,52633000,35750000,0
0.30,0.29,0.01,0.00,0.78,25297844,22272000,3037000,0
0.96,0.92,0.05,0.00,2.60,89063293,58037000,31019000,0
0.30,0.30,0.01,0.00,0.77,25496762,25469000,0,0
1.48,1.43,0.07,0.00,3.95,131051915,101031000,30009000,0
1.51,1.46,0.07,0.00,3.82,130892918,96814000,33935000,0
1.42,1.38,0.07,0.00,3.91,132250878,100448000,31825000,0
0.30,0.30,0.01,0.00,0.77,25294355,24275000,1011000,0
1.48,1.43,0.07,0.00,3.97,130888445,96798000,33929000,0
0.94,0.90,0.05,0.00,2.57,87721567,54448000,33273000,0
1.50,1.46,0.07,0.00,3.89,131142134,99102000,32033000,0
0.90,0.86,0.05,0.00,2.59,89532481,53707000,35805000,0
0.16,0.15,0.01,0.00,0.40,14362984,12990000,999000,1
1.87,1.79,0.11,0.00,5.36,206123609,204983000,999000,1
1.58,1.53,0.08,0.00,4.29,157414644,157406000,0,1
0.44,0.43,0.02,0.00,1.28,47808886,46807000,995000,1
0.45,0.43,0.03,0.00,1.32,47850272,46823000,996000,1
0.42,0.41,0.03,0.00,1.29,47041287,46918000,0,1
0.67,0.64,0.04,0.00,1.87,68372723,67380000,1005000,1
0.23,0.23,0.01,0.00,0.65,23550215,21459000,1950000,1
0.98,0.94,0.06,0.00,2.97,118942560,117854000,1007000,1
0.43,0.42,0.02,0.00,1.27,47170714,47170000,0,1
0.25,0.25,0.01,0.00,0.69,24426233,24412000,0,1
0.48,0.46,0.03,0.00,1.34,47760702,45762000,1989000,1
3.37,3.24,0.19,0.00,9.73,377327339,375368000,1996000,1
0.12,0.12,0.01,0.00,0.34,12819708,10834000,1969000,1
0.46,0.44,0.02,0.00,1.29,45804113,44683000,992000,1
1.84,1.78,0.10,0.00,5.12,194656018,194661000,0,1
0.47,0.45,0.03,0.00,1.35,49212063,49087000,0,1
0.41,0.40,0.02,0.00,1.23,46771902,45772000,995000,1
3.50,3.36,0.21,0.00,10.27,403929800,402921000,1002000,1
0.28,0.26,0.01,0.00,0.78,27990027,26993000,999000,1
0.86,0.84,0.04,0.00,2.16,67743610,66377000,1005000,2
0.40,0.39,0.02,0.00,1.01,33929639,30775000,2978000,2
0.80,0.77,0.03,0.00,1.97,63617944,60625000,2981000,2
0.41,0.40,0.02,0.00,1.05,34801205,30813000,3975000,2
0.81,0.79,0.04,0.00,2.01,66072955,64024000,2000000,2
0.79,0.76,0.03,0.00,1.98,63997884,63989000,0,2
0.39,0.38,0.02,0.00,1.00,32815217,27805000,4965000,2
0.31,0.30,0.02,0.00,0.96,36933291,35927000,997000,2
0.39,0.38,0.02,0.00,1.01,33980341,30964000,2996000,2
0.81,0.78,0.04,0.00,2.07,65978402,63956000,1998000,2
0.40,0.39,0.02,0.00,1.05,35150992,35152000,0,2
0.79,0.77,0.03,0.00,2.02,64229184,62212000,2006000,2
0.79,0.76,0.03,0.00,2.00,64482518,63460000,1007000,2
0.83,0.81,0.04,0.00,2.12,68174162,60085000,7880000,2
0.39,0.38,0.02,0.00,1.02,34770704,31785000,2979000,2
0.80,0.78,0.03,0.00,2.02,64198533,62147000,2004000,2
0.80,0.78,0.03,0.00,2.07,65715861,62623000,2982000,2
0.79,0.76,0.03,0.00,1.98,63955661,63964000,0,2
0.44,0.42,0.02,0.00,1.13,37538236,33567000,3949000,2
0.39,0.37,0.02,0.00,1.01,33654363,32624000,1019000,2
1.31,1.27,0.08,0.00,3.34,113048355,108626000,4023000,3
1.84,1.77,0.10,0.00,4.55,154500468,153474000,1003000,3
2.47,2.39,0.14,0.00,6.45,234493419,172427000,61794000,3
1.09,1.06,0.07,0.00,2.83,98230465,97112000,1001000,3
1.75,1.69,0.09,0.00,4.32,147795901,140760000,6988000,3
3.14,3.03,0.16,0.00,8.37,285961074,217946000,67983000,3
3.19,3.09,0.17,0.00,8.42,292522963,238425000,53870000,3
2.45,2.37,0.14,0.00,6.57,233860297,182645000,51181000,3
3.14,3.03,0.17,0.00,8.56,292066217,224833000,66950000,3
1.17,1.13,0.07,0.00,3.00,103702865,100600000,2988000,3
3.21,3.11,0.16,0.00,8.06,287145818,219002000,68000000,3
2.47,2.39,0.14,0.00,6.44,235535279,162586000,72814000,3
1.01,0.98,0.07,0.00,2.65,93825749,92405000,1004000,3
3.24,3.13,0.16,0.00,8.17,291592475,236579000,54902000,3
1.11,1.07,0.07,0.00,2.86,99739048,95688000,4029000,3
3.11,3.01,0.16,0.00,8.40,288960524,239943000,48988000,3
1.11,1.07,0.07,0.00,2.90,101956692,97944000,4038000,3
2.52,2.43,0.14,0.00,6.49,237271558,182124000,55037000,3
3.39,3.27,0.18,0.00,8.54,307191611,259145000,48027000,3
0.97,0.93,0.05,0.00,2.52,87332865,78200000,9023000,3
2.04,1.95,0.18,0.00,6.16,234506422,91427000,10274000,4
2.80,2.71,0.17,0.00,6.73,228767446,131151000,10231000,4
1.97,1.90,0.14,0.00,4.94,170920525,73152000,12192000,4
2.99,2.90,0.18,0.00,7.16,230658660,131350000,10026000,4
2.02,1.95,0.15,0.00,5.14,175921623,80431000,9048000,4
2.81,2.72,0.18,0.00,7.10,235245433,136507000,11956000,4
1.14,1.09,0.10,0.00,3.22,111360008,104270000,7018000,4
2.01,1.94,0.14,0.00,5.04,172908366,80929000,5994000,4
1.29,1.24,0.13,0.00,3.59,126404458,118419000,7960000,4
1.93,1.88,0.13,0.00,4.92,170727495,165541000,5016000,4
1.95,1.88,0.14,0.00,4.99,173608226,73257000,14049000,4
1.92,1.86,0.14,0.00,5.00,170326961,76100000,8010000,4
1.89,1.83,0.14,0.00,4.92,168075699,69458000,12079000,4
1.22,1.17,0.11,0.00,3.31,116832455,111810000,4991000,4
2.03,1.96,0.14,0.00,5.06,172589276,75895000,9986000,4
4.67,4.51,0.35,0.00,12.09,429274771,327835000,14669000,4
1.88,1.82,0.13,0.00,4.73,161699455,68175000,6883000,4
1.96,1.90,0.14,0.00,4.97,171752105,73157000,12025000,4
2.71,2.64,0.17,0.00,6.93,231734209,133596000,12053000,4
1.85,1.79,0.13,0.00,4.88,163953271,156925000,6996000,4
3.00,2.90,0.19,0.00,7.75,258904552,131409000,11205000,5
2.82,2.73,0.18,0.00,7.11,237811665,142932000,7996000,5
1.61,1.55,0.16,0.00,4.40,156018962,144856000,10989000,5
1.95,1.88,0.14,0.00,5.05,173249601,77924000,8991000,5
2.80,2.70,0.17,0.00,6.91,233959353,134055000,14005000,5
1.95,1.88,0.14,0.00,5.04,171827742,73959000,11196000,5
1.96,1.89,0.14,0.00,5.06,169936762,69957000,14990000,5
3.47,3.35,0.23,0.00,8.62,291387841,175587000,28036000,5
2.78,2.68,0.18,0.00,7.06,235224746,141324000,7346000,5
1.93,1.86,0.14,0.00,4.94,170835411,78460000,6035000,5
1.94,1.87,0.15,0.00,5.06,177349426,81809000,8979000,5
2.89,2.79,0.24,0.00,7.66,272302240,172285000,13021000,5
1.61,1.55,0.16,0.00,4.46,159048200,147952000,11071000,5
1.94,1.88,0.14,0.00,5.13,174160625,76679000,11098000,5
2.13,2.04,0.25,0.00,6.26,232481180,218370000,14023000,5
2.19,2.12,0.18,0.00,5.85,202753065,109632000,6976000,5
1.99,1.92,0.15,0.00,5.23,178358793,80334000,11046000,5
2.72,2.63,0.17,0.00,7.02,231599222,138070000,7003000,5
1.61,1.54,0.15,0.00,4.45,157919310,149844000,7991000,5
2.66,2.57,0.17,0.00,7.03,231512554,135087000,10182000,5
2.81,2.69,0.19,0.00,7.39,265894683,207457000,58128000,6
3.60,3.48,0.23,0.00,9.76,353092087,342059000,11001000,6
0.77,0.76,0.04,0.00,2.04,73559946,69568000,3975000,6
4.10,3.97,0.23,0.00,10.46,347107391,210308000,19027000,6
0.99,0.96,0.04,0.00,2.48,80132816,71991000,7999000,6
3.12,3.00,0.25,0.00,8.62,303812094,294793000,8993000,6
2.05,1.98,0.11,0.00,5.14,170492262,73517000,10783000,6
1.13,1.09,0.06,0.00,2.89,96559803,90564000,5971000,6
2.62,2.54,0.11,0.00,6.41,202398613,198328000,4006000,6
1.04,1.00,0.05,0.00,2.63,86198623,84105000,2002000,6
0.95,0.92,0.05,0.00,2.58,88909480,73910000,14981000,6
0.97,0.94,0.05,0.00,2.45,80250731,75214000,5014000,6
3.10,3.01,0.14,0.00,7.81,258903597,250890000,7996000,6
3.38,3.25,0.24,0.00,9.51,322356943,302205000,20013000,6
1.42,1.37,0.07,0.00,3.80,132115312,124083000,8005000,6
1.40,1.35,0.09,0.00,3.59,117223672,112195000,5008000,6
2.51,2.44,0.10,0.00,6.19,197235009,192111000,5002000,6
2.54,2.47,0.10,0.00,6.19,197982239,192962000,4999000,6
2.12,2.04,0.12,0.00,5.27,175473549,80164000,9018000,6
2.51,2.45,0.11,0.00,6.30,200726651,198708000,1997000,6
1.43,1.38,0.06,0.00,3.35,111088848,110714000,0,7
1.28,1.24,0.09,0.00,3.47,121830239,970000,5457000,7
4.19,4.02,0.33,0.00,10.34,347014171,188386000,158324000,7
1.64,1.59,0.07,0.00,4.00,138323616,138317000,0,7
1.32,1.27,0.08,0.00,3.38,112346723,9089000,17168000,7
2.92,2.80,0.19,0.00,7.21,248234614,117080000,131090000,7
3.43,3.31,0.21,0.00,8.82,293367446,178206000,115133000,7
3.73,3.57,0.32,0.00,9.50,313231482,145957000,166951000,7
3.75,3.58,0.31,0.00,9.29,312254280,152997000,158997000,7
1.53,1.49,0.06,0.00,3.75,118333978,115345000,2983000,7
0.70,0.69,0.03,0.00,1.72,57277178,56250000,1004000,7
3.27,3.14,0.21,0.00,8.53,280011250,148005000,132004000,7
1.08,1.05,0.04,0.00,2.57,84720907,83706000,996000,7
4.18,4.00,0.34,0.00,10.27,343883074,177782000,165796000,7
2.25,2.19,0.10,0.00,5.73,185932881,184670000,998000,7
4.23,4.05,0.34,0.00,10.61,362470068,216667000,145776000,7
3.71,3.54,0.31,0.00,9.19,308969173,150686000,157672000,7
3.62,3.45,0.31,0.00,9.41,309006665,155872000,152874000,7
0.98,0.95,0.05,0.00,2.63,95824538,95853000,0,7
0.80,0.77,0.03,0.00,1.95,63767401,61765000,1992000,7
2.38,2.30,0.14,0.00,5.91,198234550,185781000,11921000,8
2.16,2.10,0.12,0.00,5.54,184725855,175628000,8981000,8
3.13,3.01,0.21,0.00,8.21,279300704,208202000,71069000,8
1.02,0.99,0.07,0.00,2.58,88430552,80460000,7946000,8
4.33,4.19,0.23,0.00,11.18,372330657,297239000,75060000,8
2.55,2.47,0.14,0.00,6.20,212303851,207269000,5006000,8
1.46,1.40,0.12,0.00,3.59,118480610,111420000,7026000,8
1.51,1.46,0.09,0.00,3.70,124086913,116052000,8003000,8
1.84,1.78,0.16,0.00,4.65,153890793,134796000,18971000,8
1.64,1.59,0.10,0.00,4.05,139566594,128506000,10957000,8
1.89,1.84,0.12,0.00,4.74,157619834,147521000,9967000,8
1.88,1.82,0.12,0.00,4.64,157258783,146235000,11017000,8
1.75,1.68,0.15,0.00,4.36,144698962,136599000,7976000,8
4.99,4.83,0.25,0.00,11.98,410992556,408951000,1999000,8
1.79,1.73,0.11,0.00,4.44,152051034,148005000,4000000,8
2.40,2.31,0.16,0.00,6.42,213135498,201083000,12005000,8
1.43,1.39,0.10,0.00,3.76,123770685,114708000,8977000,8
4.44,4.30,0.22,0.00,10.79,375144160,316006000,59001000,8
1.75,1.68,0.11,0.00,4.57,148424746,139385000,9024000,8
1.45,1.40,0.10,0.00,3.59,121849102,116773000,4990000,8
0.09,0.08,0.01,0.00,0.41,17586180,12446000,4786000,9
0.03,0.03,0.00,0.00,0.12,4490351,2664000,1776000,9
0.57,0.56,0.02,0.00,1.44,45287536,39133000,6020000,9
0.03,0.03,0.00,0.00,0.09,3185936,2138000,1069000,9
0.24,0.23,0.01,0.00,0.59,18737502,14798000,3946000,9
1.22,1.16,0.09,0.00,3.57,129574726,1032000,5164000,9
0.15,0.14,0.01,0.00,0.45,16324608,9603000,6722000,9
0.12,0.12,0.01,0.00,0.30,10127071,9100000,1011000,9
0.48,0.47,0.02,0.00,1.30,44265471,42245000,2011000,9
0.15,0.14,0.01,0.00,0.36,12496155,8324000,4162000,9
0.23,0.22,0.01,0.00,0.55,16779636,12825000,3946000,9
0.23,0.22,0.01,0.00,0.56,17330952,15402000,1925000,9
0.49,0.48,0.02,0.00,1.26,40512700,40507000,0,9
0.04,0.04,0.00,0.00,0.12,3606069,1803000,1803000,9
0.15,0.15,0.01,0.00,0.37,12226084,10191000,2038000,9
0.15,0.14,0.01,0.00,0.37,11535927,9615000,1923000,9
0.50,0.49,0.02,0.00,1.23,40217180,38202000,2010000,9
0.14,0.14,0.01,0.00,0.34,11449395,9369000,2082000,9
0.20,0.19,0.01,0.00,0.48,16049752,16048000,0,9
0.05,0.05,0.00,0.00,0.14,4869130,4824000,0,9
0.78,0.75,0.06,0.00,2.04,69035853,59848000,8830000,10
1.10,1.07,0.05,0.00,2.71,90053580,86027000,4001000,10
1.48,1.43,0.09,0.00,3.58,121497355,115348000,6018000,10
0.93,0.90,0.08,0.00,2.39,82055144,75023000,7002000,10
0.82,0.78,0.07,0.00,2.15,72877074,60864000,11973000,10
1.46,1.41,0.09,0.00,3.65,119404204,110334000,9027000,10
1.28,1.22,0.12,0.00,3.37,116686401,105693000,10968000,10
1.13,1.09,0.05,0.00,2.76,87440468,78476000,8940000,10
1.17,1.14,0.05,0.00,2.74,92054536,89030000,3001000,10
1.50,1.44,0.09,0.00,3.80,124280448,116244000,8016000,10
2.03,1.97,0.15,0.00,5.06,175678486,160678000,14970000,10
1.90,1.84,0.18,0.00,5.13,183872918,173793000,10045000,10
0.48,0.46,0.03,0.00,1.34,48761819,42757000,5966000,10
1.51,1.47,0.09,0.00,3.64,121968544,117918000,4031000,10
1.35,1.30,0.10,0.00,3.52,125010985,109028000,16004000,10
1.14,1.11,0.05,0.00,2.76,91139271,87103000,4004000,10
1.10,1.07,0.06,0.00,2.79,93780926,87779000,5984000,10
0.49,0.48,0.03,0.00,1.23,41427388,34336000,7069000,10
0.51,0.50,0.03,0.00,1.37,48107693,43084000,5009000,10
0.86,0.83,0.07,0.00,2.24,76117309,61073000,15018000,10
0.61,0.59,0.04,0.00,1.79,71500489,69188000,2005000,11
0.75,0.72,0.03,0.00,1.84,62750958,61749000,995000,11
0.60,0.59,0.03,0.00,1.58,58805537,57807000,996000,11
0.67,0.66,0.03,0.00,1.72,57244051,56238000,1004000,11
0.66,0.65,0.03,0.00,1.61,55699278,54578000,992000,11
0.65,0.63,0.03,0.00,1.65,56963557,55891000,998000,11
0.63,0.61,0.03,0.00,1.60,54312374,53299000,1005000,11
0.58,0.57,0.03,0.00,1.50,51853934,50762000,995000,11
0.59,0.57,0.03,0.00,1.50,51698440,50722000,994000,11
0.65,0.63,0.03,0.00,1.63,56058878,55040000,1000000,11
0.98,0.94,0.04,0.00,2.47,86433873,86429000,0,11
4.17,4.06,0.16,0.00,9.62,317480311,316371000,1001000,11
0.62,0.61,0.03,0.00,1.57,54699972,53692000,994000,11
0.62,0.61,0.03,0.00,1.58,54312797,53309000,1005000,11
1.21,1.18,0.05,0.00,3.18,107746730,106735000,997000,11
7.78,7.57,0.31,0.00,18.09,596772131,594549000,1998000,11
0.63,0.60,0.03,0.00,1.63,55652431,53660000,1987000,11
0.67,0.66,0.03,0.00,1.71,58414846,58384000,0,11
0.75,0.73,0.04,0.00,1.93,65911068,65902000,0,11
0.65,0.63,0.03,0.00,1.74,56871978,56871000,0,11
2.26,2.17,0.13,0.00,6.15,223919007,209655000,13910000,12
1.24,1.22,0.05,0.00,2.98,94418171,89366000,5020000,12
1.11,1.08,0.05,0.00,2.75,95275234,93268000,2005000,12
2.66,2.57,0.16,0.00,6.69,229032115,211955000,16996000,12
1.19,1.16,0.05,0.00,2.85,91190216,88181000,3006000,12
1.28,1.25,0.05,0.00,3.09,98139529,95074000,3002000,12
0.42,0.41,0.02,0.00,1.05,33972090,30966000,2996000,12
0.41,0.40,0.02,0.00,0.98,32379480,28462000,3925000,12
2.02,1.95,0.10,0.00,4.94,173121566,167091000,6003000,12
2.29,2.22,0.11,0.00,5.49,188276486,180252000,8011000,12
0.42,0.40,0.02,0.00,1.04,33278132,32257000,1008000,12
1.30,1.26,0.05,0.00,3.27,101004619,96988000,3999000,12
0.49,0.47,0.02,0.00,1.18,39260572,35121000,4013000,12
1.20,1.17,0.07,0.00,3.16,111885941,104871000,6991000,12
1.28,1.25,0.05,0.00,3.15,102084133,97045000,5002000,12
1.03,1.00,0.06,0.00,2.72,98116867,91012000,7000000,12
1.20,1.16,0.07,0.00,3.15,112292371,106270000,6015000,12
0.51,0.49,0.02,0.00,1.25,41881720,39733000,2037000,12
1.38,1.33,0.08,0.00,3.73,128576018,121586000,6976000,12
2.16,2.09,0.11,0.00,5.62,188739866,182716000,5990000,12
0.13,0.13,0.01,0.00,0.30,10323142,7260000,2722000,13
0.30,0.29,0.01,0.00,0.71,22860712,21864000,993000,13
0.32,0.31,0.01,0.00,0.79,25253744,23234000,2020000,13
0.11,0.11,0.01,0.00,0.31,11292561,10258000,1025000,13
0.34,0.32,0.01,0.00,0.81,25430810,23402000,2035000,13
0.31,0.30,0.01,0.00,0.73,24353856,24360000,0,13
0.31,0.30,0.01,0.00,0.77,25079928,24069000,1002000,13
0.12,0.12,0.01,0.00,0.30,9859880,7891000,1972000,13
0.26,0.25,0.01,0.00,0.72,26023371,23029000,3003000,13
0.31,0.29,0.01,0.00,0.74,23178004,22123000,1005000,13
0.30,0.29,0.01,0.00,0.74,23489052,21524000,1956000,13
0.12,0.12,0.01,0.00,0.30,10126465,9113000,1012000,13
0.30,0.29,0.01,0.00,0.74,22821354,21822000,991000,13
0.35,0.35,0.02,0.00,0.88,28178963,27057000,1002000,13
0.30,0.28,0.01,0.00,0.73,23467400,21514000,1955000,13
0.29,0.28,0.01,0.00,0.71,22818171,21829000,992000,13
0.33,0.31,0.01,0.00,0.82,25314986,22383000,2919000,13
0.29,0.28,0.01,0.00,0.70,22881401,21890000,995000,13
0.32,0.30,0.01,0.00,0.79,25501496,22489000,2933000,13
0.29,0.28,0.01,0.00,0.70,22861321,22849000,0,13
0.67,0.65,0.03,0.00,1.74,59539503,53084000,6009000,14
1.67,1.62,0.09,0.00,4.41,161015616,156986000,3999000,14
4.22,4.07,0.27,0.00,11.26,405363873,399267000,6004000,14
1.96,1.89,0.11,0.00,5.19,188909903,178853000,9991000,14
2.30,2.23,0.13,0.00,5.99,216543359,207489000,9021000,14
1.90,1.83,0.11,0.00,5.16,183573948,173581000,9975000,14
2.22,2.15,0.11,0.00,5.75,205740270,198719000,6990000,14
2.03,1.97,0.10,0.00,5.40,193540508,188530000,4987000,14
2.31,2.23,0.13,0.00,6.15,216590779,201500000,14962000,14
1.83,1.76,0.10,0.00,4.79,173697195,162694000,10979000,14
1.17,1.13,0.08,0.00,3.08,109201005,95277000,13894000,14
2.27,2.18,0.13,0.00,5.86,210711727,198702000,11982000,14
2.02,1.95,0.11,0.00,5.24,186930445,169915000,16991000,14
2.52,2.42,0.14,0.00,6.64,231418064,214387000,17030000,14
1.63,1.57,0.08,0.00,4.41,162495003,161483000,996000,14
0.61,0.59,0.03,0.00,1.61,56057960,54975000,999000,14
0.94,0.91,0.06,0.00,2.40,83613956,71510000,12086000,14
0.53,0.51,0.03,0.00,1.38,47647000,45597000,1982000,14
1.34,1.30,0.08,0.00,3.35,115782028,100583000,15087000,14
1.92,1.85,0.12,0.00,5.10,183116998,167193000,15923000,14
0.26,0.26,0.02,0.00,0.72,25762561,19699000,1876000,15
0.58,0.56,0.03,0.00,1.53,53541352,45388000,8069000,15
0.63,0.60,0.03,0.00,1.59,52464150,51450000,1008000,15
0.66,0.64,0.03,0.00,1.63,54938806,53915000,998000,15
0.60,0.58,0.03,0.00,1.49,49826455,48818000,996000,15
0.59,0.56,0.03,0.00,1.46,48718178,45717000,2981000,15
0.57,0.55,0.03,0.00,1.42,49547278,45582000,3963000,15
0.58,0.56,0.03,0.00,1.49,48481933,45470000,2965000,15
3.86,3.76,0.19,0.00,9.37,299854869,292739000,6993000,15
1.67,1.62,0.07,0.00,4.10,131020901,126907000,3997000,15
0.58,0.56,0.03,0.00,1.45,48364011,44389000,3945000,15
0.56,0.54,0.03,0.00,1.43,48857481,47852000,1018000,15
0.60,0.58,0.03,0.00,1.51,51102832,48058000,3003000,15
1.68,1.63,0.07,0.00,4.19,132991735,129869000,2996000,15
0.63,0.61,0.03,0.00,1.59,53165612,51029000,2001000,15
0.62,0.60,0.03,0.00,1.57,51805190,48797000,2987000,15
0.61,0.59,0.03,0.00,1.58,51946094,49851000,1994000,15
2.43,2.37,0.14,0.00,6.37,210933614,206873000,3997000,15
0.59,0.57,0.03,0.00,1.54,50757396,46670000,3971000,15
1.64,1.60,0.07,0.00,4.08,131829068,129799000,2012000,15
1.21,1.15,0.10,0.00,3.67,134716659,2089000,4178000,16
1.47,1.41,0.08,0.00,3.84,139610420,134524000,4982000,16
1.54,1.48,0.08,0.00,3.97,143669686,137629000,5983000,16
0.88,0.85,0.04,0.00,2.22,76935896,70919000,5993000,16
1.53,1.48,0.07,0.00,3.93,138873947,135888000,2975000,16
1.51,1.45,0.08,0.00,3.98,143552149,138544000,4983000,16
1.48,1.43,0.07,0.00,3.98,141004344,136992000,3999000,16
1.54,1.50,0.08,0.00,4.04,147664814,143660000,3990000,16
1.03,0.98,0.12,0.00,2.66,86539787,83496000,3017000,16
1.51,1.45,0.07,0.00,3.94,139408876,136369000,3008000,16
1.80,1.74,0.08,0.00,4.30,142414612,136443000,5975000,16
1.38,1.33,0.08,0.00,3.80,142505229,137405000,4978000,16
3.68,3.50,0.38,0.00,9.67,329609597,179781000,149817000,16
1.21,1.17,0.06,0.00,3.02,102539750,98574000,3982000,16
1.54,1.49,0.07,0.00,3.95,141032935,138990000,1999000,16
1.61,1.55,0.08,0.00,4.26,156268389,151120000,4971000,16
1.53,1.47,0.08,0.00,4.18,144931334,142916000,1998000,16
1.75,1.70,0.08,0.00,4.45,156240649,152190000,4005000,16
3.17,3.07,0.14,0.00,7.68,261429140,258397000,3004000,16
1.50,1.45,0.08,0.00,3.99,145221635,143103000,2001000,16
3.63,3.50,0.21,0.00,10.26,404885797,401351000,2995000,17
3.78,3.63,0.21,0.00,10.47,406012421,400012000,6000000,17
3.89,3.75,0.22,0.00,10.75,415130397,411110000,4001000,17
3.46,3.33,0.19,0.00,9.57,377255590,372274000,4990000,17
2.02,1.96,0.09,0.00,4.87,171618197,168606000,2993000,17
4.59,4.45,0.20,0.00,10.86,372331134,368203000,4002000,17
5.97,5.74,0.33,0.00,16.43,634563860,631554000,3002000,17
3.85,3.72,0.20,0.00,10.25,394642658,392609000,2003000,17
3.26,3.13,0.19,0.00,9.29,371587659,370448000,1001000,17
3.45,3.30,0.21,0.00,10.02,402988863,399855000,3006000,17
3.44,3.30,0.20,0.00,9.82,393196667,388172000,5002000,17
3.12,2.99,0.19,0.00,9.15,368080302,364064000,4000000,17
3.25,3.12,0.19,0.00,9.16,365111429,364056000,1000000,17
3.54,3.39,0.21,0.00,10.07,399851023,394824000,4997000,17
3.52,3.38,0.20,0.00,9.99,399454049,393423000,6006000,17
3.60,3.45,0.21,0.00,10.27,402362095,397344000,4991000,17
3.57,3.44,0.19,0.00,9.70,370618541,367506000,3004000,17
2.57,2.46,0.15,0.00,7.40,292986204,289970000,2999000,17
3.33,3.21,0.18,0.00,8.92,332841056,328656000,3995000,17
3.24,3.11,0.19,0.00,9.29,369605381,366579000,2996000,17
1.76,1.69,0.17,0.00,4.50,152191862,148851000,3017000,18
1.79,1.74,0.08,0.00,4.25,144470652,141445000,3009000,18
1.73,1.69,0.08,0.00,4.22,145389153,142384000,2987000,18
4.30,4.09,0.41,0.00,10.98,373949794,239336000,134626000,18
4.40,4.19,0.41,0.00,11.17,373804153,235848000,137911000,18
0.61,0.60,0.03,0.00,1.44,46641422,42651000,3967000,18
5.78,5.58,0.37,0.00,15.31,511074839,370953000,139982000,18
4.41,4.19,0.41,0.00,11.17,370347533,229191000,141118000,18
0.94,0.91,0.04,0.00,2.27,75236151,72181000,3007000,18
1.98,1.91,0.17,0.00,4.91,161593206,156582000,4986000,18
2.06,1.98,0.19,0.00,5.41,184123884,181102000,3001000,18
1.55,1.49,0.08,0.00,3.95,138455070,136293000,2004000,18
0.85,0.82,0.04,0.00,2.09,69359912,66311000,3014000,18
1.64,1.56,0.16,0.00,4.23,140479934,133255000,7013000,18
1.33,1.30,0.06,0.00,3.32,115437955,111438000,3979000,18
2.93,2.82,0.22,0.00,7.24,243537408,235495000,7982000,18
1.68,1.60,0.16,0.00,4.36,147557326,141509000,5979000,18
3.42,3.29,0.27,0.00,9.08,325465620,322453000,2994000,18
1.60,1.55,0.08,0.00,4.00,139270820,136234000,3005000,18
1.73,1.65,0.16,0.00,4.41,146929149,141886000,5031000,18
1.36,1.30,0.09,0.00,3.62,125352306,2914000,3436000,19
0.91,0.88,0.06,0.00,2.40,80149917,49033000,31021000,19
5.03,4.90,0.26,0.00,11.72,388637807,347567000,40949000,19
3.92,3.79,0.27,0.00,9.74,334596683,271627000,62913000,19
1.13,1.09,0.07,0.00,2.77,93415083,1046000,5230000,19
0.99,0.95,0.08,0.00,2.62,91777541,57848000,33911000,19
1.11,1.07,0.07,0.00,2.84,92444920,3419000,2799000,19
1.57,1.52,0.10,0.00,4.11,135542245,75729000,59786000,19
1.00,0.95,0.06,0.00,2.68,86490103,53232000,33144000,19
1.13,1.09,0.07,0.00,3.00,100173245,71108000,29044000,19
1.63,1.56,0.14,0.00,4.29,147121995,74052000,73051000,19
1.09,1.04,0.09,0.00,2.83,97686215,66777000,30896000,19
1.70,1.62,0.14,0.00,4.27,143971530,79968000,63974000,19
0.98,0.94,0.08,0.00,2.45,81503004,49621000,31757000,19
0.49,0.47,0.02,0.00,1.28,43250524,42288000,983000,19
1.12,1.08,0.07,0.00,2.78,93043580,964000,5393000,19
1.66,1.59,0.14,0.00,4.29,142004801,73992000,67993000,19
1.48,1.40,0.13,0.00,3.83,130413865,56115000,74152000,19
3.24,3.14,0.19,0.00,7.89,266338876,229335000,36893000,19
3.40,3.28,0.20,0.00,8.45,287435233,245357000,42061000,19
0.15,0.13,0.01,0.00,0.36,11388097,8088000,3033000,20
0.01,0.01,0.00,0.00,0.03,1397924,1424000,0,20
0.36,0.35,0.02,0.00,0.88,28808980,27725000,1026000,20
0.16,0.16,0.01,0.00,0.41,13941458,11167000,2791000,20
0.32,0.32,0.01,0.00,0.77,25575474,24574000,1023000,20
0.02,0.02,0.00,0.00,0.06,1431205,1426000,0,20
0.17,0.17,0.01,0.00,0.42,14141674,14142000,0,20
0.31,0.31,0.01,0.00,0.77,26620092,23665000,2958000,20
0.19,0.18,0.01,0.00,0.48,16123126,13299000,2849000,20
0.52,0.50,0.03,0.00,1.29,43707532,35742000,7942000,20
0.39,0.38,0.02,0.00,0.95,30762388,27769000,2975000,20
0.60,0.58,0.04,0.00,1.62,57348149,48280000,9052000,20
0.02,0.01,0.00,0.00,0.06,1380949,1384000,0,20
0.01,0.02,0.00,0.00,0.03,1478186,1476000,0,20
0.02,0.02,0.00,0.00,0.06,1380826,1381000,0,20
0.21,0.21,0.01,0.00,0.52,17299580,15265000,2035000,20
0.33,0.31,0.01,0.00,0.79,24329052,23308000,1013000,20
0.39,0.38,0.02,0.00,0.95,30908727,29901000,996000,20
0.20,0.20,0.01,0.00,0.49,15782475,12821000,2958000,20
0.38,0.37,0.02,0.00,0.94,31109579,28091000,3009000,20
0.05,0.04,0.00,0.00,0.12,3968995,2782000,927000,21
0.04,0.04,0.00,0.00,0.13,4631671,3717000,929000,21
0.06,0.05,0.00,0.00,0.15,4537615,4569000,0,21
1.29,1.25,0.06,0.00,3.23,112148585,111127000,1001000,21
1.57,1.53,0.07,0.00,3.90,139287719,138113000,1000000,21
0.18,0.17,0.01,0.00,0.46,15899403,9930000,5958000,21
3.13,3.04,0.14,0.00,7.71,275732353,274575000,998000,21
1.43,1.39,0.06,0.00,3.49,122192505,122208000,0,21
2.64,2.55,0.12,0.00,6.60,231919930,228918000,2985000,21
0.21,0.20,0.01,0.00,0.56,18859885,10903000,7930000,21
1.58,1.52,0.07,0.00,3.90,139739551,139736000,0,21
0.57,0.56,0.04,0.00,1.45,49598228,35699000,13883000,21
0.10,0.10,0.01,0.00,0.30,11122046,6039000,5033000,21
0.11,0.11,0.01,0.00,0.29,10225816,6067000,4044000,21
0.04,0.05,0.00,0.00,0.12,4321809,4300000,0,21
1.60,1.54,0.07,0.00,3.99,141113794,140099000,1000000,21
0.10,0.09,0.01,0.00,0.24,8487689,4713000,3770000,21
1.30,1.25,0.06,0.00,3.38,122594770,121574000,1004000,21
0.05,0.05,0.00,0.00,0.12,4019675,3018000,1006000,21
0.27,0.26,0.02,0.00,0.70,23939547,18942000,4984000,21
0.14,0.13,0.01,0.00,0.34,11030242,7698000,2886000,22
0.29,0.29,0.01,0.00,0.72,24419524,20506000,3905000,22
0.28,0.28,0.01,0.00,0.69,22361030,20340000,1937000,22
0.12,0.12,0.01,0.00,0.30,10439976,8334000,2083000,22
0.13,0.12,0.01,0.00,0.33,10503374,8571000,1904000,22
0.30,0.29,0.01,0.00,0.73,23350068,21325000,1938000,22
0.13,0.12,0.01,0.00,0.30,10009655,8932000,992000,22
0.30,0.30,0.01,0.00,0.73,23735834,22638000,984000,22
0.11,0.11,0.01,0.00,0.30,11099433,9091000,2020000,22
0.12,0.12,0.01,0.00,0.31,9692824,7758000,1939000,22
0.30,0.29,0.01,0.00,0.73,23803684,22773000,990000,22
0.13,0.12,0.01,0.00,0.33,10511646,8376000,2094000,22
0.29,0.29,0.01,0.00,0.69,23265625,23273000,0,22
0.12,0.12,0.01,0.00,0.33,10460723,8355000,2088000,22
0.30,0.29,0.01,0.00,0.71,23450399,21484000,1953000,22
0.13,0.13,0.01,0.00,0.31,10537705,9450000,945000,22
0.15,0.15,0.01,0.00,0.36,12569598,11407000,1037000,22
0.31,0.30,0.01,0.00,0.74,23809436,19887000,3788000,22
0.14,0.13,0.01,0.00,0.34,10613392,8683000,1929000,22
0.13,0.12,0.01,0.00,0.33,10365619,8446000,1876000,22
0.46,0.45,0.02,0.00,1.18,36887594,35447000,1012000,23
1.45,1.40,0.07,0.00,3.57,113629148,107624000,5979000,23
1.46,1.42,0.07,0.00,3.46,114427834,107388000,7025000,23
1.72,1.67,0.09,0.00,4.07,123934768,112794000,10980000,23
0.78,0.76,0.05,0.00,1.97,66179809,59138000,7016000,23
0.83,0.80,0.05,0.00,2.08,69045499,60015000,9002000,23
0.71,0.69,0.05,0.00,1.82,60079206,57964000,1998000,23
0.71,0.68,0.04,0.00,1.85,58454002,54317000,4023000,23
0.82,0.80,0.05,0.00,2.05,69672063,54719000,14923000,23
1.48,1.44,0.07,0.00,3.52,116440705,108441000,7959000,23
1.37,1.34,0.07,0.00,3.53,118710885,109711000,8976000,23
0.71,0.68,0.04,0.00,1.79,57611239,54549000,3030000,23
0.65,0.63,0.04,0.00,1.72,58191542,56128000,2004000,23
0.74,0.72,0.05,0.00,1.95,64969001,58794000,5979000,23
1.45,1.41,0.07,0.00,3.66,116042698,111015000,5000000,23
1.24,1.19,0.08,0.00,3.20,109469205,103426000,6024000,23
0.78,0.75,0.05,0.00,1.99,67028347,57000000,10000000,23
1.45,1.41,0.07,0.00,3.64,117190704,112154000,5006000,23
1.14,1.10,0.05,0.00,2.78,88960790,86942000,2021000,23
1.42,1.38,0.07,0.00,3.67,113965468,108938000,4997000,23
0.51,0.48,0.05,0.00,2.04,84806603,73660000,10803000,24
0.71,0.69,0.05,0.00,1.89,60033634,50009000,10001000,24
0.71,0.69,0.05,0.00,1.81,57619697,53622000,3972000,24
0.85,0.82,0.06,0.00,2.27,76113368,68077000,8009000,24
1.42,1.38,0.07,0.00,3.49,112987051,107966000,4998000,24
0.63,0.60,0.04,0.00,1.63,53419728,44499000,8899000,24
1.37,1.33,0.07,0.00,3.41,109846161,105726000,3989000,24
0.77,0.74,0.05,0.00,1.94,63086213,59061000,4004000,24
0.72,0.70,0.05,0.00,1.93,60210853,54133000,6014000,24
1.27,1.23,0.07,0.00,3.20,111158687,107140000,4005000,24
1.36,1.32,0.07,0.00,3.47,107641028,104574000,3016000,24
0.64,0.62,0.04,0.00,1.65,55633724,48664000,6952000,24
0.60,0.58,0.04,0.00,1.69,55126984,51103000,4008000,24
0.71,0.69,0.05,0.00,1.81,59959024,55842000,4061000,24
1.36,1.32,0.06,0.00,3.48,107967207,103941000,3997000,24
1.34,1.31,0.06,0.00,3.26,108139060,105129000,3003000,24
0.71,0.68,0.05,0.00,1.83,60511750,55407000,4947000,24
1.35,1.30,0.07,0.00,3.41,108363416,104364000,3975000,24
0.81,0.79,0.06,0.00,2.16,69400895,59318000,10053000,24
1.34,1.30,0.07,0.00,3.41,109254050,103119000,6006000,24
2.19,2.13,0.13,0.00,5.54,182379822,178991000,2999000,25
0.71,0.69,0.04,0.00,1.73,58040238,54013000,4001000,25
0.74,0.72,0.04,0.00,1.84,61098100,55970000,4997000,25
0.73,0.71,0.05,0.00,1.97,71122829,65006000,6000000,25
0.75,0.73,0.04,0.00,1.93,63171379,57125000,6013000,25
0.82,0.80,0.05,0.00,2.14,70633736,61654000,8949000,25
0.85,0.82,0.06,0.00,2.14,72567602,67576000,4968000,25
1.53,1.48,0.07,0.00,3.73,118895777,112850000,5992000,25
0.91,0.89,0.06,0.00,2.29,75894983,59876000,15967000,25
0.71,0.69,0.04,0.00,1.79,55866922,51847000,3988000,25
0.74,0.72,0.04,0.00,1.83,61636511,56638000,4968000,25
1.51,1.47,0.08,0.00,3.73,121753522,113747000,7982000,25
0.76,0.73,0.04,0.00,1.87,61868635,55833000,5982000,25
0.75,0.73,0.05,0.00,1.97,66452065,58505000,7932000,25
2.14,2.06,0.15,0.00,5.67,195452287,188334000,6975000,25
0.75,0.73,0.05,0.00,1.90,62372811,56322000,6034000,25
0.98,0.96,0.07,0.00,2.58,84623946,70664000,13933000,25
1.55,1.51,0.08,0.00,3.95,122396956,113339000,9027000,25
1.63,1.58,0.09,0.00,3.93,129701349,121690000,7979000,25
1.29,1.25,0.08,0.00,3.27,104167245,98024000,6001000,25
0.63,0.61,0.03,0.00,1.57,50074208,45700000,4062000,26
1.55,1.51,0.08,0.00,3.77,121141647,115108000,6005000,26
1.45,1.39,0.14,0.00,3.96,136099293,127066000,9004000,26
0.66,0.64,0.03,0.00,1.58,50903796,47824000,3052000,26
0.69,0.68,0.04,0.00,1.71,56284435,51223000,5021000,26
0.54,0.53,0.03,0.00,1.43,50465396,46438000,4038000,26
1.33,1.30,0.06,0.00,3.27,103452879,97464000,5967000,26
1.49,1.45,0.08,0.00,3.79,117385628,112271000,4967000,26
0.12,0.11,0.01,0.00,0.31,9442611,8437000,937000,26
0.58,0.56,0.04,0.00,1.60,56917463,51904000,4990000,26
1.35,1.32,0.06,0.00,3.44,105785290,101663000,4026000,26
0.60,0.58,0.03,0.00,1.47,47761186,41779000,5968000,26
0.65,0.63,0.04,0.00,1.67,52766973,46769000,5970000,26
0.66,0.64,0.04,0.00,1.68,53459220,49300000,4024000,26
0.69,0.67,0.05,0.00,1.77,60075654,54060000,6006000,26
0.67,0.65,0.04,0.00,1.69,56207043,49145000,7020000,26
1.37,1.32,0.06,0.00,3.35,105182750,102098000,3002000,26
1.37,1.33,0.06,0.00,3.50,107277458,102241000,5011000,26
1.36,1.31,0.06,0.00,3.33,104405280,100397000,3976000,26
0.64,0.62,0.03,0.00,1.60,51084273,47994000,2999000,26
0.94,0.91,0.05,0.00,2.32,76411806,70958000,5068000,27
0.93,0.90,0.05,0.00,2.30,76099939,69065000,7006000,27
0.95,0.92,0.05,0.00,2.26,75760873,71675000,3981000,27
0.88,0.86,0.05,0.00,2.25,75644222,69564000,5962000,27
0.95,0.91,0.05,0.00,2.34,79541576,71539000,7948000,27
0.90,0.88,0.05,0.00,2.31,73771600,70727000,3031000,27
2.15,2.09,0.10,0.00,5.37,177977795,172961000,4998000,27
0.94,0.92,0.05,0.00,2.38,79060291,75006000,4000000,27
0.96,0.93,0.05,0.00,2.39,78241161,77215000,1002000,27
0.89,0.87,0.05,0.00,2.21,74140506,68108000,6009000,27
0.83,0.82,0.05,0.00,2.17,75617337,68552000,7056000,27
0.90,0.87,0.05,0.00,2.30,74195231,69223000,4944000,27
0.88,0.86,0.05,0.00,2.28,75243940,71213000,4012000,27
2.22,2.16,0.10,0.00,5.59,174313120,166072000,8003000,27
0.96,0.93,0.05,0.00,2.43,78697064,72586000,5966000,27
0.98,0.96,0.06,0.00,2.61,83462057,79404000,4020000,27
0.89,0.87,0.05,0.00,2.30,74369670,72302000,2008000,27
0.89,0.86,0.05,0.00,2.30,74758166,69754000,4982000,27
2.13,2.08,0.09,0.00,5.26,168357515,164334000,3983000,27
2.23,2.17,0.10,0.00,5.54,176138617,169994000,5999000,27
1.49,1.44,0.06,0.00,3.46,114032795,112159000,0,28
2.16,2.09,0.09,0.00,4.98,166456618,163431000,2989000,28
1.55,1.49,0.07,0.00,3.86,130312216,130211000,0,28
1.56,1.51,0.07,0.00,3.81,128464224,123425000,5017000,28
3.15,3.05,0.14,0.00,7.72,266433867,266427000,0,28
2.35,2.29,0.11,0.00,5.83,206421239,179360000,27054000,28
1.98,1.92,0.08,0.00,4.91,164557934,137405000,27079000,28
2.21,2.14,0.10,0.00,5.59,194042883,166006000,28001000,28
1.20,1.17,0.05,0.00,2.96,94201020,93115000,1001000,28
2.00,1.94,0.09,0.00,5.16,177060797,145039000,32008000,28
1.37,1.33,0.06,0.00,3.27,106020417,104005000,2000000,28
1.31,1.27,0.05,0.00,3.06,96136324,94127000,2002000,28
1.36,1.32,0.05,0.00,3.23,105328162,103250000,1985000,28
0.75,0.73,0.03,0.00,1.86,60566649,55482000,4953000,28
1.06,1.03,0.05,0.00,2.57,84812153,83821000,997000,28
1.22,1.19,0.05,0.00,3.02,105058742,103023000,2000000,28
1.86,1.80,0.08,0.00,4.50,156830287,121859000,34959000,28
1.89,1.84,0.08,0.00,4.62,159111783,137092000,22014000,28
1.35,1.32,0.05,0.00,3.27,103076537,101062000,2001000,28
2.28,2.21,0.10,0.00,5.51,188825463,158736000,29950000,28
0.45,0.44,0.03,0.00,1.17,34992219,28698000,5937000,29
0.53,0.51,0.02,0.00,1.28,40354393,37299000,3024000,29
0.44,0.42,0.03,0.00,1.09,34764344,28656000,5928000,29
0.29,0.28,0.01,0.00,0.69,23486406,15647000,7823000,29
1.81,1.76,0.09,0.00,4.72,165139113,95071000,70052000,29
0.30,0.30,0.01,0.00,0.73,24780593,20804000,3962000,29
0.32,0.31,0.02,0.00,0.77,24995149,22877000,2079000,29
0.29,0.29,0.01,0.00,0.71,23783042,15850000,7925000,29
0.60,0.58,0.04,0.00,1.54,54653600,40734000,13909000,29
2.06,1.97,0.15,0.00,5.31,175587509,86780000,88775000,29
1.93,1.85,0.13,0.00,5.14,180429098,131302000,49113000,29
1.87,1.80,0.10,0.00,4.87,178756263,124500000,54217000,29
0.44,0.42,0.03,0.00,1.08,34450406,28349000,6074000,29
0.27,0.26,0.02,0.00,0.71,24576554,20468000,4093000,29
1.76,1.70,0.09,0.00,4.88,165176730,90085000,75071000,29
0.42,0.41,0.03,0.00,1.07,33643181,28598000,4930000,29
0.64,0.62,0.03,0.00,1.64,51849397,47682000,4058000,29
0.29,0.28,0.01,0.00,0.73,23547071,20590000,2941000,29
0.50,0.49,0.02,0.00,1.23,40285355,39309000,982000,29
0.52,0.50,0.02,0.00,1.31,40903808,33902000,6979000,29
1.55,1.49,0.09,0.00,4.08,132755381,127393000,5015000,30
1.51,1.47,0.08,0.00,3.85,127353367,122325000,5013000,30
1.70,1.65,0.09,0.00,4.04,140199671,134127000,6005000,30
2.50,2.42,0.14,0.00,6.44,198289082,191256000,7009000,30
1.60,1.55,0.09,0.00,3.97,132628523,123629000,8973000,30
2.31,2.24,0.12,0.00,5.82,197823466,162475000,34887000,30
1.37,1.33,0.07,0.00,3.55,115785160,109678000,5982000,30
1.83,1.77,0.12,0.00,4.47,150164702,144138000,6005000,30
2.29,2.22,0.12,0.00,5.70,187727269,178713000,8985000,30
2.45,2.37,0.13,0.00,6.08,214057998,181007000,33001000,30
1.55,1.50,0.08,0.00,3.78,126994882,120963000,5998000,30
4.97,4.80,0.36,0.00,12.63,428255331,379163000,49021000,30
1.87,1.82,0.10,0.00,4.70,156409245,147424000,8965000,30
2.03,1.96,0.14,0.00,5.40,179754260,169722000,9983000,30
2.77,2.68,0.15,0.00,6.84,236372114,205232000,31035000,30
3.12,3.02,0.17,0.00,7.73,264496243,222566000,41918000,30
6.41,6.21,0.33,0.00,17.26,585593838,572560000,13012000,30
2.10,2.03,0.11,0.00,5.36,183420672,142538000,40867000,30
1.51,1.46,0.08,0.00,3.89,127708220,121670000,5983000,30
3.77,3.65,0.17,0.00,9.59,313775335,283689000,29967000,30
2.28,2.20,0.12,0.00,5.99,225121468,223867000,999000,31
0.80,0.77,0.04,0.00,2.14,78987662,78005000,1000000,31
1.30,1.26,0.07,0.00,3.60,138834046,136808000,1982000,31
1.56,1.51,0.08,0.00,3.93,134015693,133997000,0,31
1.19,1.13,0.10,0.00,3.70,140601333,3755000,2503000,31
0.25,0.24,0.01,0.00,0.65,22937683,20919000,1992000,31
2.24,2.15,0.11,0.00,5.87,216560796,216544000,0,31
1.31,1.27,0.07,0.00,3.60,135900186,134670000,997000,31
1.43,1.38,0.08,0.00,3.83,142969089,132934000,9995000,31
1.33,1.28,0.07,0.00,3.62,136113055,136105000,0,31
0.95,0.90,0.05,0.00,2.54,93186631,92179000,1001000,31
1.47,1.43,0.07,0.00,3.86,142812842,141799000,998000,31
1.37,1.32,0.07,0.00,3.66,137410092,135411000,1991000,31
1.35,1.31,0.07,0.00,3.62,136730495,136720000,0,31
1.51,1.47,0.06,0.00,3.59,122906886,121896000,999000,31
1.49,1.45,0.06,0.00,3.61,123713550,121711000,1995000,31
1.55,1.50,0.08,0.00,4.01,147451636,146441000,996000,31
1.49,1.45,0.06,0.00,3.59,122684182,121663000,997000,31
0.11,0.10,0.01,0.00,0.28,9740596,9724000,0,31
0.36,0.35,0.02,0.00,0.97,34976876,32963000,1997000,31
