@relation problema
@attribute 'pkg' real
@attribute 'cores' real
@attribute 'ram' real
@attribute 'gpu' real
@attribute 'psys' real
@attribute 'duration_time' real
@attribute 'user_time' real
@attribute 'system_time' real
@attribute 'class' {0,1,2,3,4,5,6,7,8,9,10,11,12,13,14,15,16,17,18,19,20,21,22,23,24,25,26,27,28,29,30,31}
@data
3.15,2.54,0.00,0.05,0.00,155055563,127821000,26962000,0
3.21,2.60,0.00,0.05,0.00,154501114,125605000,28909000,0
3.27,2.63,0.00,0.05,0.00,159327518,133278000,26054000,0
3.20,2.60,0.00,0.05,0.00,149395047,134322000,15036000,0
0.37,0.27,0.00,0.01,0.00,22727677,19763000,2964000,0
1.76,1.40,0.00,0.03,0.00,90919398,52976000,37982000,0
3.20,2.61,0.00,0.05,0.00,147405514,122292000,25059000,0
3.20,2.59,0.00,0.05,0.00,150785907,122644000,28147000,0
0.67,0.51,0.00,0.01,0.00,39660909,37694000,1983000,0
0.66,0.50,0.00,0.01,0.00,40019566,37046000,3003000,0
1.84,1.48,0.00,0.03,0.00,91045283,63724000,27310000,0
0.64,0.50,0.00,0.01,0.00,36688481,34758000,1986000,0
3.23,2.63,0.00,0.05,0.00,150259707,118110000,32029000,0
0.69,0.54,0.00,0.01,0.00,36153788,33953000,1997000,0
3.12,2.51,0.00,0.05,0.00,150848625,115867000,34960000,0
0.64,0.49,0.00,0.01,0.00,36588293,34674000,1981000,0
3.16,2.55,0.00,0.05,0.00,153318719,122510000,30876000,0
1.78,1.42,0.00,0.03,0.00,90612353,57765000,32866000,0
3.16,2.55,0.00,0.05,0.00,151057262,128248000,22866000,0
1.70,1.36,0.00,0.03,0.00,85937633,62987000,22995000,0
0.80,0.61,0.00,0.02,0.00,48960926,47676000,993000,1
5.42,4.29,0.00,0.10,0.00,285056159,283953000,999000,1
6.17,5.06,0.00,0.09,0.00,278499572,276506000,1996000,1
1.66,1.33,0.00,0.03,0.00,84046877,83015000,1000000,1
1.24,0.98,0.00,0.02,0.00,65050297,63118000,2003000,1
1.48,1.18,0.00,0.03,0.00,75017144,73951000,999000,1
1.91,1.53,0.00,0.03,0.00,93227109,93220000,0,1
0.88,0.69,0.00,0.02,0.00,47938484,46960000,999000,1
5.91,4.73,0.00,0.10,0.00,298590022,295608000,2996000,1
2.28,1.82,0.00,0.04,0.00,114994901,114082000,1000000,1
1.45,1.16,0.00,0.02,0.00,72407279,71309000,1004000,1
2.42,1.92,0.00,0.04,0.00,124162251,123187000,1001000,1
19.90,15.98,0.00,0.33,0.00,984624258,982530000,1999000,1
0.40,0.30,0.00,0.01,0.00,23208590,22205000,1009000,1
2.04,1.63,0.00,0.03,0.00,101109701,99166000,2003000,1
5.40,4.39,0.00,0.09,0.00,252745845,248683000,3994000,1
1.85,1.46,0.00,0.03,0.00,97004113,96017000,1000000,1
1.49,1.18,0.00,0.03,0.00,77006639,75052000,2001000,1
55.84,45.70,0.00,0.86,0.00,2542788099,2541699000,1000000,1
1.36,1.09,0.00,0.02,0.00,68485836,66541000,1986000,1
3.05,2.50,0.00,0.05,0.00,140028269,136646000,3014000,2
3.44,2.80,0.00,0.06,0.00,164602910,162595000,1995000,2
4.42,3.57,0.00,0.07,0.00,215611022,213490000,2004000,2
3.56,2.92,0.00,0.05,0.00,160128521,159083000,1000000,2
4.61,3.75,0.00,0.07,0.00,217235412,212261000,4982000,2
4.41,3.57,0.00,0.07,0.00,210535323,207610000,2994000,2
2.04,1.64,0.00,0.03,0.00,100124706,97045000,3001000,2
2.01,1.62,0.00,0.03,0.00,98391402,95413000,2981000,2
3.45,2.78,0.00,0.06,0.00,167818073,165765000,1997000,2
2.97,2.40,0.00,0.05,0.00,144367783,142427000,2006000,2
1.99,1.60,0.00,0.03,0.00,96833881,93875000,2964000,2
3.08,2.51,0.00,0.05,0.00,142374871,141248000,1001000,2
2.97,2.40,0.00,0.05,0.00,144033059,142024000,2000000,2
4.70,3.82,0.00,0.08,0.00,220916938,217804000,2997000,2
2.01,1.61,0.00,0.03,0.00,100963335,98968000,1999000,2
3.01,2.45,0.00,0.05,0.00,141071837,139060000,2000000,2
4.41,3.57,0.00,0.07,0.00,211212303,209213000,2002000,2
4.49,3.65,0.00,0.07,0.00,211700192,210642000,998000,2
3.96,3.23,0.00,0.06,0.00,183102410,179151000,4003000,2
3.44,2.79,0.00,0.06,0.00,163230331,159278000,4006000,2
7.34,5.95,0.00,0.12,0.00,353371150,341155000,12005000,3
7.94,6.44,0.00,0.13,0.00,377485269,367499000,9986000,3
9.21,7.56,0.00,0.14,0.00,417089589,364108000,53015000,3
6.36,5.18,0.00,0.10,0.00,298201424,291242000,7005000,3
8.07,6.54,0.00,0.13,0.00,382842404,370775000,11992000,3
10.79,8.78,0.00,0.17,0.00,511478108,456463000,54935000,3
10.74,8.72,0.00,0.17,0.00,510895130,458008000,52885000,3
8.58,6.97,0.00,0.14,0.00,406941168,343723000,63132000,3
11.42,9.27,0.00,0.18,0.00,542393806,495289000,47027000,3
7.06,5.72,0.00,0.11,0.00,335641060,326639000,8990000,3
10.28,8.35,0.00,0.16,0.00,484884347,428796000,55973000,3
8.65,7.02,0.00,0.14,0.00,411485346,357322000,54048000,3
6.51,5.27,0.00,0.11,0.00,311209182,306169000,5002000,3
10.39,8.46,0.00,0.16,0.00,484816725,441760000,43074000,3
6.36,5.15,0.00,0.10,0.00,301576600,295479000,5989000,3
11.42,9.28,0.00,0.18,0.00,535747834,479656000,56076000,3
6.28,5.07,0.00,0.10,0.00,303124935,294138000,9004000,3
8.74,7.10,0.00,0.14,0.00,410780723,346664000,64122000,3
11.43,9.27,0.00,0.18,0.00,541307772,472152000,69022000,3
6.05,4.93,0.00,0.10,0.00,282488326,276362000,6007000,3
6.78,5.38,0.00,0.12,0.00,351073565,186954000,12990000,4
8.37,6.78,0.00,0.14,0.00,398713702,269677000,10986000,4
6.23,5.01,0.00,0.10,0.00,303155228,171074000,14006000,4
8.08,6.53,0.00,0.13,0.00,386729203,253655000,13981000,4
6.34,5.08,0.00,0.11,0.00,312119108,173264000,20147000,4
7.94,6.40,0.00,0.13,0.00,378251197,252176000,14949000,4
5.46,4.38,0.00,0.09,0.00,265639922,256602000,9021000,4
6.40,5.13,0.00,0.11,0.00,316627658,183334000,13949000,4
5.91,4.73,0.00,0.10,0.00,291713201,283722000,7992000,4
7.81,6.34,0.00,0.12,0.00,365348233,361339000,4003000,4
6.14,4.93,0.00,0.10,0.00,298289383,168897000,11992000,4
6.37,5.13,0.00,0.10,0.00,307316729,174361000,14509000,4
6.33,5.11,0.00,0.10,0.00,303188261,180726000,4992000,4
6.08,4.90,0.00,0.10,0.00,292124285,165869000,7993000,4
6.44,5.16,0.00,0.11,0.00,316059758,182455000,15416000,4
17.99,14.54,0.00,0.29,0.00,853805153,724672000,11010000,4
5.58,4.47,0.00,0.09,0.00,275560673,143930000,13993000,4
6.06,4.85,0.00,0.10,0.00,298145718,169660000,10978000,4
8.08,6.53,0.00,0.13,0.00,384162701,254990000,10999000,4
8.41,6.82,0.00,0.13,0.00,392947095,383925000,8998000,4
8.40,6.71,0.00,0.14,0.00,424012052,252612000,16973000,5
7.97,6.41,0.00,0.13,0.00,386990819,253684000,14328000,5
6.12,4.90,0.00,0.10,0.00,300081409,172584000,8027000,5
5.90,4.71,0.00,0.10,0.00,293552515,167272000,7965000,5
8.01,6.45,0.00,0.13,0.00,385727318,257095000,10003000,5
5.96,4.78,0.00,0.10,0.00,292109273,168036000,6001000,5
5.94,4.75,0.00,0.10,0.00,292489245,158376000,15035000,5
10.23,8.26,0.00,0.17,0.00,489798464,353284000,18014000,5
7.99,6.43,0.00,0.13,0.00,387311712,256300000,12447000,5
6.01,4.83,0.00,0.10,0.00,291943054,168871000,6031000,5
8.04,6.48,0.00,0.13,0.00,386885716,261000000,7564000,5
9.42,7.60,0.00,0.15,0.00,448950952,313806000,16041000,5
6.57,5.29,0.00,0.11,0.00,319208609,188229000,11951000,5
5.95,4.75,0.00,0.10,0.00,296486877,167325000,9959000,5
10.44,8.37,0.00,0.17,0.00,506869957,490892000,15996000,5
6.04,4.84,0.00,0.10,0.00,295697090,171475000,7019000,5
4.92,3.92,0.00,0.08,0.00,243993288,112046000,14131000,5
7.88,6.34,0.00,0.13,0.00,381250069,249631000,12980000,5
6.14,4.93,0.00,0.10,0.00,298720750,165462000,15042000,5
7.96,6.41,0.00,0.13,0.00,382226418,250873000,11993000,5
21.66,17.70,0.00,0.34,0.00,997787685,932014000,64931000,6
26.99,22.02,0.00,0.43,0.00,1253419843,1236313000,17004000,6
3.68,2.96,0.00,0.06,0.00,180262747,176194000,4004000,6
21.99,17.76,0.00,0.36,0.00,1054878484,880990000,14279000,6
3.13,2.52,0.00,0.05,0.00,152603324,147603000,4986000,6
24.09,19.49,0.00,0.39,0.00,1149457105,1138453000,11004000,6
7.85,6.37,0.00,0.13,0.00,368282428,236853000,13932000,6
11.58,9.41,0.00,0.19,0.00,545612789,539526000,5994000,6
6.94,5.63,0.00,0.11,0.00,327525153,323523000,4006000,6
5.43,4.40,0.00,0.09,0.00,254773337,250687000,3995000,6
8.13,6.60,0.00,0.13,0.00,380623647,256382000,13135000,6
3.16,2.55,0.00,0.05,0.00,151120920,142201000,8949000,6
15.53,12.74,0.00,0.24,0.00,701360058,684220000,17005000,6
26.09,21.19,0.00,0.42,0.00,1222438835,1206411000,15992000,6
11.68,9.58,0.00,0.18,0.00,528132853,522957000,4999000,6
24.86,20.36,0.00,0.38,0.00,1124093511,1116020000,8000000,6
8.75,7.14,0.00,0.14,0.00,403931602,396659000,6993000,6
10.29,8.37,0.00,0.16,0.00,477122248,467004000,10000000,6
7.29,5.90,0.00,0.12,0.00,344395511,214465000,10920000,6
18.95,15.47,0.00,0.30,0.00,873026880,867005000,6000000,6
15.38,12.70,0.00,0.23,0.00,685907459,684716000,1002000,7
3.03,2.40,0.00,0.05,0.00,153333946,3141000,6282000,7
65.45,53.76,0.00,0.99,0.00,2921451538,2782249000,138962000,7
29.79,24.57,0.00,0.45,0.00,1323189921,1321684000,999000,7
3.34,2.66,0.00,0.06,0.00,169344196,32692000,20534000,7
23.32,19.20,0.00,0.35,0.00,1037152569,928137000,108898000,7
34.34,28.27,0.00,0.52,0.00,1527586807,1394476000,132950000,7
88.71,72.68,0.00,1.36,0.00,3991220822,3840871000,149994000,7
61.12,50.08,0.00,0.93,0.00,2748392132,2597091000,150947000,7
55.83,45.85,0.00,0.85,0.00,2507236590,2504851000,1999000,7
15.14,12.47,0.00,0.23,0.00,671722107,669697000,1999000,7
27.05,22.29,0.00,0.41,0.00,1197771679,1075654000,122074000,7
23.60,19.30,0.00,0.37,0.00,1078842213,1076771000,1999000,7
109.67,90.35,0.00,1.64,0.00,4822171204,4663883000,157996000,7
20.65,16.89,0.00,0.32,0.00,940239049,940196000,0,7
24.11,19.62,0.00,0.37,0.00,1092947233,955922000,136988000,7
87.13,71.78,0.00,1.30,0.00,3823678830,3673328000,150013000,7
91.27,75.21,0.00,1.36,0.00,4001043776,3851698000,148988000,7
46.96,38.77,0.00,0.70,0.00,2051735167,2048494000,2999000,7
32.02,26.44,0.00,0.47,0.00,1395869784,1393512000,1999000,7
21.12,17.29,0.00,0.33,0.00,969778978,955315000,13989000,8
8.87,7.22,0.00,0.14,0.00,414033731,404955000,8999000,8
10.29,8.33,0.00,0.16,0.00,485124383,417094000,68015000,8
4.86,3.95,0.00,0.08,0.00,228672149,220624000,7986000,8
12.93,10.56,0.00,0.20,0.00,596876946,533893000,62987000,8
9.64,7.90,0.00,0.15,0.00,438143339,421021000,17000000,8
8.92,7.29,0.00,0.14,0.00,401600293,394552000,6992000,8
8.69,7.11,0.00,0.13,0.00,394668542,386591000,8012000,8
11.99,9.80,0.00,0.19,0.00,545927657,524829000,20993000,8
6.05,4.93,0.00,0.09,0.00,278815368,269777000,9026000,8
10.08,8.24,0.00,0.16,0.00,461934769,454895000,6998000,8
4.60,3.70,0.00,0.08,0.00,223063580,211028000,11945000,8
7.06,5.74,0.00,0.11,0.00,322367692,315339000,7007000,8
31.60,26.07,0.00,0.47,0.00,1388630522,1381437000,6997000,8
8.94,7.27,0.00,0.14,0.00,415904730,405884000,9997000,8
8.96,7.32,0.00,0.14,0.00,406282098,395236000,11006000,8
8.93,7.24,0.00,0.14,0.00,419929836,406835000,12994000,8
12.28,10.04,0.00,0.19,0.00,561777087,519733000,41978000,8
10.21,8.36,0.00,0.16,0.00,460797212,451703000,8994000,8
8.16,6.68,0.00,0.13,0.00,369519927,359424000,9984000,8
0.36,0.27,0.00,0.01,0.00,22462139,20058000,2111000,9
0.24,0.18,0.00,0.00,0.00,13561965,11681000,1946000,9
2.89,2.35,0.00,0.05,0.00,136586592,132550000,3986000,9
0.19,0.14,0.00,0.00,0.00,12965927,10995000,1999000,9
0.67,0.52,0.00,0.01,0.00,38367979,32484000,5906000,9
2.93,2.33,0.00,0.05,0.00,147399416,879000,6159000,9
0.42,0.32,0.00,0.01,0.00,25732495,22756000,2968000,9
0.33,0.24,0.00,0.01,0.00,21956481,20889000,994000,9
1.15,0.89,0.00,0.02,0.00,65560985,62587000,2980000,9
0.45,0.34,0.00,0.01,0.00,28361624,23416000,4878000,9
0.62,0.48,0.00,0.01,0.00,34069071,32046000,1942000,9
1.55,1.25,0.00,0.03,0.00,77092125,74095000,3003000,9
1.16,0.93,0.00,0.02,0.00,58953979,55986000,2999000,9
0.18,0.14,0.00,0.00,0.00,10706267,9623000,1069000,9
0.37,0.28,0.00,0.01,0.00,22031322,22064000,0,9
2.27,1.81,0.00,0.04,0.00,116320125,114308000,1987000,9
1.21,0.99,0.00,0.02,0.00,55707462,55665000,0,9
0.36,0.28,0.00,0.01,0.00,21299621,18392000,2904000,9
0.54,0.41,0.00,0.01,0.00,32049242,30072000,2004000,9
1.13,0.89,0.00,0.02,0.00,59914346,57949000,1998000,9
5.17,4.18,0.00,0.08,0.00,248691313,238380000,9974000,10
6.47,5.28,0.00,0.10,0.00,301267199,299260000,2001000,10
12.45,10.21,0.00,0.19,0.00,565437338,558386000,7004000,10
7.26,5.90,0.00,0.12,0.00,339362841,328380000,11012000,10
5.79,4.70,0.00,0.09,0.00,271351897,261330000,9974000,10
7.52,6.11,0.00,0.12,0.00,350202991,335170000,15007000,10
8.65,7.00,0.00,0.14,0.00,407631177,395588000,12017000,10
5.16,4.19,0.00,0.08,0.00,241768495,237697000,3994000,10
5.73,4.68,0.00,0.09,0.00,265490060,261469000,4007000,10
7.50,6.09,0.00,0.12,0.00,350602347,343614000,6992000,10
12.51,10.25,0.00,0.19,0.00,566049394,552026000,14000000,10
12.36,10.03,0.00,0.20,0.00,575631482,563507000,11989000,10
6.82,5.58,0.00,0.11,0.00,312569087,306519000,5990000,10
8.52,6.96,0.00,0.13,0.00,390356512,380286000,10007000,10
7.15,5.80,0.00,0.11,0.00,334494170,320449000,14019000,10
5.56,4.53,0.00,0.09,0.00,256686392,249663000,7018000,10
5.28,4.30,0.00,0.08,0.00,244309940,238357000,6009000,10
3.58,2.92,0.00,0.06,0.00,164971467,160003000,4969000,10
4.32,3.52,0.00,0.07,0.00,202646028,197638000,5016000,10
5.64,4.59,0.00,0.09,0.00,260443762,251454000,8980000,10
7.43,6.07,0.00,0.12,0.00,345860532,342535000,2995000,11
7.60,6.20,0.00,0.12,0.00,352575197,348639000,3995000,11
7.32,5.97,0.00,0.12,0.00,346294441,345238000,1000000,11
6.04,4.92,0.00,0.10,0.00,283414823,282323000,1001000,11
8.06,6.59,0.00,0.13,0.00,373228358,372203000,1000000,11
16.36,13.47,0.00,0.24,0.00,720262579,719272000,1000000,11
7.88,6.43,0.00,0.12,0.00,364985608,361909000,2999000,11
5.28,4.30,0.00,0.08,0.00,248736372,247664000,998000,11
5.77,4.71,0.00,0.09,0.00,267420334,266394000,997000,11
14.71,12.00,0.00,0.23,0.00,686631798,685578000,999000,11
10.11,8.24,0.00,0.16,0.00,474469133,473472000,998000,11
23.07,18.78,0.00,0.37,0.00,1083068660,1081796000,999000,11
6.17,5.02,0.00,0.10,0.00,288917512,283761000,4995000,11
8.01,6.55,0.00,0.12,0.00,366313772,364333000,1996000,11
11.58,9.44,0.00,0.18,0.00,536043606,535062000,1000000,11
113.79,93.68,0.00,1.71,0.00,5051921199,5051316000,0,11
16.99,13.80,0.00,0.27,0.00,801797816,800785000,999000,11
5.07,4.15,0.00,0.08,0.00,231110622,229980000,999000,11
9.49,7.82,0.00,0.14,0.00,420301325,420288000,0,11
15.45,12.62,0.00,0.24,0.00,711923939,709923000,1999000,11
21.72,17.78,0.00,0.34,0.00,1002289044,988908000,12998000,12
5.10,4.15,0.00,0.08,0.00,241234422,240143000,1000000,12
4.78,3.92,0.00,0.07,0.00,217445198,217418000,0,12
16.10,13.13,0.00,0.25,0.00,741701274,723701000,17992000,12
4.56,3.70,0.00,0.07,0.00,217026428,211915000,4998000,12
6.19,5.04,0.00,0.10,0.00,288323722,280202000,8005000,12
2.50,2.01,0.00,0.04,0.00,123251970,120325000,2983000,12
2.81,2.26,0.00,0.05,0.00,139052650,137085000,1986000,12
11.97,9.82,0.00,0.18,0.00,541048962,532998000,7999000,12
32.25,26.44,0.00,0.50,0.00,1469302588,1458102000,11000000,12
1.54,1.24,0.00,0.03,0.00,75957680,70987000,4999000,12
6.22,5.08,0.00,0.10,0.00,288248248,283302000,5005000,12
3.66,2.96,0.00,0.06,0.00,176603642,173555000,2992000,12
10.16,8.28,0.00,0.16,0.00,470577570,458586000,12015000,12
6.24,5.10,0.00,0.10,0.00,288032937,283002000,4982000,12
8.05,6.55,0.00,0.13,0.00,375989692,368978000,6999000,12
10.01,8.17,0.00,0.16,0.00,459851198,447854000,11996000,12
4.31,3.50,0.00,0.07,0.00,202707167,198714000,3994000,12
10.42,8.48,0.00,0.16,0.00,484776250,473743000,10994000,12
12.23,9.99,0.00,0.19,0.00,559227276,545196000,13979000,12
0.64,0.52,0.00,0.01,0.00,29922267,27693000,1978000,13
1.07,0.85,0.00,0.02,0.00,54371662,52378000,2014000,13
1.28,1.02,0.00,0.02,0.00,66384639,63419000,2972000,13
0.63,0.49,0.00,0.01,0.00,36121384,34126000,2007000,13
1.30,1.03,0.00,0.02,0.00,67234472,63288000,3955000,13
2.04,1.63,0.00,0.03,0.00,101778789,100795000,997000,13
1.30,1.04,0.00,0.02,0.00,66053579,64066000,2002000,13
0.62,0.47,0.00,0.01,0.00,35830831,33969000,1941000,13
1.13,0.91,0.00,0.02,0.00,55063901,51972000,2998000,13
1.07,0.85,0.00,0.02,0.00,54287178,53306000,1005000,13
1.11,0.88,0.00,0.02,0.00,55347079,55387000,0,13
1.05,0.83,0.00,0.02,0.00,55228950,54246000,1004000,13
1.05,0.83,0.00,0.02,0.00,54939549,53947000,999000,13
0.81,0.63,0.00,0.02,0.00,43584645,40560000,3042000,13
1.02,0.81,0.00,0.02,0.00,53806355,51874000,1995000,13
1.04,0.82,0.00,0.02,0.00,54423017,53438000,1008000,13
1.28,1.01,0.00,0.02,0.00,66323652,64355000,1980000,13
1.05,0.82,0.00,0.02,0.00,56851721,55855000,997000,13
2.07,1.67,0.00,0.03,0.00,101011617,99008000,2000000,13
1.04,0.82,0.00,0.02,0.00,54668931,52707000,1988000,13
22.05,17.99,0.00,0.35,0.00,1032025350,1026763000,4998000,14
18.12,14.78,0.00,0.29,0.00,847010010,838932000,7999000,14
30.79,25.16,0.00,0.48,0.00,1411486671,1407402000,4001000,14
41.79,34.33,0.00,0.64,0.00,1875391438,1863373000,11995000,14
47.74,38.89,0.00,0.76,0.00,2227526321,2215411000,12002000,14
17.29,14.18,0.00,0.27,0.00,787067976,774976000,11999000,14
41.49,33.74,0.00,0.66,0.00,1957025870,1951833000,4999000,14
16.64,13.65,0.00,0.26,0.00,757286965,754233000,3000000,14
48.48,39.47,0.00,0.77,0.00,2267598834,2252346000,15002000,14
29.46,23.95,0.00,0.47,0.00,1379812172,1367569000,12004000,14
36.42,29.69,0.00,0.57,0.00,1684027213,1670018000,14000000,14
48.26,39.31,0.00,0.76,0.00,2247149695,2233985000,12999000,14
38.56,31.55,0.00,0.60,0.00,1760070172,1747936000,11999000,14
46.40,38.04,0.00,0.71,0.00,2096744359,2086503000,10002000,14
13.26,10.85,0.00,0.21,0.00,604910315,603810000,1001000,14
7.77,6.32,0.00,0.12,0.00,363681763,362738000,1002000,14
30.16,24.50,0.00,0.48,0.00,1412580752,1397517000,15005000,14
22.28,18.11,0.00,0.36,0.00,1045947059,1040756000,4998000,14
42.73,34.99,0.00,0.66,0.00,1938830598,1928609000,10003000,14
25.65,20.97,0.00,0.39,0.00,1163403327,1148376000,15004000,14
1.87,1.49,0.00,0.03,0.00,99069425,97661000,1006000,15
3.73,3.03,0.00,0.06,0.00,177699296,173732000,3993000,15
3.69,3.00,0.00,0.06,0.00,173389651,169336000,4007000,15
3.93,3.19,0.00,0.06,0.00,186302010,179289000,6972000,15
3.35,2.71,0.00,0.05,0.00,161636426,157621000,4015000,15
3.46,2.80,0.00,0.06,0.00,166048478,164032000,2000000,15
3.34,2.71,0.00,0.05,0.00,159750246,157755000,1996000,15
3.46,2.80,0.00,0.06,0.00,166638838,162653000,3991000,15
43.50,35.74,0.00,0.67,0.00,1959143073,1947848000,10999000,15
5.92,4.82,0.00,0.10,0.00,280067664,278077000,2000000,15
3.49,2.83,0.00,0.06,0.00,164552420,162524000,1994000,15
2.68,2.16,0.00,0.04,0.00,129520262,127516000,2008000,15
3.49,2.83,0.00,0.06,0.00,164679903,162673000,1995000,15
5.91,4.79,0.00,0.10,0.00,281329050,278340000,3003000,15
3.15,2.56,0.00,0.05,0.00,149282004,145268000,4007000,15
2.61,2.10,0.00,0.04,0.00,128758767,122806000,5990000,15
3.68,2.98,0.00,0.06,0.00,175657384,173708000,1996000,15
14.08,11.46,0.00,0.22,0.00,655405583,649407000,5994000,15
2.72,2.19,0.00,0.05,0.00,133541603,129536000,4016000,15
5.92,4.83,0.00,0.09,0.00,274495790,272394000,1995000,15
2.91,2.29,0.00,0.05,0.00,155550808,1079000,8416000,16
38.44,31.49,0.00,0.60,0.00,1762834514,1757821000,4999000,16
16.05,13.10,0.00,0.25,0.00,747422431,741424000,5995000,16
13.44,10.99,0.00,0.21,0.00,619707411,612708000,6985000,16
15.60,12.75,0.00,0.24,0.00,721423572,720381000,999000,16
24.73,20.45,0.00,0.36,0.00,1071151705,1068063000,3000000,16
15.59,12.73,0.00,0.25,0.00,723411458,722423000,1000000,16
37.94,31.12,0.00,0.58,0.00,1722422574,1718983000,2999000,16
25.18,20.63,0.00,0.38,0.00,1116405596,1110237000,5995000,16
48.29,39.62,0.00,0.74,0.00,2178704421,2175300000,2999000,16
21.59,17.66,0.00,0.34,0.00,987738087,979624000,7996000,16
16.07,13.13,0.00,0.25,0.00,740207225,738076000,2000000,16
64.75,53.22,0.00,0.97,0.00,2857802723,2705742000,151929000,16
105.82,87.06,0.00,1.60,0.00,4724691813,4721197000,3000000,16
14.88,12.18,0.00,0.23,0.00,679856827,676820000,2999000,16
15.54,12.72,0.00,0.24,0.00,709849777,704841000,5005000,16
25.04,20.53,0.00,0.39,0.00,1136336750,1134253000,2000000,16
29.00,23.88,0.00,0.44,0.00,1285440734,1279157000,5996000,16
44.58,36.86,0.00,0.66,0.00,1938652765,1936594000,2000000,16
7.36,6.05,0.00,0.11,0.00,329934889,325972000,3987000,16
12.75,10.36,0.00,0.21,0.00,608297043,599987000,7999000,17
40.12,32.91,0.00,0.62,0.00,1825741748,1818500000,6998000,17
62.44,51.06,0.00,0.98,0.00,2886113997,2880936000,4999000,17
15.54,12.56,0.00,0.26,0.00,754441299,751351000,3001000,17
5.55,4.45,0.00,0.09,0.00,277084557,274975000,1999000,17
19.27,15.73,0.00,0.30,0.00,894039055,889020000,5000000,17
70.73,57.92,0.00,1.10,0.00,3236644340,3229512000,7001000,17
37.57,30.88,0.00,0.57,0.00,1690434293,1688236000,1999000,17
45.91,37.46,0.00,0.72,0.00,2119857428,2115633000,3999000,17
16.18,13.12,0.00,0.26,0.00,770933277,766806000,3998000,17
10.85,8.61,0.00,0.19,0.00,563722812,555703000,7995000,17
12.65,10.34,0.00,0.20,0.00,581711172,577619000,3997000,17
25.67,20.92,0.00,0.41,0.00,1193442055,1190282000,3000000,17
48.61,39.94,0.00,0.74,0.00,2174378481,2167815000,5999000,17
16.70,13.49,0.00,0.27,0.00,803718740,795593000,7995000,17
34.43,28.07,0.00,0.54,0.00,1596040139,1592850000,2999000,17
35.25,28.79,0.00,0.55,0.00,1617272987,1614206000,3000000,17
25.63,20.91,0.00,0.40,0.00,1183109617,1179088000,4000000,17
18.78,15.40,0.00,0.29,0.00,845266290,838162000,7001000,17
37.10,30.54,0.00,0.56,0.00,1643034108,1639876000,2999000,17
27.82,22.71,0.00,0.43,0.00,1263540479,1258169000,5000000,18
11.47,9.44,0.00,0.17,0.00,514499534,511477000,2996000,18
9.84,8.03,0.00,0.16,0.00,457803485,453797000,4007000,18
69.16,57.15,0.00,1.01,0.00,2975479496,2828320000,147016000,18
73.06,59.70,0.00,1.13,0.00,3315761825,3169602000,145981000,18
1.13,0.87,0.00,0.02,0.00,62944282,59034000,3935000,18
29.47,23.80,0.00,0.47,0.00,1398637604,1271453000,126945000,18
61.91,50.74,0.00,0.94,0.00,2766393900,2620328000,145962000,18
24.02,19.78,0.00,0.36,0.00,1068064077,1065996000,1999000,18
13.14,10.60,0.00,0.20,0.00,600863150,591723000,8980000,18
51.89,42.37,0.00,0.80,0.00,2356699697,2352356000,3998000,18
16.43,13.42,0.00,0.26,0.00,755451365,752402000,2997000,18
21.50,17.61,0.00,0.33,0.00,977453593,975400000,1998000,18
25.60,20.90,0.00,0.39,0.00,1145443205,1137169000,7994000,18
15.37,12.75,0.00,0.22,0.00,656558387,651534000,5004000,18
17.00,13.67,0.00,0.27,0.00,799183998,792050000,7000000,18
26.45,21.43,0.00,0.41,0.00,1215560620,1209472000,5997000,18
108.99,89.41,0.00,1.65,0.00,4870951909,4864294000,5999000,18
37.27,30.62,0.00,0.56,0.00,1660745658,1656719000,3999000,18
26.65,21.61,0.00,0.41,0.00,1221979481,1212836000,8998000,18
2.90,2.29,0.00,0.05,0.00,152164964,1963000,6565000,19
17.02,13.86,0.00,0.27,0.00,798386748,765352000,33015000,19
22.41,18.41,0.00,0.34,0.00,999191387,964166000,35006000,19
34.73,28.35,0.00,0.54,0.00,1595703981,1529668000,65985000,19
2.55,2.05,0.00,0.04,0.00,122657702,909000,8041000,19
16.44,13.45,0.00,0.25,0.00,749292018,716280000,32966000,19
2.56,2.06,0.00,0.04,0.00,125149516,1013000,7955000,19
18.97,15.51,0.00,0.30,0.00,868951707,812927000,55995000,19
12.23,9.98,0.00,0.19,0.00,565073892,523019000,42001000,19
8.03,6.54,0.00,0.13,0.00,373283596,331317000,41913000,19
26.21,21.47,0.00,0.40,0.00,1182113611,1120054000,61947000,19
22.88,18.72,0.00,0.35,0.00,1037441450,1008324000,29009000,19
16.59,13.54,0.00,0.26,0.00,753233025,685190000,68018000,19
15.90,13.07,0.00,0.24,0.00,710150713,683125000,27004000,19
11.32,9.23,0.00,0.18,0.00,523738990,522729000,999000,19
2.54,2.04,0.00,0.04,0.00,121953085,1936000,7463000,19
22.44,18.36,0.00,0.34,0.00,1011059167,948033000,63002000,19
21.39,17.58,0.00,0.32,0.00,943514457,880490000,62963000,19
33.67,27.69,0.00,0.51,0.00,1495267932,1459203000,35980000,19
16.19,13.19,0.00,0.25,0.00,745588454,705594000,39977000,19
0.67,0.51,0.00,0.01,0.00,40248820,37937000,2050000,20
0.04,0.03,0.00,0.00,0.00,1942354,1941000,0,20
2.15,1.73,0.00,0.04,0.00,106166094,104183000,2003000,20
0.91,0.71,0.00,0.02,0.00,49337209,48333000,1006000,20
1.33,1.06,0.00,0.02,0.00,67009223,64018000,2954000,20
0.05,0.03,0.00,0.00,0.00,2259343,1157000,1157000,20
0.71,0.54,0.00,0.02,0.00,44287253,43187000,1004000,20
1.65,1.33,0.00,0.03,0.00,81392684,78369000,2976000,20
1.79,1.44,0.00,0.03,0.00,87609179,84650000,2987000,20
4.94,4.02,0.00,0.08,0.00,228756619,221734000,7023000,20
2.51,2.03,0.00,0.04,0.00,121067788,119064000,2001000,20
3.96,3.20,0.00,0.06,0.00,191340433,183283000,8012000,20
0.03,0.02,0.00,0.00,0.00,2115791,1049000,1049000,20
0.05,0.04,0.00,0.00,0.00,2411088,2431000,0,20
0.03,0.02,0.00,0.00,0.00,2207506,1086000,1086000,20
1.40,1.11,0.00,0.02,0.00,71694946,68762000,2946000,20
1.41,1.13,0.00,0.02,0.00,70507722,69529000,1007000,20
2.61,2.12,0.00,0.04,0.00,122401536,120404000,2006000,20
1.01,0.79,0.00,0.02,0.00,52857533,49855000,2991000,20
2.56,2.09,0.00,0.04,0.00,120053903,117018000,3000000,20
1.69,1.33,0.00,0.03,0.00,92178235,89932000,1998000,21
1.74,1.38,0.00,0.03,0.00,91259562,89183000,1981000,21
1.90,1.56,0.00,0.03,0.00,87212741,87204000,0,21
13.66,11.22,0.00,0.21,0.00,620300161,619275000,1000000,21
40.24,33.14,0.00,0.61,0.00,1797088583,1795949000,999000,21
2.35,1.90,0.00,0.04,0.00,114896908,107882000,6992000,21
107.07,88.26,0.00,1.62,0.00,4765325761,4764812000,0,21
41.90,34.39,0.00,0.64,0.00,1896592716,1895413000,999000,21
40.22,33.06,0.00,0.61,0.00,1808472168,1807257000,1000000,21
2.82,2.29,0.00,0.05,0.00,131924048,123889000,7992000,21
43.40,35.83,0.00,0.65,0.00,1911352146,1911253000,0,21
16.18,13.16,0.00,0.26,0.00,755925260,741916000,13998000,21
3.84,3.11,0.00,0.06,0.00,181935272,180973000,999000,21
3.25,2.63,0.00,0.05,0.00,155317521,149318000,6012000,21
2.47,1.97,0.00,0.04,0.00,124388403,124448000,0,21
11.20,9.29,0.00,0.16,0.00,480336345,479270000,998000,21
2.15,1.73,0.00,0.04,0.00,104931156,99927000,4996000,21
0.13,0.10,0.00,0.00,0.00,8727674,7015000,1753000,21
1.69,1.35,0.00,0.03,0.00,85489225,83535000,1988000,21
6.27,5.10,0.00,0.10,0.00,292615164,288543000,4007000,21
0.32,0.24,0.00,0.01,0.00,20909915,17733000,2955000,22
0.67,0.52,0.00,0.01,0.00,37199735,35226000,1957000,22
0.74,0.61,0.00,0.01,0.00,32990728,31912000,997000,22
0.50,0.43,0.00,0.01,0.00,17535759,16486000,969000,22
0.30,0.22,0.00,0.01,0.00,17726757,15753000,1969000,22
0.70,0.53,0.00,0.01,0.00,43050381,40989000,1999000,22
0.28,0.21,0.00,0.01,0.00,16190169,15214000,1014000,22
0.71,0.56,0.00,0.01,0.00,39285165,35356000,3928000,22
0.29,0.22,0.00,0.01,0.00,18319668,15264000,3052000,22
0.26,0.20,0.00,0.00,0.00,14019254,11954000,1992000,22
1.10,0.95,0.00,0.01,0.00,33461831,30467000,2948000,22
0.31,0.23,0.00,0.01,0.00,19921957,18956000,997000,22
0.66,0.51,0.00,0.01,0.00,38153256,36156000,2008000,22
0.29,0.22,0.00,0.01,0.00,15779412,14825000,988000,22
0.72,0.56,0.00,0.01,0.00,39844108,38861000,996000,22
0.29,0.22,0.00,0.01,0.00,18465957,16432000,2054000,22
0.34,0.25,0.00,0.01,0.00,21945096,19820000,2086000,22
0.78,0.62,0.00,0.01,0.00,41794916,39812000,1990000,22
0.31,0.24,0.00,0.01,0.00,17951616,15976000,1997000,22
0.39,0.30,0.00,0.01,0.00,21997668,21016000,1000000,22
1.07,0.83,0.00,0.02,0.00,59646087,56423000,2969000,23
4.79,3.91,0.00,0.07,0.00,220282308,212109000,8004000,23
5.71,4.72,0.00,0.08,0.00,247667603,242653000,5013000,23
4.66,3.79,0.00,0.07,0.00,218529185,210564000,7983000,23
3.66,2.95,0.00,0.06,0.00,177277660,166286000,11018000,23
5.12,4.28,0.00,0.07,0.00,199209135,194149000,5003000,23
3.10,2.52,0.00,0.05,0.00,146879004,140807000,5991000,23
2.93,2.35,0.00,0.05,0.00,145735917,139711000,5987000,23
3.94,3.19,0.00,0.06,0.00,188482954,173432000,15037000,23
5.05,4.09,0.00,0.08,0.00,242422863,233459000,9017000,23
4.78,3.89,0.00,0.08,0.00,224149730,217128000,7004000,23
2.90,2.34,0.00,0.05,0.00,137922288,126939000,10994000,23
3.81,3.11,0.00,0.06,0.00,174259730,170310000,3983000,23
3.75,3.03,0.00,0.06,0.00,178782372,172792000,5992000,23
4.82,3.90,0.00,0.08,0.00,229314818,222287000,7009000,23
7.56,6.14,0.00,0.12,0.00,355223207,348171000,7003000,23
3.98,3.21,0.00,0.07,0.00,192688377,184669000,7985000,23
5.41,4.40,0.00,0.09,0.00,254240139,246217000,8007000,23
2.74,2.22,0.00,0.04,0.00,130781657,127777000,2994000,23
4.90,4.01,0.00,0.08,0.00,223236726,214193000,9008000,23
3.49,2.82,0.00,0.06,0.00,169134196,160837000,8041000,24
3.30,2.68,0.00,0.05,0.00,155722452,146632000,9039000,24
3.60,2.92,0.00,0.06,0.00,171325083,163245000,8012000,24
5.43,4.42,0.00,0.09,0.00,253684504,241694000,11984000,24
6.17,5.03,0.00,0.10,0.00,286084773,279064000,7001000,24
3.13,2.54,0.00,0.05,0.00,147613595,142655000,4987000,24
5.04,4.10,0.00,0.08,0.00,234779260,232662000,1997000,24
4.00,3.24,0.00,0.06,0.00,190024674,183688000,5957000,24
3.34,2.70,0.00,0.05,0.00,160179942,154185000,5968000,24
4.71,3.82,0.00,0.08,0.00,221143981,217015000,4000000,24
4.94,4.01,0.00,0.08,0.00,232462722,228402000,4007000,24
3.65,2.97,0.00,0.06,0.00,170296077,164287000,6010000,24
3.08,2.50,0.00,0.05,0.00,145200840,141179000,4005000,24
3.58,2.90,0.00,0.06,0.00,170152674,160057000,9941000,24
4.94,4.04,0.00,0.08,0.00,226862978,221776000,4994000,24
5.48,4.46,0.00,0.09,0.00,256062816,251995000,3999000,24
3.39,2.75,0.00,0.05,0.00,159288329,150293000,9017000,24
5.05,4.13,0.00,0.08,0.00,231394121,226372000,4986000,24
4.45,3.60,0.00,0.07,0.00,211264737,203227000,8008000,24
5.36,4.36,0.00,0.09,0.00,249837061,245674000,4011000,24
13.55,11.07,0.00,0.21,0.00,628303540,622978000,5007000,25
3.44,2.78,0.00,0.06,0.00,165431419,160433000,5013000,25
3.08,2.50,0.00,0.05,0.00,147817311,144821000,2996000,25
3.30,2.67,0.00,0.05,0.00,157602643,157628000,0,25
3.29,2.67,0.00,0.05,0.00,156922151,151907000,4996000,25
3.99,3.22,0.00,0.07,0.00,191935478,184929000,6997000,25
4.07,3.29,0.00,0.07,0.00,195894496,185824000,10044000,25
4.91,3.98,0.00,0.08,0.00,231199568,225186000,6004000,25
4.22,3.43,0.00,0.07,0.00,196879944,185838000,10990000,25
3.11,2.54,0.00,0.05,0.00,144382217,138273000,5968000,25
3.17,2.56,0.00,0.05,0.00,151597586,141575000,10040000,25
4.88,3.97,0.00,0.08,0.00,229094981,222135000,7004000,25
3.30,2.67,0.00,0.05,0.00,159176361,150287000,8957000,25
3.21,2.57,0.00,0.05,0.00,158916786,150937000,7944000,25
11.90,9.67,0.00,0.19,0.00,556028201,547960000,7999000,25
3.01,2.41,0.00,0.05,0.00,150496445,145549000,4984000,25
4.83,3.91,0.00,0.08,0.00,226976044,212832000,13988000,25
5.29,4.32,0.00,0.08,0.00,242753280,233682000,8987000,25
5.30,4.32,0.00,0.08,0.00,245752809,234760000,10988000,25
7.14,5.81,0.00,0.11,0.00,331536071,325449000,5989000,25
2.53,2.04,0.00,0.04,0.00,124955508,120701000,3990000,26
4.81,3.91,0.00,0.08,0.00,224499856,216409000,7978000,26
5.43,4.38,0.00,0.09,0.00,261742150,242763000,18981000,26
2.62,2.13,0.00,0.04,0.00,124883361,117891000,6993000,26
2.96,2.38,0.00,0.05,0.00,143871941,133877000,9990000,26
2.51,2.03,0.00,0.04,0.00,121481822,112398000,8952000,26
4.31,3.53,0.00,0.07,0.00,197261223,192189000,4979000,26
4.68,3.81,0.00,0.07,0.00,217092498,213092000,4001000,26
0.50,0.38,0.00,0.01,0.00,28614871,27587000,1021000,26
2.72,2.20,0.00,0.04,0.00,128604524,123603000,4984000,26
4.75,3.87,0.00,0.08,0.00,220997629,217994000,2999000,26
2.57,2.08,0.00,0.04,0.00,123492960,117555000,5977000,26
2.61,2.11,0.00,0.04,0.00,126816903,121864000,4994000,26
2.83,2.31,0.00,0.04,0.00,131299889,127194000,4006000,26
3.04,2.44,0.00,0.05,0.00,152062682,146010000,6000000,26
2.78,2.25,0.00,0.05,0.00,133190779,124245000,8945000,26
4.49,3.67,0.00,0.07,0.00,205889570,199857000,6025000,26
4.36,3.55,0.00,0.07,0.00,202745277,197736000,4993000,26
4.39,3.58,0.00,0.07,0.00,204865452,197839000,6994000,26
2.62,2.13,0.00,0.04,0.00,123216238,119172000,4005000,26
6.81,5.52,0.00,0.11,0.00,325176544,318573000,5991000,27
3.27,2.65,0.00,0.05,0.00,154919981,147778000,6989000,27
5.00,4.06,0.00,0.08,0.00,237374043,233364000,4006000,27
4.69,3.80,0.00,0.08,0.00,223219087,215200000,8007000,27
4.80,3.90,0.00,0.08,0.00,226758225,221426000,5009000,27
4.91,3.99,0.00,0.08,0.00,230396514,221323000,9013000,27
7.77,6.32,0.00,0.12,0.00,365002004,359968000,5013000,27
5.42,4.42,0.00,0.09,0.00,252560164,249507000,3006000,27
4.09,3.30,0.00,0.07,0.00,196664256,191583000,5015000,27
4.92,4.01,0.00,0.08,0.00,227783857,216787000,10989000,27
4.67,3.80,0.00,0.07,0.00,217577309,212596000,4990000,27
4.92,4.01,0.00,0.08,0.00,227727196,219652000,8023000,27
5.04,4.10,0.00,0.08,0.00,235570033,228559000,7017000,27
7.79,6.34,0.00,0.12,0.00,364277978,357276000,7005000,27
5.04,4.10,0.00,0.08,0.00,236887679,230873000,5996000,27
5.26,4.30,0.00,0.08,0.00,241444239,233461000,7981000,27
4.79,3.92,0.00,0.07,0.00,218522684,214541000,3991000,27
5.13,4.19,0.00,0.08,0.00,234679585,229656000,4992000,27
7.78,6.39,0.00,0.12,0.00,349693286,341715000,7993000,27
8.00,6.55,0.00,0.12,0.00,363579914,357555000,5992000,27
64.39,52.91,0.00,0.99,0.00,2923635361,2915463000,3000000,28
57.89,47.82,0.00,0.87,0.00,2560340218,2558247000,2000000,28
12.89,10.60,0.00,0.20,0.00,580268091,577262000,3001000,28
3.50,2.82,0.00,0.06,0.00,172344645,168257000,3982000,28
66.61,54.90,0.00,1.00,0.00,2946821013,2943462000,2999000,28
49.60,40.78,0.00,0.76,0.00,2230159941,2196785000,32996000,28
71.71,58.96,0.00,1.09,0.00,3207197317,3180174000,27001000,28
14.59,11.91,0.00,0.23,0.00,678207455,652171000,26006000,28
46.23,37.93,0.00,0.71,0.00,2083381621,2081395000,1999000,28
13.52,11.08,0.00,0.21,0.00,615648078,589489000,26021000,28
27.85,22.83,0.00,0.43,0.00,1264462492,1262392000,1999000,28
22.29,18.34,0.00,0.34,0.00,992159796,989185000,2997000,28
24.15,19.75,0.00,0.38,0.00,1106790252,1106596000,0,28
15.73,12.89,0.00,0.24,0.00,717288079,712232000,5001000,28
35.34,29.16,0.00,0.53,0.00,1553833267,1550596000,2999000,28
40.31,33.06,0.00,0.62,0.00,1815884266,1811798000,3999000,28
46.75,38.40,0.00,0.71,0.00,2092791590,2058577000,33976000,28
24.30,20.05,0.00,0.36,0.00,1066378779,1037266000,28979000,28
32.85,27.03,0.00,0.49,0.00,1454636816,1450511000,3998000,28
46.35,38.06,0.00,0.70,0.00,2067238919,2042029000,25000000,28
2.42,1.94,0.00,0.04,0.00,118866495,113538000,5023000,29
1.51,1.22,0.00,0.02,0.00,73349217,67295000,6026000,29
2.20,1.80,0.00,0.03,0.00,98031567,87008000,11001000,29
1.01,0.78,0.00,0.02,0.00,57110350,54127000,3007000,29
4.28,3.54,0.00,0.06,0.00,182049699,124016000,58007000,29
1.20,0.96,0.00,0.02,0.00,61104685,59102000,2003000,29
1.30,1.03,0.00,0.02,0.00,65626699,59540000,6054000,29
1.08,0.85,0.00,0.02,0.00,57451809,49395000,7903000,29
2.43,1.95,0.00,0.04,0.00,120027303,102878000,17146000,29
17.46,14.11,0.00,0.28,0.00,829813582,742700000,87082000,29
13.03,10.60,0.00,0.21,0.00,610009002,539020000,71002000,29
4.81,3.88,0.00,0.08,0.00,232374629,164272000,68113000,29
2.17,1.74,0.00,0.04,0.00,108351900,100328000,8026000,29
1.10,0.87,0.00,0.02,0.00,56683299,50720000,5967000,29
4.62,3.74,0.00,0.08,0.00,221123868,166097000,55032000,29
2.09,1.69,0.00,0.03,0.00,97104357,91093000,6006000,29
2.77,2.27,0.00,0.04,0.00,125070236,117981000,6998000,29
1.53,1.23,0.00,0.03,0.00,76459561,72462000,3970000,29
1.73,1.39,0.00,0.03,0.00,84526119,82481000,1987000,29
1.51,1.20,0.00,0.03,0.00,79079750,75090000,4004000,29
10.58,8.63,0.00,0.17,0.00,494394668,485045000,9000000,30
5.73,4.67,0.00,0.09,0.00,267215156,254154000,12956000,30
8.31,6.75,0.00,0.13,0.00,391694571,382594000,9013000,30
10.61,8.69,0.00,0.16,0.00,482597917,472519000,9989000,30
5.99,4.89,0.00,0.09,0.00,276767172,269766000,6993000,30
6.12,5.01,0.00,0.10,0.00,280628802,242578000,37934000,30
4.99,4.03,0.00,0.08,0.00,240742899,230737000,9945000,30
8.21,6.83,0.00,0.11,0.00,326150454,317147000,8975000,30
11.61,9.46,0.00,0.18,0.00,540097866,529093000,11001000,30
7.25,5.89,0.00,0.12,0.00,343307351,315252000,28022000,30
7.08,5.74,0.00,0.11,0.00,336163494,326102000,10003000,30
18.08,14.66,0.00,0.29,0.00,839128840,805108000,34004000,30
9.28,7.55,0.00,0.15,0.00,431443342,423468000,8008000,30
9.54,7.76,0.00,0.15,0.00,441139142,431140000,10003000,30
15.76,12.86,0.00,0.25,0.00,723955677,691883000,31994000,30
15.24,12.41,0.00,0.24,0.00,705303117,670319000,34964000,30
21.62,17.69,0.00,0.33,0.00,985451907,973414000,12005000,30
6.63,5.38,0.00,0.11,0.00,310970125,269953000,40992000,30
7.70,6.29,0.00,0.12,0.00,351198228,342171000,9004000,30
15.51,12.65,0.00,0.24,0.00,716419151,685334000,31015000,30
15.13,12.36,0.00,0.24,0.00,703295073,700998000,1997000,31
2.83,2.27,0.00,0.05,0.00,142610702,141680000,1004000,31
4.60,3.74,0.00,0.07,0.00,217663819,217567000,0,31
5.06,4.14,0.00,0.08,0.00,233301413,232311000,1001000,31
2.99,2.37,0.00,0.05,0.00,153925092,1104000,7552000,31
0.57,0.44,0.00,0.01,0.00,34018864,30034000,4004000,31
8.64,7.05,0.00,0.14,0.00,401894775,399824000,1999000,31
5.07,4.13,0.00,0.08,0.00,236809641,235818000,999000,31
4.59,3.72,0.00,0.07,0.00,218244092,211222000,7007000,31
4.99,4.06,0.00,0.08,0.00,236636320,235536000,998000,31
2.91,2.34,0.00,0.05,0.00,141707424,138747000,2973000,31
14.65,11.97,0.00,0.23,0.00,678787800,677711000,999000,31
9.82,8.03,0.00,0.15,0.00,452317529,450384000,1997000,31
4.63,3.75,0.00,0.08,0.00,220804748,219857000,1003000,31
5.70,4.58,0.00,0.10,0.00,284289592,282316000,1995000,31
5.76,4.64,0.00,0.10,0.00,282031209,280065000,1993000,31
6.18,5.05,0.00,0.10,0.00,284934195,282855000,1998000,31
5.80,4.68,0.00,0.10,0.00,281035617,279950000,999000,31
0.26,0.20,0.00,0.01,0.00,14844273,13868000,990000,31
1.66,1.33,0.00,0.03,0.00,83235140,82333000,991000,31
