@relation problema
@attribute 'pkg' real
@attribute 'cores' real
@attribute 'ram' real
@attribute 'gpu' real
@attribute 'psys' real
@attribute 'duration_time' real
@attribute 'user_time' real
@attribute 'system_time' real
@attribute 'class' {0,1,2,3,4,5,6,7,8,9,10,11,12,13,14,15,16,17,18,19,20,21,22,23,24,25,26,27,28,29,30,31}
@data
3.22,2.61,0.00,0.05,0.00,154521791,127293000,26851000,0
3.07,2.46,0.00,0.05,0.00,152817332,126860000,25971000,0
3.18,2.58,0.00,0.05,0.00,151697418,130743000,20958000,0
3.33,2.74,0.00,0.05,0.00,149337328,131223000,18030000,0
0.18,0.13,0.00,0.00,0.00,11240033,9118000,2026000,0
1.73,1.38,0.00,0.03,0.00,87632378,55414000,32241000,0
3.22,2.61,0.00,0.05,0.00,151107961,115080000,36025000,0
3.03,2.44,0.00,0.05,0.00,146597553,122680000,23937000,0
0.64,0.49,0.00,0.01,0.00,36330757,33318000,3028000,0
0.62,0.47,0.00,0.01,0.00,35868954,33887000,1993000,0
1.75,1.40,0.00,0.03,0.00,88696388,58472000,30244000,0
0.63,0.49,0.00,0.01,0.00,35364068,32321000,3030000,0
3.14,2.53,0.00,0.05,0.00,149104351,120023000,29005000,0
0.68,0.55,0.00,0.01,0.00,30381561,29333000,1011000,0
3.10,2.49,0.00,0.05,0.00,151604284,114720000,36910000,0
0.64,0.49,0.00,0.01,0.00,36132395,33178000,3016000,0
3.24,2.63,0.00,0.05,0.00,151564543,122646000,28916000,0
1.77,1.41,0.00,0.03,0.00,88608690,62756000,25899000,0
3.18,2.58,0.00,0.05,0.00,148558458,124413000,23887000,0
1.65,1.31,0.00,0.03,0.00,84554950,52734000,31839000,0
0.37,0.27,0.00,0.01,0.00,26099810,24850000,994000,1
5.36,4.24,0.00,0.10,0.00,281329899,279237000,2001000,1
4.89,4.01,0.00,0.07,0.00,217700502,215704000,1988000,1
1.29,1.01,0.00,0.02,0.00,70250618,70247000,0,1
1.21,0.95,0.00,0.02,0.00,65293568,64314000,1004000,1
1.19,0.93,0.00,0.02,0.00,65204139,63099000,2003000,1
1.75,1.39,0.00,0.03,0.00,88904027,88803000,0,1
0.62,0.48,0.00,0.01,0.00,35924573,33044000,2915000,1
3.35,2.65,0.00,0.06,0.00,176973289,175981000,999000,1
1.26,1.00,0.00,0.02,0.00,65616929,63645000,1988000,1
0.65,0.50,0.00,0.01,0.00,38219318,37282000,1007000,1
1.34,1.06,0.00,0.02,0.00,69157918,67177000,2005000,1
9.64,7.63,0.00,0.17,0.00,498740383,497753000,999000,1
0.35,0.26,0.00,0.01,0.00,23546425,23578000,0,1
1.22,0.97,0.00,0.02,0.00,62676304,61698000,995000,1
5.06,4.12,0.00,0.08,0.00,236602421,235625000,1002000,1
1.36,1.08,0.00,0.02,0.00,69633256,69628000,0,1
1.22,0.97,0.00,0.02,0.00,61386623,60294000,1004000,1
10.83,8.60,0.00,0.19,0.00,557434467,554479000,2997000,1
0.77,0.60,0.00,0.01,0.00,42847817,41916000,998000,1
1.86,1.53,0.00,0.03,0.00,85274695,81971000,2998000,2
0.76,0.58,0.00,0.02,0.00,44079777,41078000,3005000,2
1.79,1.44,0.00,0.03,0.00,87481966,84407000,2979000,2
0.87,0.71,0.00,0.01,0.00,37794272,36745000,1020000,2
1.73,1.39,0.00,0.03,0.00,86713287,81733000,5045000,2
1.80,1.45,0.00,0.03,0.00,87689114,86692000,1008000,2
0.75,0.58,0.00,0.01,0.00,43196545,41188000,2009000,2
0.73,0.56,0.00,0.01,0.00,42361344,42384000,0,2
0.77,0.60,0.00,0.01,0.00,43297076,39280000,4028000,2
1.73,1.39,0.00,0.03,0.00,86904004,84946000,2022000,2
0.76,0.59,0.00,0.01,0.00,42218910,36348000,5894000,2
1.75,1.41,0.00,0.03,0.00,86150802,83152000,3005000,2
1.77,1.43,0.00,0.03,0.00,86399701,83384000,3013000,2
1.86,1.49,0.00,0.03,0.00,91481828,87453000,4020000,2
0.77,0.60,0.00,0.01,0.00,42311197,40299000,2014000,2
1.82,1.47,0.00,0.03,0.00,88829483,87818000,1009000,2
1.79,1.43,0.00,0.03,0.00,89764922,84728000,5043000,2
1.71,1.37,0.00,0.03,0.00,85757846,84759000,997000,2
0.81,0.64,0.00,0.02,0.00,44704571,40702000,3970000,2
0.74,0.56,0.00,0.01,0.00,43245702,39255000,4026000,2
2.65,2.10,0.00,0.05,0.00,137730169,130349000,7018000,3
4.10,3.29,0.00,0.07,0.00,201430704,195401000,6012000,3
4.88,3.94,0.00,0.08,0.00,236495778,177358000,59119000,3
2.47,1.98,0.00,0.04,0.00,120482498,114366000,6019000,3
3.92,3.15,0.00,0.07,0.00,192556990,186553000,5985000,3
6.60,5.34,0.00,0.11,0.00,315447189,264541000,50911000,3
6.33,5.12,0.00,0.10,0.00,304102305,260068000,44011000,3
5.66,4.65,0.00,0.08,0.00,242471611,190573000,51883000,3
6.43,5.19,0.00,0.11,0.00,309156550,258124000,51024000,3
2.30,1.82,0.00,0.04,0.00,119021686,114020000,5000000,3
6.65,5.39,0.00,0.11,0.00,313252757,248366000,64834000,3
4.78,3.82,0.00,0.08,0.00,238197466,187154000,51042000,3
2.21,1.75,0.00,0.04,0.00,112322710,107295000,5013000,3
6.70,5.44,0.00,0.11,0.00,314478552,264373000,50070000,3
2.41,1.92,0.00,0.04,0.00,121154251,116124000,5005000,3
6.40,5.15,0.00,0.11,0.00,309751737,261824000,47967000,3
2.56,2.03,0.00,0.04,0.00,131202061,122237000,9017000,3
4.85,3.92,0.00,0.08,0.00,229796757,175524000,54161000,3
6.96,5.60,0.00,0.11,0.00,337889282,282897000,54980000,3
2.18,1.74,0.00,0.04,0.00,106608161,100534000,5972000,3
4.76,3.70,0.00,0.09,0.00,262420205,96204000,14177000,4
6.15,4.92,0.00,0.10,0.00,303520088,176118000,9057000,4
4.40,3.50,0.00,0.08,0.00,220546752,93296000,8932000,4
6.16,4.96,0.00,0.10,0.00,296505864,162062000,15005000,4
4.49,3.58,0.00,0.08,0.00,221957183,91862000,12346000,4
6.37,5.11,0.00,0.11,0.00,309905142,178999000,12374000,4
2.60,2.04,0.00,0.05,0.00,135003441,128001000,7000000,4
4.43,3.50,0.00,0.08,0.00,225516472,97768000,9541000,4
3.03,2.39,0.00,0.05,0.00,154032826,143081000,10929000,4
4.48,3.62,0.00,0.07,0.00,211627109,201513000,10025000,4
4.53,3.60,0.00,0.08,0.00,225153949,95053000,11006000,4
4.35,3.44,0.00,0.08,0.00,219743956,89013000,13001000,4
4.30,3.40,0.00,0.07,0.00,218113651,88749000,12191000,4
2.86,2.26,0.00,0.05,0.00,144186833,137151000,7007000,4
4.58,3.65,0.00,0.08,0.00,225728052,93727000,13101000,4
10.37,8.25,0.00,0.17,0.00,515031031,384448000,12199000,4
4.20,3.33,0.00,0.07,0.00,211653184,82109000,11906000,4
4.35,3.44,0.00,0.08,0.00,220917341,89114000,13723000,4
6.38,5.11,0.00,0.10,0.00,307178402,175279000,13211000,4
4.35,3.48,0.00,0.07,0.00,211483444,203530000,7981000,4
6.55,5.16,0.00,0.12,0.00,343925746,171770000,16072000,5
6.37,5.11,0.00,0.11,0.00,311378584,177217000,16019000,5
3.79,2.99,0.00,0.07,0.00,192302422,185210000,7007000,5
4.33,3.43,0.00,0.08,0.00,221901233,88117000,16228000,5
6.34,5.08,0.00,0.11,0.00,309747051,181161000,9058000,5
4.36,3.46,0.00,0.07,0.00,220891145,89756000,11967000,5
4.35,3.45,0.00,0.07,0.00,219503950,89581000,12078000,5
7.69,6.14,0.00,0.13,0.00,379844481,246697000,14829000,5
6.36,5.12,0.00,0.10,0.00,304193210,172600000,13045000,5
4.36,3.46,0.00,0.07,0.00,219416642,87833000,13973000,5
4.43,3.50,0.00,0.08,0.00,226477171,88258000,20058000,5
6.85,5.43,0.00,0.12,0.00,344159724,216213000,10056000,5
3.82,2.99,0.00,0.07,0.00,196720636,182708000,13977000,5
4.47,3.54,0.00,0.08,0.00,223968001,94291000,10917000,5
5.37,4.22,0.00,0.09,0.00,276152210,258130000,18009000,5
5.10,4.03,0.00,0.09,0.00,257271326,128261000,11311000,5
4.53,3.59,0.00,0.08,0.00,227473536,98757000,9975000,5
6.24,4.99,0.00,0.10,0.00,304638668,172774000,12908000,5
3.72,2.92,0.00,0.07,0.00,192297377,183272000,8964000,5
6.28,5.03,0.00,0.10,0.00,305227110,169495000,17049000,5
5.91,4.75,0.00,0.10,0.00,284300802,218576000,65172000,6
8.22,6.59,0.00,0.14,0.00,402511159,388456000,14016000,6
1.60,1.28,0.00,0.03,0.00,79186788,76132000,3005000,6
8.99,7.17,0.00,0.15,0.00,447930995,272588000,16974000,6
1.89,1.52,0.00,0.03,0.00,93798263,86856000,6988000,6
6.64,5.25,0.00,0.11,0.00,336819273,325780000,11026000,6
4.35,3.47,0.00,0.07,0.00,216426070,91205000,8846000,6
2.25,1.80,0.00,0.04,0.00,111692921,106758000,4988000,6
5.83,4.78,0.00,0.09,0.00,264043828,261004000,3000000,6
2.05,1.65,0.00,0.03,0.00,97308667,94117000,3003000,6
2.06,1.64,0.00,0.03,0.00,100269241,87232000,13034000,6
1.88,1.50,0.00,0.03,0.00,92261103,85303000,6943000,6
7.19,5.82,0.00,0.12,0.00,340959062,328939000,11997000,6
8.07,6.50,0.00,0.13,0.00,382263133,361202000,21011000,6
3.26,2.58,0.00,0.06,0.00,165892290,157966000,7947000,6
2.99,2.38,0.00,0.05,0.00,147833097,136840000,10987000,6
5.71,4.64,0.00,0.09,0.00,265020704,260060000,5001000,6
5.77,4.71,0.00,0.09,0.00,262350187,258320000,4004000,6
4.54,3.64,0.00,0.07,0.00,220006642,90708000,10870000,6
5.67,4.58,0.00,0.09,0.00,268942855,261933000,7025000,6
2.53,2.02,0.00,0.04,0.00,128504687,127298000,1002000,7
2.94,2.30,0.00,0.05,0.00,158767969,2772000,6469000,7
7.70,6.20,0.00,0.12,0.00,348554214,206164000,142113000,7
2.62,2.12,0.00,0.04,0.00,127259266,126282000,1002000,7
2.91,2.31,0.00,0.05,0.00,148310361,10190000,19963000,7
5.88,4.76,0.00,0.09,0.00,274894961,153840000,120874000,7
7.44,6.01,0.00,0.12,0.00,350395428,217532000,132714000,7
7.94,6.40,0.00,0.12,0.00,356648943,211631000,144748000,7
7.75,6.23,0.00,0.12,0.00,352142032,206945000,144962000,7
4.29,3.51,0.00,0.07,0.00,197403108,193423000,3988000,7
1.95,1.57,0.00,0.03,0.00,96763926,95781000,997000,7
6.84,5.52,0.00,0.11,0.00,324648560,181807000,142849000,7
2.71,2.19,0.00,0.04,0.00,128677111,127697000,1005000,7
8.60,6.92,0.00,0.13,0.00,390435173,240173000,150108000,7
4.29,3.50,0.00,0.07,0.00,196403876,195418000,1002000,7
6.84,5.49,0.00,0.11,0.00,310311729,170156000,140129000,7
7.98,6.42,0.00,0.12,0.00,359036866,210882000,147917000,7
8.03,6.47,0.00,0.12,0.00,361040775,202874000,157902000,7
2.90,2.34,0.00,0.05,0.00,139832597,138862000,1006000,7
1.99,1.59,0.00,0.03,0.00,98179157,97197000,1002000,7
5.24,4.23,0.00,0.09,0.00,251092919,234663000,16045000,8
4.87,3.93,0.00,0.08,0.00,230782031,221785000,9031000,8
6.69,5.46,0.00,0.10,0.00,300137175,245049000,55011000,8
2.43,1.92,0.00,0.04,0.00,122006272,110994000,10999000,8
9.21,7.49,0.00,0.15,0.00,429818786,360786000,68959000,8
5.85,4.77,0.00,0.09,0.00,268541641,257538000,10980000,8
3.53,2.81,0.00,0.06,0.00,167759314,157757000,9984000,8
3.27,2.63,0.00,0.05,0.00,155876923,144936000,10919000,8
4.12,3.28,0.00,0.07,0.00,199931537,179831000,20092000,8
3.51,2.81,0.00,0.06,0.00,170343030,164272000,6009000,8
4.24,3.43,0.00,0.07,0.00,198102062,188123000,9953000,8
4.09,3.29,0.00,0.07,0.00,196718705,185604000,11035000,8
3.97,3.19,0.00,0.06,0.00,186859884,177816000,8990000,8
13.37,10.87,0.00,0.21,0.00,618182458,615127000,3000000,8
4.17,3.39,0.00,0.06,0.00,186419299,177304000,9015000,8
6.12,4.94,0.00,0.10,0.00,290016139,278967000,10998000,8
3.14,2.52,0.00,0.05,0.00,150386840,140351000,10025000,8
9.50,7.74,0.00,0.15,0.00,436862067,376837000,59974000,8
4.01,3.25,0.00,0.06,0.00,186232888,176176000,10010000,8
3.18,2.55,0.00,0.05,0.00,151831532,142836000,8989000,8
0.29,0.21,0.00,0.01,0.00,20172001,16990000,2998000,9
0.10,0.07,0.00,0.00,0.00,5510134,2775000,2775000,9
1.23,0.97,0.00,0.02,0.00,63972029,60097000,3940000,9
0.10,0.08,0.00,0.00,0.00,4448277,2209000,2209000,9
0.47,0.35,0.00,0.01,0.00,29001699,25043000,4006000,9
2.96,2.31,0.00,0.05,0.00,158959935,941000,8234000,9
0.37,0.28,0.00,0.01,0.00,20729147,13814000,6907000,9
0.28,0.21,0.00,0.01,0.00,16469946,13558000,2905000,9
1.72,1.37,0.00,0.03,0.00,88286563,84278000,4013000,9
0.33,0.25,0.00,0.01,0.00,22066143,18939000,3156000,9
0.47,0.37,0.00,0.01,0.00,24995657,23104000,1925000,9
0.48,0.37,0.00,0.01,0.00,26054054,24057000,1924000,9
1.08,0.86,0.00,0.02,0.00,55448176,54336000,1006000,9
0.10,0.08,0.00,0.00,0.00,5383480,3564000,1782000,9
0.31,0.23,0.00,0.01,0.00,20244478,16401000,3859000,9
0.31,0.24,0.00,0.01,0.00,17459631,15497000,1937000,9
1.05,0.81,0.00,0.02,0.00,59618248,57607000,2021000,9
0.29,0.21,0.00,0.01,0.00,19919738,18926000,996000,9
0.43,0.31,0.00,0.01,0.00,27624045,25677000,1975000,9
0.11,0.08,0.00,0.00,0.00,6635595,3771000,2828000,9
1.70,1.32,0.00,0.03,0.00,92170670,84809000,6984000,10
2.52,2.04,0.00,0.04,0.00,120058931,113994000,5999000,10
3.41,2.74,0.00,0.06,0.00,164226249,155208000,9012000,10
2.16,1.71,0.00,0.04,0.00,108037725,97955000,9995000,10
1.84,1.44,0.00,0.03,0.00,94759797,85747000,8973000,10
3.42,2.76,0.00,0.05,0.00,160951494,148860000,11988000,10
3.08,2.43,0.00,0.05,0.00,155731043,140723000,14970000,10
2.51,2.02,0.00,0.04,0.00,122353544,118300000,4010000,10
2.53,2.03,0.00,0.04,0.00,123829624,115781000,8054000,10
3.59,2.87,0.00,0.06,0.00,174966141,164011000,11000000,10
4.71,3.76,0.00,0.08,0.00,229960158,219941000,9997000,10
4.24,3.32,0.00,0.07,0.00,219166528,211147000,8005000,10
1.13,0.90,0.00,0.02,0.00,58789551,54773000,4057000,10
3.45,2.77,0.00,0.06,0.00,167519452,157483000,10030000,10
3.42,2.71,0.00,0.06,0.00,171279563,159233000,12017000,10
2.58,2.07,0.00,0.04,0.00,125069340,116156000,8935000,10
2.53,2.04,0.00,0.04,0.00,121794087,118769000,3019000,10
1.09,0.86,0.00,0.02,0.00,56314572,51268000,5026000,10
1.19,0.93,0.00,0.02,0.00,61846405,56820000,4984000,10
2.03,1.61,0.00,0.03,0.00,101053708,89024000,12003000,10
1.43,1.13,0.00,0.03,0.00,74059007,72727000,1010000,11
1.34,1.08,0.00,0.02,0.00,65158329,63061000,2001000,11
1.37,1.14,0.00,0.02,0.00,55539730,53497000,1981000,11
1.22,0.98,0.00,0.02,0.00,61777659,57826000,3920000,11
1.21,0.95,0.00,0.02,0.00,61239069,59267000,1975000,11
1.19,0.94,0.00,0.02,0.00,62913253,60933000,1997000,11
1.19,0.95,0.00,0.02,0.00,60330214,59390000,1006000,11
1.09,0.85,0.00,0.02,0.00,61607904,60496000,1008000,11
1.17,0.92,0.00,0.02,0.00,62202133,61268000,1004000,11
1.26,1.00,0.00,0.02,0.00,65731330,63724000,1991000,11
2.00,1.61,0.00,0.03,0.00,97529212,96565000,995000,11
8.57,6.99,0.00,0.13,0.00,395187888,394090000,997000,11
1.17,0.93,0.00,0.02,0.00,59591681,56625000,2980000,11
1.20,0.97,0.00,0.02,0.00,58198549,56162000,1970000,11
2.27,1.81,0.00,0.04,0.00,114578465,113596000,996000,11
16.21,13.25,0.00,0.25,0.00,738457719,737336000,999000,11
1.24,0.99,0.00,0.02,0.00,63013980,62015000,1000000,11
1.17,0.93,0.00,0.02,0.00,59724441,57763000,1958000,11
1.55,1.25,0.00,0.03,0.00,74386381,73408000,992000,11
1.18,0.92,0.00,0.02,0.00,65686311,63659000,2020000,11
5.37,4.26,0.00,0.09,0.00,277391220,270095000,7002000,12
2.68,2.17,0.00,0.04,0.00,127225276,121211000,6010000,12
2.61,2.09,0.00,0.04,0.00,129894164,127907000,1998000,12
6.22,4.99,0.00,0.10,0.00,300969646,282957000,17997000,12
2.56,2.06,0.00,0.04,0.00,124988844,123076000,1985000,12
2.74,2.21,0.00,0.04,0.00,130408515,126379000,3980000,12
0.80,0.63,0.00,0.01,0.00,42496034,37440000,5059000,12
0.75,0.58,0.00,0.01,0.00,43271058,39367000,3936000,12
4.66,3.75,0.00,0.08,0.00,226474738,217533000,8980000,12
5.02,4.03,0.00,0.08,0.00,243883524,235929000,7997000,12
0.73,0.57,0.00,0.01,0.00,41105236,38092000,3007000,12
2.75,2.22,0.00,0.05,0.00,133555609,128586000,4983000,12
0.92,0.73,0.00,0.02,0.00,48775815,44770000,3979000,12
2.80,2.22,0.00,0.05,0.00,142676997,135651000,7033000,12
2.75,2.22,0.00,0.05,0.00,132701425,127775000,4991000,12
2.57,2.03,0.00,0.04,0.00,130953508,122884000,8058000,12
2.86,2.26,0.00,0.05,0.00,148618308,140537000,8030000,12
0.88,0.67,0.00,0.02,0.00,50067938,45055000,5006000,12
3.35,2.67,0.00,0.06,0.00,167455741,154424000,13035000,12
5.22,4.19,0.00,0.09,0.00,253721559,245725000,7991000,12
0.24,0.17,0.00,0.01,0.00,16639665,15370000,1024000,13
0.60,0.46,0.00,0.01,0.00,35440924,34500000,1014000,13
0.73,0.58,0.00,0.01,0.00,38437436,35413000,3035000,13
0.27,0.20,0.00,0.01,0.00,15817391,14779000,1055000,13
0.68,0.53,0.00,0.01,0.00,39448629,37536000,1975000,13
0.67,0.52,0.00,0.01,0.00,37936364,35052000,2921000,13
0.67,0.51,0.00,0.01,0.00,39859907,35990000,3890000,13
0.26,0.19,0.00,0.01,0.00,15916460,12990000,2997000,13
0.65,0.50,0.00,0.01,0.00,36276070,33294000,3026000,13
0.62,0.49,0.00,0.01,0.00,34748160,32721000,2045000,13
0.67,0.54,0.00,0.01,0.00,31960872,31005000,1000000,13
0.24,0.18,0.00,0.01,0.00,15417339,14477000,965000,13
0.61,0.46,0.00,0.01,0.00,37198926,36211000,1005000,13
0.77,0.60,0.00,0.01,0.00,42757835,40777000,1989000,13
0.62,0.48,0.00,0.01,0.00,36066264,35087000,1002000,13
0.63,0.49,0.00,0.01,0.00,35156266,33189000,2011000,13
0.67,0.52,0.00,0.01,0.00,38086648,36049000,2002000,13
0.63,0.49,0.00,0.01,0.00,35472687,34509000,1014000,13
0.71,0.56,0.00,0.01,0.00,37593530,36621000,1017000,13
0.63,0.49,0.00,0.01,0.00,34871269,32891000,1993000,13
1.42,1.11,0.00,0.03,0.00,78069208,69838000,7981000,14
3.41,2.72,0.00,0.06,0.00,173611686,168600000,4988000,14
10.70,8.89,0.00,0.15,0.00,441140984,433983000,6999000,14
4.22,3.36,0.00,0.07,0.00,211670890,196758000,14981000,14
4.67,3.72,0.00,0.08,0.00,233395258,215311000,18026000,14
3.32,2.63,0.00,0.06,0.00,170847173,163842000,7036000,14
4.52,3.65,0.00,0.07,0.00,217208733,211173000,6004000,14
3.06,2.45,0.00,0.05,0.00,151582646,149522000,2007000,14
4.88,3.90,0.00,0.08,0.00,240119107,233109000,7003000,14
3.57,2.84,0.00,0.06,0.00,180957544,168905000,11993000,14
2.69,2.16,0.00,0.04,0.00,126415127,119348000,7020000,14
4.90,3.92,0.00,0.08,0.00,241998756,231002000,11000000,14
4.20,3.36,0.00,0.07,0.00,208170685,197143000,11007000,14
5.16,4.16,0.00,0.08,0.00,247225066,237221000,10009000,14
3.65,2.91,0.00,0.06,0.00,183897749,180850000,2981000,14
1.46,1.16,0.00,0.03,0.00,76014203,75017000,1000000,14
2.22,1.78,0.00,0.04,0.00,107440057,93418000,14063000,14
1.22,0.94,0.00,0.02,0.00,69577896,61633000,7952000,14
2.93,2.34,0.00,0.05,0.00,142918454,130927000,11993000,14
3.78,3.00,0.00,0.06,0.00,190385752,177331000,13024000,14
0.48,0.34,0.00,0.01,0.00,36302488,29223000,2922000,15
1.12,0.88,0.00,0.02,0.00,60099577,52083000,8012000,15
1.10,0.86,0.00,0.02,0.00,58333029,56319000,2011000,15
1.18,0.93,0.00,0.02,0.00,61532585,56462000,5041000,15
1.05,0.83,0.00,0.02,0.00,55815363,52806000,2989000,15
1.18,0.95,0.00,0.02,0.00,57714629,53511000,4038000,15
1.13,0.91,0.00,0.02,0.00,53647027,49497000,4040000,15
1.15,0.92,0.00,0.02,0.00,57436380,54297000,3016000,15
8.63,7.03,0.00,0.13,0.00,396458782,389469000,7008000,15
3.72,3.02,0.00,0.06,0.00,174433861,169515000,4985000,15
1.08,0.85,0.00,0.02,0.00,57319702,54301000,3016000,15
1.08,0.86,0.00,0.02,0.00,54136980,51110000,3006000,15
1.06,0.83,0.00,0.02,0.00,57250140,57225000,0,15
3.74,3.04,0.00,0.06,0.00,175224728,172092000,3001000,15
1.18,0.94,0.00,0.02,0.00,59166790,54209000,4928000,15
1.23,0.98,0.00,0.02,0.00,61974506,56916000,4992000,15
1.13,0.89,0.00,0.02,0.00,60955854,55985000,4998000,15
5.61,4.54,0.00,0.09,0.00,261765963,250694000,10986000,15
1.12,0.88,0.00,0.02,0.00,59006177,54001000,5000000,15
3.79,3.06,0.00,0.06,0.00,180710227,178658000,1996000,15
3.03,2.41,0.00,0.05,0.00,152090805,2983000,5655000,16
4.62,3.67,0.00,0.08,0.00,239241248,234228000,5004000,16
5.31,4.34,0.00,0.08,0.00,241046912,239009000,2000000,16
2.53,2.03,0.00,0.04,0.00,126474059,120513000,5975000,16
4.78,3.82,0.00,0.08,0.00,239492864,238343000,1001000,16
4.59,3.62,0.00,0.08,0.00,242680854,236590000,5989000,16
4.75,3.80,0.00,0.08,0.00,240097800,237142000,3001000,16
4.58,3.63,0.00,0.08,0.00,238760414,234773000,3996000,16
2.84,2.19,0.00,0.04,0.00,127834804,121835000,5991000,16
4.64,3.69,0.00,0.08,0.00,238859726,236870000,1998000,16
4.86,3.89,0.00,0.08,0.00,243268603,235276000,7975000,16
4.62,3.67,0.00,0.08,0.00,238930378,234943000,3999000,16
8.62,6.85,0.00,0.13,0.00,391824280,243483000,148294000,16
3.74,2.98,0.00,0.06,0.00,189869910,184901000,4970000,16
4.74,3.79,0.00,0.08,0.00,238678606,233704000,4993000,16
4.68,3.72,0.00,0.08,0.00,240633117,233635000,6989000,16
4.74,3.79,0.00,0.08,0.00,238025691,237074000,1004000,16
4.85,3.85,0.00,0.08,0.00,249299501,243310000,5983000,16
8.61,7.09,0.00,0.13,0.00,380207066,376236000,4002000,16
4.65,3.70,0.00,0.08,0.00,238196073,233231000,4983000,16
10.57,8.37,0.00,0.19,0.00,559720264,555468000,3996000,17
10.62,8.38,0.00,0.19,0.00,565508769,557541000,7993000,17
11.03,8.75,0.00,0.20,0.00,575952954,569871000,5998000,17
9.30,7.37,0.00,0.17,0.00,488562574,486556000,2002000,17
5.97,4.86,0.00,0.09,0.00,276130340,272143000,4002000,17
9.00,7.45,0.00,0.13,0.00,394863146,388922000,5983000,17
15.12,12.03,0.00,0.26,0.00,774829580,768711000,5997000,17
10.57,8.33,0.00,0.19,0.00,562697228,559684000,3003000,17
9.72,7.72,0.00,0.17,0.00,501413836,499279000,2001000,17
10.81,8.57,0.00,0.19,0.00,562294636,556171000,5991000,17
10.89,8.64,0.00,0.19,0.00,563973462,556890000,6998000,17
9.82,7.80,0.00,0.17,0.00,507856208,502714000,4987000,17
9.81,7.80,0.00,0.17,0.00,504106443,501971000,1999000,17
10.66,8.41,0.00,0.19,0.00,563241571,559233000,4001000,17
10.62,8.36,0.00,0.19,0.00,565281214,560312000,5002000,17
10.60,8.35,0.00,0.19,0.00,563220478,561121000,2000000,17
9.66,7.63,0.00,0.17,0.00,506628740,502634000,3997000,17
6.45,5.11,0.00,0.11,0.00,336188651,332133000,4001000,17
8.32,6.59,0.00,0.15,0.00,430882567,425745000,5008000,17
9.65,7.62,0.00,0.17,0.00,506090492,501047000,4990000,17
4.85,3.76,0.00,0.08,0.00,238034447,233816000,4014000,18
3.53,2.80,0.00,0.06,0.00,184231991,182189000,2002000,18
3.32,2.68,0.00,0.05,0.00,159887164,155833000,3970000,18
9.95,7.90,0.00,0.16,0.00,461777359,316513000,145235000,18
10.01,7.96,0.00,0.16,0.00,463135722,313084000,150040000,18
1.11,0.88,0.00,0.02,0.00,58883340,55846000,3046000,18
14.01,11.32,0.00,0.22,0.00,651177726,519306000,131824000,18
9.39,7.45,0.00,0.15,0.00,431791978,286841000,144919000,18
2.48,1.99,0.00,0.04,0.00,122963901,119972000,2999000,18
5.13,3.99,0.00,0.08,0.00,248476043,245520000,3006000,18
6.18,4.83,0.00,0.10,0.00,301024420,295996000,4999000,18
4.50,3.60,0.00,0.08,0.00,221075601,218089000,2987000,18
2.24,1.78,0.00,0.04,0.00,111075285,107017000,4000000,18
4.44,3.45,0.00,0.07,0.00,208641938,203620000,5015000,18
3.63,2.89,0.00,0.06,0.00,183642339,181641000,2007000,18
8.00,6.28,0.00,0.13,0.00,394530458,386527000,7990000,18
4.99,3.90,0.00,0.08,0.00,236009712,230916000,4998000,18
10.84,8.61,0.00,0.18,0.00,518859988,511685000,6995000,18
4.43,3.54,0.00,0.08,0.00,221861094,218720000,3009000,18
4.90,3.80,0.00,0.08,0.00,238774531,229724000,8989000,18
3.01,2.38,0.00,0.05,0.00,156264401,2176000,6529000,19
1.95,1.54,0.00,0.03,0.00,101634926,59366000,42260000,19
13.55,11.19,0.00,0.20,0.00,589780530,554763000,34985000,19
10.02,8.16,0.00,0.15,0.00,455756949,391541000,64088000,19
2.56,2.06,0.00,0.04,0.00,123770380,1053000,7053000,19
2.52,1.99,0.00,0.04,0.00,128756652,96600000,32200000,19
2.59,2.08,0.00,0.04,0.00,123590643,1115000,7528000,19
3.24,2.59,0.00,0.05,0.00,160524081,105347000,55182000,19
2.45,1.96,0.00,0.04,0.00,121409256,84577000,36816000,19
2.51,2.02,0.00,0.04,0.00,120869691,85899000,34959000,19
3.86,3.07,0.00,0.06,0.00,187128489,119054000,68031000,19
2.63,2.08,0.00,0.04,0.00,130044354,92328000,37725000,19
3.39,2.70,0.00,0.05,0.00,159925096,94953000,64967000,19
1.98,1.56,0.00,0.03,0.00,99459805,65305000,34159000,19
1.46,1.15,0.00,0.03,0.00,77499003,76503000,1006000,19
2.56,2.05,0.00,0.04,0.00,124260638,986000,7848000,19
3.60,2.87,0.00,0.06,0.00,171463542,103671000,67785000,19
3.59,2.90,0.00,0.05,0.00,159277532,98106000,61066000,19
9.02,7.39,0.00,0.14,0.00,403587227,369489000,34045000,19
6.59,5.40,0.00,0.10,0.00,291744884,249770000,41961000,19
0.27,0.20,0.00,0.01,0.00,18413130,17203000,1011000,20
0.05,0.02,0.00,0.00,0.00,2213828,1134000,1134000,20
1.06,0.89,0.00,0.01,0.00,42482175,39486000,3037000,20
0.32,0.25,0.00,0.01,0.00,18479844,16438000,2054000,20
0.65,0.49,0.00,0.01,0.00,40787281,38714000,1985000,20
0.03,0.02,0.00,0.00,0.00,2194477,2258000,0,20
0.41,0.34,0.00,0.01,0.00,18376198,17285000,1016000,20
0.74,0.57,0.00,0.01,0.00,41262309,39319000,1965000,20
0.36,0.27,0.00,0.01,0.00,21700009,20695000,1034000,20
1.06,0.82,0.00,0.02,0.00,61496754,55564000,5953000,20
0.78,0.60,0.00,0.02,0.00,43501242,42526000,988000,20
1.39,1.09,0.00,0.02,0.00,73802531,67685000,6061000,20
0.04,0.03,0.00,0.00,0.00,1789582,1829000,0,20
0.03,0.02,0.00,0.00,0.00,2230979,1109000,1109000,20
0.03,0.02,0.00,0.00,0.00,2105519,1057000,1057000,20
0.48,0.37,0.00,0.01,0.00,27057125,25079000,2006000,20
0.78,0.61,0.00,0.02,0.00,43536894,40521000,3039000,20
0.80,0.62,0.00,0.02,0.00,43929734,41976000,1998000,20
0.40,0.30,0.00,0.01,0.00,23853953,21013000,2865000,20
0.79,0.62,0.00,0.01,0.00,42512730,41521000,1012000,20
0.08,0.06,0.00,0.00,0.00,5596878,4323000,1080000,21
0.10,0.07,0.00,0.00,0.00,6501146,5607000,934000,21
0.11,0.09,0.00,0.00,0.00,6132535,5180000,1036000,21
3.27,2.62,0.00,0.06,0.00,163972311,162960000,999000,21
4.05,3.23,0.00,0.07,0.00,207803389,206823000,999000,21
0.36,0.27,0.00,0.01,0.00,20746545,11849000,8886000,21
4.83,3.86,0.00,0.08,0.00,243083313,240997000,1991000,21
4.36,3.66,0.00,0.06,0.00,167361798,165368000,2004000,21
4.28,3.43,0.00,0.07,0.00,213416589,210360000,2990000,21
0.43,0.31,0.00,0.01,0.00,27903842,19939000,7975000,21
3.66,2.90,0.00,0.06,0.00,189053670,186955000,1999000,21
1.26,0.98,0.00,0.02,0.00,65702870,52751000,12939000,21
0.24,0.17,0.00,0.01,0.00,15013187,10015000,5007000,21
0.23,0.18,0.00,0.00,0.00,13355689,9186000,4082000,21
0.12,0.09,0.00,0.00,0.00,7672373,7749000,0,21
4.19,3.33,0.00,0.07,0.00,214969322,213945000,999000,21
0.19,0.14,0.00,0.00,0.00,12086741,7483000,4677000,21
3.36,2.71,0.00,0.06,0.00,163840149,162812000,998000,21
0.09,0.06,0.00,0.00,0.00,6503476,5456000,1091000,21
0.65,0.51,0.00,0.01,0.00,34748610,30646000,4086000,21
0.25,0.18,0.00,0.01,0.00,17246113,14863000,2123000,22
0.64,0.49,0.00,0.01,0.00,36524102,32579000,3949000,22
0.67,0.54,0.00,0.01,0.00,34729921,32699000,2043000,22
0.29,0.22,0.00,0.01,0.00,15718771,12789000,2951000,22
0.27,0.21,0.00,0.01,0.00,14348804,10446000,3798000,22
0.64,0.49,0.00,0.01,0.00,36542891,33601000,2964000,22
0.25,0.19,0.00,0.01,0.00,15550364,13640000,1948000,22
0.63,0.47,0.00,0.01,0.00,39263468,37158000,2008000,22
0.27,0.21,0.00,0.00,0.00,14205808,13096000,1007000,22
0.24,0.18,0.00,0.01,0.00,14976267,13001000,2000000,22
0.63,0.49,0.00,0.01,0.00,36168420,32265000,3911000,22
0.26,0.19,0.00,0.01,0.00,16402295,14256000,2036000,22
0.65,0.49,0.00,0.01,0.00,39119566,38112000,1002000,22
0.25,0.19,0.00,0.01,0.00,16187485,14171000,2024000,22
0.63,0.48,0.00,0.01,0.00,37600079,35612000,1978000,22
0.26,0.19,0.00,0.01,0.00,16407650,14376000,2053000,22
0.31,0.22,0.00,0.01,0.00,20528462,18585000,1956000,22
0.66,0.51,0.00,0.01,0.00,36097642,34086000,2005000,22
0.26,0.20,0.00,0.01,0.00,15027294,12940000,1990000,22
0.25,0.18,0.00,0.01,0.00,16505697,14503000,2071000,22
0.81,0.62,0.00,0.02,0.00,48266666,45977000,2043000,23
3.10,2.49,0.00,0.05,0.00,150184824,145145000,5005000,23
3.78,3.13,0.00,0.05,0.00,159606588,146621000,12966000,23
3.10,2.50,0.00,0.05,0.00,151117067,145128000,6005000,23
1.66,1.31,0.00,0.03,0.00,84022808,77875000,6068000,23
1.71,1.35,0.00,0.03,0.00,87325274,78330000,9038000,23
1.58,1.24,0.00,0.03,0.00,82454325,76428000,5955000,23
1.46,1.17,0.00,0.02,0.00,72114882,64036000,8004000,23
1.75,1.39,0.00,0.03,0.00,84421539,69234000,15050000,23
3.30,2.66,0.00,0.05,0.00,159232816,148103000,11007000,23
3.17,2.57,0.00,0.05,0.00,150082695,143094000,7004000,23
1.41,1.10,0.00,0.03,0.00,77458715,72379000,5026000,23
1.41,1.10,0.00,0.03,0.00,76708254,74608000,2016000,23
1.66,1.31,0.00,0.03,0.00,85770294,78693000,7062000,23
3.26,2.63,0.00,0.05,0.00,155096572,151093000,4002000,23
2.80,2.23,0.00,0.05,0.00,139027928,133024000,6001000,23
1.65,1.28,0.00,0.03,0.00,88590703,78630000,9953000,23
3.27,2.64,0.00,0.05,0.00,155362298,144334000,11025000,23
2.51,2.03,0.00,0.04,0.00,118886380,114892000,3996000,23
3.16,2.55,0.00,0.05,0.00,151353773,146315000,5010000,23
1.34,1.05,0.00,0.02,0.00,71435942,65174000,5924000,24
1.51,1.18,0.00,0.03,0.00,81160678,73147000,8016000,24
1.51,1.19,0.00,0.03,0.00,79275773,70261000,9033000,24
1.88,1.49,0.00,0.03,0.00,96501022,88448000,8040000,24
3.22,2.60,0.00,0.05,0.00,151738687,144745000,6987000,24
1.31,1.04,0.00,0.02,0.00,67653366,62670000,4973000,24
3.09,2.50,0.00,0.05,0.00,145956864,140917000,4997000,24
3.05,2.60,0.00,0.03,0.00,102144983,98139000,4005000,24
1.51,1.20,0.00,0.03,0.00,77652015,66565000,11094000,24
3.01,2.43,0.00,0.05,0.00,144449967,138433000,6018000,24
3.03,2.44,0.00,0.05,0.00,145102215,142100000,3002000,24
1.40,1.11,0.00,0.02,0.00,72108394,69075000,3003000,24
1.31,1.04,0.00,0.02,0.00,66371730,58364000,7913000,24
1.51,1.19,0.00,0.03,0.00,78603757,72620000,5968000,24
3.03,2.45,0.00,0.05,0.00,144906846,141898000,2997000,24
3.17,2.57,0.00,0.05,0.00,148075069,138041000,10002000,24
1.53,1.20,0.00,0.03,0.00,78299171,72324000,5944000,24
3.08,2.48,0.00,0.05,0.00,148982508,145957000,3019000,24
1.83,1.45,0.00,0.03,0.00,91218832,83179000,8017000,24
3.05,2.46,0.00,0.05,0.00,146702853,136837000,9915000,24
4.84,3.92,0.00,0.08,0.00,231351691,224056000,7001000,25
1.42,1.11,0.00,0.03,0.00,76564520,69506000,7051000,25
1.58,1.27,0.00,0.03,0.00,75254347,70300000,5021000,25
1.69,1.34,0.00,0.03,0.00,87605127,82579000,5035000,25
1.54,1.20,0.00,0.03,0.00,83284013,74205000,9025000,25
1.83,1.44,0.00,0.03,0.00,93640734,85662000,7968000,25
1.90,1.50,0.00,0.03,0.00,98652749,92656000,5977000,25
3.35,2.69,0.00,0.06,0.00,162135977,152056000,10003000,25
1.88,1.49,0.00,0.03,0.00,93280622,77170000,16035000,25
1.42,1.12,0.00,0.03,0.00,74767954,67746000,7077000,25
1.66,1.33,0.00,0.03,0.00,79315893,74268000,5018000,25
3.40,2.74,0.00,0.06,0.00,163446564,152395000,11028000,25
1.55,1.22,0.00,0.03,0.00,79610934,74632000,4975000,25
1.64,1.27,0.00,0.03,0.00,89064172,83050000,6003000,25
4.37,3.46,0.00,0.08,0.00,221336550,207359000,13956000,25
1.62,1.28,0.00,0.03,0.00,80979658,73966000,6996000,25
2.14,1.68,0.00,0.04,0.00,110163613,91318000,18859000,25
3.44,2.77,0.00,0.06,0.00,165106743,156072000,8946000,25
3.58,2.88,0.00,0.06,0.00,172162132,157140000,15013000,25
2.62,2.11,0.00,0.04,0.00,123847492,119603000,4020000,25
1.27,1.00,0.00,0.02,0.00,68469816,64163000,4010000,26
3.37,2.72,0.00,0.05,0.00,161250709,157252000,4006000,26
3.05,2.40,0.00,0.05,0.00,155518584,145476000,9964000,26
1.34,1.06,0.00,0.02,0.00,70207505,67232000,3010000,26
1.41,1.11,0.00,0.02,0.00,72941475,64879000,8109000,26
1.22,0.96,0.00,0.02,0.00,63436114,56559000,6945000,26
2.89,2.32,0.00,0.05,0.00,143545857,139553000,3987000,26
3.28,2.63,0.00,0.05,0.00,158978875,149915000,8994000,26
0.24,0.19,0.00,0.00,0.00,12430113,8236000,4118000,26
1.35,1.07,0.00,0.02,0.00,69253345,63197000,6018000,26
2.99,2.43,0.00,0.05,0.00,140359919,131226000,9015000,26
1.23,0.99,0.00,0.02,0.00,61564623,55595000,5956000,26
1.44,1.17,0.00,0.02,0.00,67698786,58723000,8957000,26
1.35,1.06,0.00,0.02,0.00,72735067,64770000,7971000,26
1.50,1.18,0.00,0.03,0.00,76555829,72496000,4027000,26
1.46,1.15,0.00,0.03,0.00,74478002,69445000,5032000,26
3.05,2.48,0.00,0.05,0.00,141376912,137293000,4008000,26
3.00,2.42,0.00,0.05,0.00,142891942,138940000,3969000,26
2.93,2.37,0.00,0.05,0.00,140809431,132747000,8045000,26
1.37,1.08,0.00,0.02,0.00,69452518,63384000,6036000,26
1.93,1.52,0.00,0.03,0.00,100933210,94711000,5981000,27
1.88,1.50,0.00,0.03,0.00,95242141,91210000,4009000,27
1.97,1.57,0.00,0.03,0.00,98224362,93257000,5013000,27
1.91,1.52,0.00,0.03,0.00,96444956,87499000,8948000,27
2.04,1.63,0.00,0.03,0.00,101565184,96520000,5027000,27
1.98,1.59,0.00,0.03,0.00,94005004,87002000,7000000,27
5.09,4.16,0.00,0.08,0.00,233924430,223836000,9948000,27
2.01,1.60,0.00,0.03,0.00,100895845,93888000,6991000,27
1.97,1.58,0.00,0.03,0.00,97048675,86016000,11002000,27
2.14,1.71,0.00,0.04,0.00,104340270,98347000,5960000,27
1.93,1.53,0.00,0.03,0.00,98826853,86880000,11983000,27
1.89,1.50,0.00,0.03,0.00,95365158,88308000,7024000,27
1.98,1.59,0.00,0.03,0.00,96762390,89829000,6909000,27
5.00,4.04,0.00,0.08,0.00,238799117,228798000,9991000,27
2.01,1.59,0.00,0.03,0.00,101508197,94520000,7038000,27
2.09,1.66,0.00,0.04,0.00,106017556,98998000,6999000,27
1.92,1.53,0.00,0.03,0.00,96441211,88407000,7946000,27
1.96,1.57,0.00,0.03,0.00,96610778,92543000,4023000,27
4.90,3.98,0.00,0.08,0.00,228463581,224228000,3986000,27
5.06,4.12,0.00,0.08,0.00,233435050,223451000,9975000,27
3.57,2.92,0.00,0.06,0.00,165215874,158219000,3004000,28
6.34,5.16,0.00,0.10,0.00,298575076,297558000,1001000,28
2.79,2.23,0.00,0.05,0.00,142603406,138566000,3987000,28
3.43,2.76,0.00,0.06,0.00,171110242,167114000,3978000,28
10.77,8.61,0.00,0.18,0.00,543085550,541067000,2000000,28
4.01,3.23,0.00,0.07,0.00,195171316,163137000,32027000,28
4.45,3.64,0.00,0.07,0.00,202356689,179308000,23039000,28
4.81,3.90,0.00,0.08,0.00,228867114,198877000,29981000,28
2.44,1.97,0.00,0.04,0.00,117905655,113972000,3964000,28
4.00,3.22,0.00,0.07,0.00,197457261,153589000,43882000,28
3.43,2.83,0.00,0.05,0.00,152082306,150112000,2001000,28
3.39,2.79,0.00,0.05,0.00,151603614,148569000,3011000,28
3.34,2.72,0.00,0.05,0.00,154677855,151679000,3013000,28
1.59,1.28,0.00,0.03,0.00,76783270,74799000,1994000,28
2.91,2.36,0.00,0.05,0.00,137759847,133633000,3989000,28
2.85,2.29,0.00,0.05,0.00,140177309,136169000,4004000,28
3.54,2.86,0.00,0.06,0.00,167832269,143900000,23983000,28
4.56,3.74,0.00,0.07,0.00,206336528,183428000,22928000,28
2.83,2.32,0.00,0.04,0.00,128119355,125111000,3002000,28
3.77,3.04,0.00,0.06,0.00,181067002,154037000,27006000,28
0.99,0.82,0.00,0.01,0.00,42677586,32450000,9833000,29
1.06,0.84,0.00,0.02,0.00,55630723,52577000,3033000,29
0.89,0.69,0.00,0.02,0.00,47048133,36318000,10797000,29
0.60,0.46,0.00,0.01,0.00,33702105,28728000,4953000,29
3.01,2.41,0.00,0.05,0.00,149970970,104974000,44988000,29
0.63,0.49,0.00,0.01,0.00,34092896,30064000,4008000,29
0.62,0.48,0.00,0.01,0.00,35321400,32284000,3026000,29
0.65,0.52,0.00,0.01,0.00,34173863,29295000,4882000,29
1.33,1.06,0.00,0.02,0.00,67800198,53636000,14168000,29
4.18,3.35,0.00,0.07,0.00,192303188,89690000,102645000,29
4.78,3.83,0.00,0.08,0.00,235775837,185785000,49942000,29
3.62,2.92,0.00,0.06,0.00,172758097,119531000,53236000,29
0.87,0.67,0.00,0.02,0.00,49184602,41159000,8031000,29
0.56,0.41,0.00,0.01,0.00,36386750,28419000,7839000,29
3.36,2.71,0.00,0.06,0.00,162886415,113524000,48795000,29
0.87,0.67,0.00,0.02,0.00,45687066,39728000,5959000,29
1.37,1.08,0.00,0.02,0.00,73471891,64378000,9053000,29
0.57,0.42,0.00,0.01,0.00,35508252,31439000,4056000,29
1.12,0.89,0.00,0.02,0.00,55582089,51516000,4040000,29
1.09,0.87,0.00,0.02,0.00,54944028,49946000,4896000,29
3.22,2.60,0.00,0.05,0.00,154512516,142120000,12010000,30
3.16,2.54,0.00,0.05,0.00,153665689,144660000,8978000,30
3.67,2.97,0.00,0.06,0.00,173896921,164854000,8992000,30
5.29,4.31,0.00,0.08,0.00,243868470,237850000,5996000,30
4.96,4.18,0.00,0.06,0.00,181743275,173750000,7988000,30
4.31,3.50,0.00,0.07,0.00,202428133,174475000,27916000,30
2.77,2.23,0.00,0.05,0.00,134463747,126430000,8027000,30
3.97,3.20,0.00,0.06,0.00,186902862,180916000,5964000,30
5.20,4.24,0.00,0.08,0.00,239454774,229428000,10018000,30
4.96,4.03,0.00,0.08,0.00,232021396,200044000,32007000,30
3.22,2.61,0.00,0.05,0.00,152309378,144377000,7965000,30
10.61,8.56,0.00,0.17,0.00,494555002,453560000,40960000,30
4.05,3.27,0.00,0.07,0.00,192242555,179258000,12946000,30
4.54,3.62,0.00,0.08,0.00,223258344,211220000,12012000,30
5.64,4.58,0.00,0.09,0.00,261164684,226174000,35026000,30
6.41,5.24,0.00,0.10,0.00,289024864,255006000,34000000,30
17.30,14.24,0.00,0.26,0.00,762116977,750061000,11985000,30
4.10,3.30,0.00,0.07,0.00,196196900,162158000,34033000,30
3.28,2.66,0.00,0.05,0.00,151567027,141552000,10039000,30
8.40,6.88,0.00,0.13,0.00,379731790,345834000,33885000,30
5.23,4.18,0.00,0.09,0.00,266719309,265474000,998000,31
1.87,1.48,0.00,0.03,0.00,98501266,98511000,0,31
3.81,3.15,0.00,0.06,0.00,165198936,163224000,2002000,31
3.37,2.72,0.00,0.06,0.00,162565339,160481000,1993000,31
3.95,3.25,0.00,0.06,0.00,162245442,2251000,6195000,31
0.57,0.42,0.00,0.01,0.00,35189591,30166000,5027000,31
6.03,4.94,0.00,0.09,0.00,273149311,270170000,2990000,31
3.47,2.81,0.00,0.06,0.00,164439086,164439000,0,31
3.53,2.84,0.00,0.06,0.00,173247982,164284000,8960000,31
3.45,2.78,0.00,0.06,0.00,167927346,165934000,1999000,31
2.25,1.82,0.00,0.04,0.00,109737652,106828000,2967000,31
3.66,2.97,0.00,0.06,0.00,172196181,170187000,2002000,31
3.67,2.98,0.00,0.06,0.00,171262436,170277000,1001000,31
3.51,2.83,0.00,0.06,0.00,170041619,166825000,2996000,31
3.42,2.77,0.00,0.05,0.00,161589071,160382000,996000,31
3.31,2.66,0.00,0.06,0.00,162678539,161673000,1004000,31
3.67,2.97,0.00,0.06,0.00,175603266,173684000,1996000,31
3.33,2.69,0.00,0.05,0.00,161124009,161089000,0,31
0.24,0.18,0.00,0.01,0.00,15521778,15528000,0,31
0.94,0.73,0.00,0.02,0.00,52680507,51714000,994000,31
