@relation problema
@attribute 'pkg' real
@attribute 'cores' real
@attribute 'ram' real
@attribute 'gpu' real
@attribute 'psys' real
@attribute 'duration_time' real
@attribute 'user_time' real
@attribute 'system_time' real
@attribute 'class' {0,1,2,3,4,5,6,7,8,9,10,11,12,13,14,15,16,17,18,19,20,21,22,23,24,25,26,27,28,29,30,31}
@data
3.04,2.44,0.00,0.05,0.00,151216760,115748000,35227000,0
0.62,0.48,0.00,0.01,0.00,36205380,35216000,1006000,0
3.19,2.58,0.00,0.05,0.00,151069614,117049000,34014000,0
3.17,2.54,0.00,0.05,0.00,155254255,119118000,36035000,0
3.19,2.58,0.00,0.05,0.00,151747380,124817000,26960000,0
1.88,1.52,0.00,0.03,0.00,89500868,65607000,23857000,0
3.24,2.65,0.00,0.05,0.00,145177960,116072000,29018000,0
3.12,2.53,0.00,0.05,0.00,145862560,120860000,24971000,0
3.11,2.52,0.00,0.05,0.00,146953510,120846000,25966000,0
1.06,0.92,0.00,0.01,0.00,31853646,30821000,994000,0
3.24,2.64,0.00,0.05,0.00,149501204,116608000,32889000,0
0.66,0.52,0.00,0.01,0.00,33155380,32077000,1002000,0
3.17,2.56,0.00,0.05,0.00,149016461,123990000,24998000,0
3.11,2.50,0.00,0.05,0.00,150685663,119725000,30929000,0
0.62,0.47,0.00,0.01,0.00,37769106,36785000,994000,0
1.97,1.57,0.00,0.03,0.00,97994723,95981000,1999000,0
0.63,0.49,0.00,0.01,0.00,35058402,34114000,1003000,0
3.14,2.54,0.00,0.05,0.00,148418419,116542000,31874000,0
3.13,2.53,0.00,0.05,0.00,150206944,122054000,28012000,0
3.25,2.64,0.00,0.05,0.00,150068846,124042000,26008000,0
1.20,0.93,0.00,0.02,0.00,66508327,65217000,988000,1
5.34,4.22,0.00,0.10,0.00,281008528,279034000,2000000,1
9.72,7.71,0.00,0.17,0.00,502605486,500603000,2002000,1
0.84,0.65,0.00,0.02,0.00,45475550,44427000,987000,1
1.22,0.95,0.00,0.02,0.00,67202654,66224000,1003000,1
9.74,7.71,0.00,0.17,0.00,503175959,501166000,1996000,1
1.20,0.94,0.00,0.02,0.00,63713655,61749000,1991000,1
1.23,0.97,0.00,0.02,0.00,65212320,64212000,1003000,1
0.83,0.63,0.00,0.02,0.00,48549199,46584000,1982000,1
1.22,0.97,0.00,0.02,0.00,63500882,62471000,1007000,1
1.29,1.02,0.00,0.02,0.00,66866833,65877000,1013000,1
2.67,2.18,0.00,0.04,0.00,122298159,121280000,1002000,1
0.53,0.42,0.00,0.01,0.00,26273297,23284000,2910000,1
0.74,0.57,0.00,0.01,0.00,40957621,40950000,0,1
1.32,1.04,0.00,0.02,0.00,70001484,68056000,1972000,1
9.89,7.84,0.00,0.17,0.00,509491185,507420000,2001000,1
1.25,1.00,0.00,0.02,0.00,62706623,61714000,995000,1
1.37,1.08,0.00,0.02,0.00,70226324,69226000,1003000,1
1.23,0.98,0.00,0.02,0.00,63212115,62265000,988000,1
0.63,0.48,0.00,0.01,0.00,36125017,35128000,1003000,1
0.73,0.56,0.00,0.01,0.00,42811108,40435000,1972000,2
0.81,0.66,0.00,0.01,0.00,38061955,36025000,2001000,2
0.73,0.54,0.00,0.02,0.00,46337330,41364000,4924000,2
1.89,1.53,0.00,0.03,0.00,88975186,85003000,3953000,2
0.77,0.61,0.00,0.01,0.00,39052067,36998000,1999000,2
0.79,0.63,0.00,0.01,0.00,40216124,36245000,3918000,2
1.84,1.47,0.00,0.03,0.00,90388256,87401000,2979000,2
1.75,1.40,0.00,0.03,0.00,86610597,82635000,3982000,2
0.74,0.57,0.00,0.01,0.00,42490021,39454000,3034000,2
0.90,0.70,0.00,0.02,0.00,48180729,46222000,2009000,2
1.81,1.44,0.00,0.03,0.00,91093234,88084000,3002000,2
1.88,1.50,0.00,0.03,0.00,91363969,84309000,7025000,2
0.73,0.56,0.00,0.01,0.00,42827369,38984000,3898000,2
1.78,1.43,0.00,0.03,0.00,87466035,86499000,994000,2
1.88,1.52,0.00,0.03,0.00,89940898,86916000,2963000,2
1.80,1.44,0.00,0.03,0.00,88658393,85657000,3023000,2
1.75,1.40,0.00,0.03,0.00,87183635,85241000,2005000,2
0.88,0.68,0.00,0.02,0.00,49121443,39999000,8999000,2
2.05,1.63,0.00,0.04,0.00,104509925,97492000,6963000,2
1.74,1.39,0.00,0.03,0.00,87398329,82418000,4964000,2
5.27,4.22,0.00,0.09,0.00,263393798,204083000,59024000,3
6.31,5.08,0.00,0.10,0.00,306643738,256483000,50094000,3
2.76,2.20,0.00,0.05,0.00,136296933,127315000,8951000,3
6.47,5.20,0.00,0.11,0.00,316552053,270608000,45933000,3
6.67,5.39,0.00,0.11,0.00,314406287,262469000,51895000,3
3.88,3.10,0.00,0.07,0.00,194405349,188433000,5982000,3
2.37,1.88,0.00,0.04,0.00,123501594,115476000,8033000,3
6.83,5.54,0.00,0.11,0.00,319912360,257068000,62772000,3
6.81,5.50,0.00,0.11,0.00,320638829,272531000,48093000,3
2.18,1.72,0.00,0.04,0.00,112947024,106982000,5999000,3
2.43,1.92,0.00,0.04,0.00,125490449,112438000,13050000,3
2.23,1.76,0.00,0.04,0.00,113515912,110472000,3012000,3
4.81,3.84,0.00,0.08,0.00,238771941,175828000,62938000,3
2.69,2.15,0.00,0.05,0.00,133288075,122344000,10941000,3
2.49,1.99,0.00,0.04,0.00,122141737,113102000,9008000,3
6.39,5.14,0.00,0.11,0.00,310014522,256928000,52985000,3
2.44,1.93,0.00,0.04,0.00,123027781,117028000,6001000,3
6.60,5.31,0.00,0.11,0.00,318369400,254291000,64073000,3
2.15,1.71,0.00,0.04,0.00,108539455,100575000,7966000,3
4.78,3.83,0.00,0.08,0.00,234863162,165903000,68959000,3
4.68,3.62,0.00,0.09,0.00,260644409,92060000,14009000,4
6.14,4.92,0.00,0.10,0.00,299836094,167335000,13862000,4
4.78,3.81,0.00,0.08,0.00,236128460,103458000,14553000,4
2.79,2.21,0.00,0.05,0.00,141061608,129028000,12002000,4
2.59,2.06,0.00,0.04,0.00,128445660,120299000,8019000,4
5.05,3.98,0.00,0.09,0.00,257553271,128991000,9356000,4
2.68,2.12,0.00,0.05,0.00,133042900,122965000,9997000,4
3.17,2.50,0.00,0.05,0.00,157795631,148771000,8986000,4
6.29,5.04,0.00,0.10,0.00,304311015,176487000,10027000,4
6.83,5.43,0.00,0.11,0.00,334606158,199805000,16922000,4
4.49,3.58,0.00,0.08,0.00,220819783,85804000,16961000,4
4.33,3.45,0.00,0.07,0.00,215635327,207480000,7980000,4
4.35,3.45,0.00,0.07,0.00,217077600,83945000,14990000,4
4.47,3.54,0.00,0.08,0.00,224321724,90169000,15654000,4
5.41,4.28,0.00,0.09,0.00,271995112,142286000,11022000,4
4.56,3.65,0.00,0.08,0.00,220661084,90351000,10039000,4
6.26,5.02,0.00,0.10,0.00,304201328,175147000,10008000,4
5.11,4.03,0.00,0.09,0.00,260542587,129135000,13013000,4
5.67,4.50,0.00,0.10,0.00,282764350,141389000,22059000,4
4.46,3.52,0.00,0.08,0.00,224025152,95624000,10065000,4
4.91,3.84,0.00,0.09,0.00,262994302,95202000,11140000,5
4.48,3.55,0.00,0.08,0.00,225205374,84481000,22338000,5
4.43,3.53,0.00,0.07,0.00,219054184,85969000,15060000,5
3.38,2.65,0.00,0.06,0.00,174602069,169608000,4988000,5
6.36,5.09,0.00,0.11,0.00,311127872,179824000,12055000,5
7.91,6.32,0.00,0.13,0.00,388977872,256987000,13868000,5
4.47,3.53,0.00,0.08,0.00,228882666,94426000,16072000,5
6.93,5.55,0.00,0.11,0.00,335530451,205634000,11535000,5
4.36,3.46,0.00,0.07,0.00,217838743,91371000,8032000,5
3.76,2.95,0.00,0.07,0.00,192051919,180018000,12001000,5
3.76,2.94,0.00,0.07,0.00,194138574,184142000,10007000,5
7.08,5.65,0.00,0.12,0.00,340845631,325750000,15034000,5
4.31,3.42,0.00,0.07,0.00,215420399,86386000,10922000,5
4.55,3.62,0.00,0.08,0.00,226903845,96417000,14208000,5
6.25,5.00,0.00,0.10,0.00,304858751,176613000,9031000,5
3.93,3.09,0.00,0.07,0.00,198234801,188186000,10009000,5
4.06,3.24,0.00,0.07,0.00,203628398,78056000,6988000,5
4.51,3.56,0.00,0.08,0.00,227484733,99623000,9549000,5
4.77,3.78,0.00,0.08,0.00,237223344,103233000,17038000,5
4.42,3.50,0.00,0.08,0.00,221161035,92534000,10058000,5
4.96,3.88,0.00,0.09,0.00,263738329,98103000,14159000,6
1.95,1.58,0.00,0.03,0.00,91529497,87456000,4020000,6
6.67,5.28,0.00,0.11,0.00,336153324,326114000,10003000,6
5.78,4.69,0.00,0.09,0.00,269504288,267482000,2003000,6
1.67,1.32,0.00,0.03,0.00,86389490,81263000,5016000,6
9.09,7.22,0.00,0.15,0.00,448557888,431489000,16979000,6
11.79,9.45,0.00,0.19,0.00,564493631,544419000,20015000,6
8.72,6.91,0.00,0.15,0.00,431427082,407409000,23965000,6
5.55,4.50,0.00,0.09,0.00,259315149,254302000,5005000,6
9.26,7.45,0.00,0.15,0.00,440501872,305606000,16348000,6
3.17,2.53,0.00,0.05,0.00,151810089,147791000,3994000,6
5.67,4.61,0.00,0.09,0.00,261856175,252769000,8991000,6
7.12,5.79,0.00,0.11,0.00,322875401,318711000,3996000,6
3.42,2.73,0.00,0.06,0.00,163577651,155539000,8027000,6
7.86,6.29,0.00,0.13,0.00,380599748,364611000,15982000,6
2.58,2.05,0.00,0.04,0.00,124500493,118487000,6024000,6
2.67,2.13,0.00,0.04,0.00,128030180,118020000,10001000,6
9.10,7.21,0.00,0.15,0.00,448324067,427311000,21015000,6
7.13,5.76,0.00,0.11,0.00,337374458,325357000,12013000,6
1.86,1.48,0.00,0.03,0.00,91601848,82592000,9065000,6
3.02,2.43,0.00,0.05,0.00,148387975,147184000,1001000,7
7.84,6.35,0.00,0.12,0.00,345744565,208759000,136842000,7
8.18,6.63,0.00,0.12,0.00,359340780,213144000,146099000,7
10.20,8.25,0.00,0.16,0.00,481579736,278745000,202815000,7
5.92,4.78,0.00,0.09,0.00,278590999,151319000,127269000,7
8.43,6.78,0.00,0.13,0.00,381689475,242670000,138811000,7
4.38,3.57,0.00,0.07,0.00,199899308,198916000,999000,7
7.98,6.45,0.00,0.12,0.00,353481669,211503000,141667000,7
7.78,6.27,0.00,0.12,0.00,347865636,207765000,139841000,7
2.73,2.21,0.00,0.04,0.00,128816597,126814000,1997000,7
8.04,6.47,0.00,0.12,0.00,359439715,216514000,142679000,7
6.93,5.61,0.00,0.11,0.00,322829580,196512000,126329000,7
4.27,3.47,0.00,0.07,0.00,196701823,194699000,2007000,7
2.96,2.29,0.00,0.06,0.00,163239248,2197000,7338000,7
3.36,2.72,0.00,0.05,0.00,158227427,157220000,1001000,7
4.42,3.57,0.00,0.07,0.00,207433023,69143000,138286000,7
8.18,6.62,0.00,0.12,0.00,358418104,214503000,143667000,7
3.41,2.76,0.00,0.06,0.00,161806707,158792000,2996000,7
2.89,2.33,0.00,0.05,0.00,139602719,137630000,1994000,7
6.51,5.31,0.00,0.10,0.00,292972481,153447000,139497000,7
4.67,3.70,0.00,0.08,0.00,230624918,216205000,14013000,8
6.62,5.36,0.00,0.10,0.00,307004425,246091000,60775000,8
2.45,1.97,0.00,0.04,0.00,118825766,110787000,7984000,8
3.83,3.06,0.00,0.06,0.00,185282950,175152000,10008000,8
3.38,2.72,0.00,0.05,0.00,159334979,143403000,15933000,8
5.18,4.35,0.00,0.06,0.00,182501858,172564000,9974000,8
4.20,3.36,0.00,0.07,0.00,199826231,183818000,15984000,8
4.10,3.32,0.00,0.07,0.00,191303615,182291000,8965000,8
11.26,9.16,0.00,0.17,0.00,504575745,448552000,55944000,8
3.81,3.06,0.00,0.06,0.00,182968186,169010000,14000000,8
5.80,4.67,0.00,0.09,0.00,270214445,215373000,54840000,8
6.04,4.85,0.00,0.10,0.00,288651416,276596000,12025000,8
3.22,2.59,0.00,0.05,0.00,150812877,140761000,9983000,8
7.45,5.96,0.00,0.12,0.00,354703760,283574000,71144000,8
3.36,2.70,0.00,0.05,0.00,158990342,145995000,12999000,8
4.93,4.01,0.00,0.08,0.00,224704695,213695000,10984000,8
5.80,4.68,0.00,0.09,0.00,269633588,246582000,23054000,8
11.10,9.01,0.00,0.17,0.00,511486405,449321000,62044000,8
9.18,7.46,0.00,0.14,0.00,424957235,376919000,47989000,8
3.22,2.59,0.00,0.05,0.00,153852394,142853000,10988000,8
1.08,0.85,0.00,0.02,0.00,58204389,55939000,1997000,9
0.41,0.30,0.00,0.01,0.00,24623675,19522000,5137000,9
0.30,0.22,0.00,0.01,0.00,19028208,16070000,3013000,9
0.08,0.06,0.00,0.00,0.00,5039813,2940000,1960000,9
0.29,0.23,0.00,0.01,0.00,16007390,15979000,0,9
0.08,0.06,0.00,0.00,0.00,5363240,3623000,1811000,9
1.15,0.91,0.00,0.02,0.00,61084926,59136000,2004000,9
1.15,0.91,0.00,0.02,0.00,60043474,59094000,1001000,9
0.51,0.41,0.00,0.01,0.00,25320994,22393000,2920000,9
0.08,0.06,0.00,0.00,0.00,5085691,4046000,1011000,9
0.50,0.38,0.00,0.01,0.00,28942726,24792000,4132000,9
0.38,0.29,0.00,0.01,0.00,21635865,17689000,3930000,9
0.31,0.24,0.00,0.01,0.00,18270587,17250000,1014000,9
0.09,0.06,0.00,0.00,0.00,6311671,4227000,2113000,9
0.47,0.35,0.00,0.01,0.00,29562080,25629000,3942000,9
0.47,0.37,0.00,0.01,0.00,25864919,23015000,2876000,9
1.15,0.92,0.00,0.02,0.00,55975551,53024000,2942000,9
0.34,0.25,0.00,0.01,0.00,21576776,17501000,4118000,9
0.34,0.26,0.00,0.01,0.00,20574481,17650000,2941000,9
0.32,0.24,0.00,0.01,0.00,19287361,18280000,1015000,9
1.09,0.84,0.00,0.02,0.00,61355341,50044000,11009000,10
2.58,2.08,0.00,0.04,0.00,124870207,119840000,4993000,10
1.11,0.85,0.00,0.02,0.00,64068478,58062000,5904000,10
3.00,2.39,0.00,0.05,0.00,149811446,144675000,4988000,10
2.21,1.75,0.00,0.04,0.00,109422767,100353000,9031000,10
2.32,1.91,0.00,0.03,0.00,92481135,81561000,10941000,10
1.73,1.37,0.00,0.03,0.00,87312318,78270000,9031000,10
1.87,1.47,0.00,0.03,0.00,94947364,86071000,8903000,10
3.33,2.68,0.00,0.05,0.00,158205210,151081000,7003000,10
3.10,2.44,0.00,0.05,0.00,156119349,142021000,14101000,10
2.70,2.15,0.00,0.05,0.00,135594916,131557000,3986000,10
2.58,2.08,0.00,0.04,0.00,123917682,117869000,6044000,10
1.87,1.46,0.00,0.03,0.00,95972177,85970000,9996000,10
1.86,1.46,0.00,0.03,0.00,95185986,81191000,14033000,10
3.33,2.68,0.00,0.05,0.00,157854227,150760000,6988000,10
3.36,2.70,0.00,0.05,0.00,160121485,148076000,12006000,10
3.89,3.13,0.00,0.06,0.00,182861686,173828000,8991000,10
1.12,0.88,0.00,0.02,0.00,61001476,48942000,11986000,10
2.74,2.23,0.00,0.04,0.00,124076836,115966000,7997000,10
1.97,1.55,0.00,0.03,0.00,100709424,92653000,8056000,10
1.15,0.90,0.00,0.02,0.00,62488378,62175000,0,11
1.30,1.02,0.00,0.02,0.00,68386585,64483000,3968000,11
10.63,8.54,0.00,0.18,0.00,522295595,521262000,998000,11
1.24,1.00,0.00,0.02,0.00,61276897,60270000,988000,11
1.91,1.53,0.00,0.03,0.00,94388323,91412000,2980000,11
1.13,0.88,0.00,0.02,0.00,60902081,57972000,2947000,11
1.36,1.08,0.00,0.02,0.00,68581247,67578000,993000,11
0.08,0.05,0.00,0.00,0.00,5120344,5164000,0,11
1.17,0.92,0.00,0.02,0.00,61734558,60760000,996000,11
1.97,1.59,0.00,0.03,0.00,94690535,92777000,1995000,11
1.20,0.94,0.00,0.02,0.00,64216214,61268000,3013000,11
2.05,1.67,0.00,0.03,0.00,95041878,94076000,1000000,11
7.61,6.09,0.00,0.12,0.00,346970440,177475000,169499000,11
1.16,0.92,0.00,0.02,0.00,61249292,59301000,2010000,11
1.53,1.22,0.00,0.03,0.00,75885809,73942000,1998000,11
1.30,1.04,0.00,0.02,0.00,65035773,63044000,2001000,11
1.30,1.04,0.00,0.02,0.00,64105432,62111000,2003000,11
2.02,1.62,0.00,0.03,0.00,99946765,98991000,1010000,11
8.14,6.65,0.00,0.13,0.00,369600390,367610000,2003000,11
1.24,0.97,0.00,0.02,0.00,67869269,66917000,1013000,11
0.80,0.62,0.00,0.02,0.00,45982691,38764000,6957000,12
0.92,0.72,0.00,0.02,0.00,49168756,40159000,9035000,12
1.22,0.95,0.00,0.02,0.00,68609574,64651000,3978000,12
2.65,2.16,0.00,0.04,0.00,121967031,117890000,3996000,12
2.58,2.07,0.00,0.04,0.00,128550657,124557000,4017000,12
0.87,0.66,0.00,0.02,0.00,51210532,45111000,6014000,12
2.70,2.18,0.00,0.04,0.00,128599865,122617000,5981000,12
6.33,5.09,0.00,0.10,0.00,301083122,284051000,17003000,12
1.73,1.37,0.00,0.03,0.00,87816309,84776000,3027000,12
2.61,2.11,0.00,0.04,0.00,124525202,122532000,1992000,12
0.79,0.61,0.00,0.01,0.00,43433300,40406000,3030000,12
0.77,0.60,0.00,0.01,0.00,40840952,37798000,2984000,12
0.72,0.55,0.00,0.01,0.00,43253820,40237000,3017000,12
2.82,2.24,0.00,0.05,0.00,141883228,130868000,10988000,12
2.51,1.98,0.00,0.04,0.00,131738419,123744000,7983000,12
2.93,2.33,0.00,0.05,0.00,146237068,139332000,6966000,12
3.12,2.54,0.00,0.05,0.00,144241095,131117000,13011000,12
2.83,2.28,0.00,0.05,0.00,134655169,127667000,6981000,12
1.01,0.79,0.00,0.02,0.00,53061992,46199000,6880000,12
1.04,0.82,0.00,0.02,0.00,53558243,49381000,4031000,12
0.67,0.51,0.00,0.01,0.00,40777158,38519000,1975000,13
0.27,0.20,0.00,0.01,0.00,15686638,14718000,981000,13
0.25,0.20,0.00,0.00,0.00,12863086,11821000,985000,13
0.67,0.52,0.00,0.01,0.00,37299706,35303000,2017000,13
0.27,0.20,0.00,0.01,0.00,15370947,13329000,2050000,13
0.68,0.53,0.00,0.01,0.00,38082022,36033000,2059000,13
0.65,0.51,0.00,0.01,0.00,35512840,35542000,0,13
0.25,0.18,0.00,0.01,0.00,15914512,14097000,1879000,13
0.62,0.48,0.00,0.01,0.00,36513068,34424000,1967000,13
0.65,0.51,0.00,0.01,0.00,35364695,34375000,1011000,13
0.62,0.47,0.00,0.01,0.00,35573778,34536000,1015000,13
0.70,0.55,0.00,0.01,0.00,36576476,35625000,989000,13
0.36,0.27,0.00,0.01,0.00,20317017,18302000,2033000,13
0.63,0.49,0.00,0.01,0.00,34781066,32748000,2046000,13
0.77,0.60,0.00,0.01,0.00,41571036,39634000,1981000,13
0.67,0.52,0.00,0.01,0.00,37412739,36416000,1011000,13
0.63,0.49,0.00,0.01,0.00,36112807,35136000,1003000,13
0.24,0.18,0.00,0.01,0.00,15321261,14315000,1022000,13
0.62,0.48,0.00,0.01,0.00,34942974,33944000,1028000,13
0.61,0.46,0.00,0.01,0.00,36912542,35936000,998000,13
4.25,3.36,0.00,0.07,0.00,217889277,202465000,15109000,14
3.82,3.04,0.00,0.07,0.00,195848933,194879000,999000,14
4.11,3.28,0.00,0.07,0.00,204728627,197690000,7024000,14
2.83,2.24,0.00,0.05,0.00,149739592,146730000,2994000,14
3.54,2.80,0.00,0.06,0.00,183407712,170362000,13027000,14
2.61,2.08,0.00,0.04,0.00,127887152,119814000,8054000,14
3.03,2.42,0.00,0.05,0.00,148825700,134821000,13878000,14
1.44,1.13,0.00,0.03,0.00,75030960,61061000,14014000,14
3.58,2.86,0.00,0.06,0.00,181790980,181813000,0,14
4.77,3.80,0.00,0.08,0.00,235675645,227637000,8022000,14
4.90,3.90,0.00,0.08,0.00,244728283,229645000,14976000,14
5.36,4.30,0.00,0.09,0.00,257878045,241854000,15990000,14
2.67,2.09,0.00,0.05,0.00,142649356,140627000,1994000,14
1.26,0.99,0.00,0.02,0.00,67818580,64801000,2990000,14
4.52,3.63,0.00,0.07,0.00,218612835,202616000,15969000,14
3.23,2.60,0.00,0.05,0.00,156785408,147803000,8988000,14
2.95,2.36,0.00,0.05,0.00,141200360,128206000,13020000,14
4.36,3.49,0.00,0.07,0.00,215150198,205177000,9960000,14
4.82,3.84,0.00,0.08,0.00,239638428,225649000,13978000,14
3.63,2.88,0.00,0.06,0.00,185875163,179930000,5997000,14
1.26,0.99,0.00,0.02,0.00,67886284,64573000,2980000,15
1.17,0.93,0.00,0.02,0.00,59115401,55167000,3940000,15
3.60,2.90,0.00,0.06,0.00,175268116,172263000,3004000,15
1.24,0.98,0.00,0.02,0.00,62663456,58613000,4042000,15
1.26,1.00,0.00,0.02,0.00,65329507,61311000,4020000,15
4.06,3.30,0.00,0.06,0.00,190479654,187467000,2991000,15
3.61,2.91,0.00,0.06,0.00,173074880,168068000,5002000,15
1.08,0.85,0.00,0.02,0.00,56051570,52011000,4000000,15
5.09,4.12,0.00,0.08,0.00,239931704,233896000,5997000,15
1.06,0.84,0.00,0.02,0.00,54136359,50189000,3936000,15
1.09,0.86,0.00,0.02,0.00,55968233,53957000,1998000,15
1.35,1.07,0.00,0.02,0.00,70639785,66613000,4037000,15
3.84,3.11,0.00,0.06,0.00,181332302,177341000,3985000,15
1.21,0.97,0.00,0.02,0.00,60649300,58624000,2021000,15
1.21,0.95,0.00,0.02,0.00,63197800,60189000,3009000,15
1.23,0.98,0.00,0.02,0.00,62358586,56384000,5935000,15
1.06,0.83,0.00,0.02,0.00,56033557,53038000,3002000,15
1.20,0.95,0.00,0.02,0.00,62115418,60115000,2003000,15
1.20,0.94,0.00,0.02,0.00,62004279,59020000,3001000,15
1.14,0.89,0.00,0.02,0.00,61442564,59474000,1982000,15
2.96,2.26,0.00,0.05,0.00,137677045,133454000,4013000,16
3.71,2.95,0.00,0.06,0.00,189117897,186128000,3002000,16
5.36,4.37,0.00,0.08,0.00,243898013,238893000,4997000,16
2.89,2.24,0.00,0.05,0.00,160141109,2416000,6442000,16
6.25,4.97,0.00,0.11,0.00,317396562,314268000,3002000,16
2.46,1.95,0.00,0.04,0.00,127453657,119526000,7968000,16
4.68,3.72,0.00,0.08,0.00,239553855,234575000,4990000,16
5.00,3.99,0.00,0.09,0.00,251519753,244534000,6986000,16
4.75,3.79,0.00,0.08,0.00,238028914,235020000,3000000,16
4.90,3.91,0.00,0.08,0.00,243295451,236276000,7008000,16
4.63,3.66,0.00,0.08,0.00,241311174,236221000,5004000,16
4.85,3.88,0.00,0.08,0.00,239056711,234032000,5000000,16
4.08,3.25,0.00,0.07,0.00,204830161,202719000,2007000,16
6.15,4.93,0.00,0.09,0.00,277359832,151174000,126145000,16
11.13,9.09,0.00,0.17,0.00,504495951,497403000,6991000,16
2.84,2.29,0.00,0.05,0.00,135685268,131686000,3990000,16
4.80,3.84,0.00,0.08,0.00,237590334,233438000,3990000,16
4.87,3.85,0.00,0.09,0.00,250830205,246827000,4013000,16
10.11,8.31,0.00,0.15,0.00,444765727,439794000,4997000,16
2.89,2.29,0.00,0.05,0.00,147890694,145784000,2010000,16
9.45,7.43,0.00,0.17,0.00,505678440,501481000,3995000,17
10.61,8.35,0.00,0.19,0.00,565585237,558582000,7007000,17
17.06,14.00,0.00,0.26,0.00,762093820,755063000,7000000,17
10.67,8.40,0.00,0.19,0.00,564695362,562737000,2002000,17
9.63,7.67,0.00,0.17,0.00,489453094,486328000,3002000,17
10.64,8.38,0.00,0.19,0.00,563005715,558975000,4006000,17
10.51,8.42,0.00,0.18,0.00,518169345,510209000,7987000,17
10.06,8.02,0.00,0.17,0.00,509594210,503524000,5994000,17
9.58,7.57,0.00,0.17,0.00,501316420,499302000,2001000,17
10.73,8.46,0.00,0.19,0.00,565221560,559226000,6002000,17
11.92,9.68,0.00,0.19,0.00,555911503,546808000,8996000,17
10.67,8.40,0.00,0.19,0.00,563458264,559458000,4003000,17
10.77,8.49,0.00,0.19,0.00,565971700,554969000,10999000,17
2.09,1.66,0.00,0.04,0.00,106628456,100592000,6035000,17
9.63,7.60,0.00,0.17,0.00,503323331,500335000,3002000,17
10.74,8.45,0.00,0.19,0.00,565484351,559438000,5993000,17
11.38,9.27,0.00,0.18,0.00,523123613,518040000,5000000,17
9.68,7.64,0.00,0.17,0.00,505568221,503607000,2002000,17
9.61,7.59,0.00,0.17,0.00,500898781,497764000,2998000,17
10.84,8.91,0.00,0.16,0.00,476431873,468422000,8007000,17
2.96,2.30,0.00,0.05,0.00,160532959,3242000,6485000,18
3.09,2.42,0.00,0.05,0.00,131694713,124571000,7032000,18
4.73,3.71,0.00,0.07,0.00,219562718,212527000,6984000,18
8.64,6.96,0.00,0.14,0.00,416490042,413418000,3003000,18
13.83,11.09,0.00,0.22,0.00,657222629,526156000,131039000,18
9.63,7.67,0.00,0.15,0.00,434534837,306674000,127864000,18
2.25,1.81,0.00,0.04,0.00,109925020,105911000,3996000,18
5.16,4.07,0.00,0.08,0.00,242282730,240127000,2001000,18
9.11,7.25,0.00,0.14,0.00,424584898,421507000,3003000,18
3.65,2.90,0.00,0.06,0.00,184555677,181565000,2992000,18
4.60,3.59,0.00,0.07,0.00,218244728,213311000,4983000,18
4.67,3.64,0.00,0.07,0.00,220271003,213254000,7008000,18
2.97,2.37,0.00,0.05,0.00,146263868,143267000,3005000,18
4.42,3.54,0.00,0.07,0.00,217881016,216940000,1004000,18
3.64,2.89,0.00,0.06,0.00,183020910,178054000,4973000,18
4.56,3.55,0.00,0.07,0.00,215734635,208747000,6991000,18
3.39,2.72,0.00,0.06,0.00,164753219,162724000,1996000,18
4.94,3.84,0.00,0.08,0.00,236928073,228935000,7997000,18
10.30,8.19,0.00,0.16,0.00,470350947,318203000,152097000,18
4.68,3.64,0.00,0.07,0.00,220584310,215458000,5010000,18
8.71,7.07,0.00,0.14,0.00,404706430,370886000,31990000,19
2.98,2.35,0.00,0.05,0.00,153800135,1017000,7873000,19
2.44,1.93,0.00,0.04,0.00,120632538,81714000,38864000,19
2.53,2.02,0.00,0.04,0.00,123712826,1029000,8445000,19
2.64,2.13,0.00,0.04,0.00,122566756,1027000,7936000,19
9.90,8.07,0.00,0.15,0.00,445488309,375529000,69912000,19
10.33,8.44,0.00,0.16,0.00,459746575,396639000,63101000,19
2.56,2.06,0.00,0.04,0.00,121412045,9032000,0,19
2.42,1.91,0.00,0.04,0.00,120811057,89862000,30952000,19
2.73,2.17,0.00,0.05,0.00,138182083,109119000,29031000,19
2.56,2.05,0.00,0.04,0.00,123231819,2004000,6838000,19
2.76,2.21,0.00,0.04,0.00,130671537,99493000,31154000,19
2.54,2.02,0.00,0.04,0.00,123567822,1005000,7861000,19
3.40,2.70,0.00,0.05,0.00,160369982,99588000,60749000,19
3.43,2.73,0.00,0.06,0.00,162503588,99689000,62804000,19
14.36,11.65,0.00,0.22,0.00,655578231,589516000,65945000,19
2.44,1.92,0.00,0.04,0.00,122110786,89066000,33024000,19
1.44,1.13,0.00,0.03,0.00,76822437,73900000,2956000,19
2.55,2.03,0.00,0.04,0.00,123556791,88680000,34874000,19
2.63,2.13,0.00,0.04,0.00,121873198,1020000,7968000,19
0.78,0.60,0.00,0.02,0.00,45348336,42092000,3006000,20
0.32,0.24,0.00,0.01,0.00,21044645,20045000,1002000,20
0.75,0.58,0.00,0.01,0.00,43676726,40683000,2976000,20
0.05,0.04,0.00,0.00,0.00,2144395,1085000,1085000,20
0.68,0.53,0.00,0.01,0.00,38004707,36021000,2001000,20
0.60,0.46,0.00,0.01,0.00,35236670,31380000,3922000,20
0.38,0.28,0.00,0.01,0.00,25112505,23113000,2009000,20
0.59,0.45,0.00,0.01,0.00,37083001,35158000,1953000,20
0.71,0.55,0.00,0.01,0.00,38743561,38751000,0,20
0.03,0.03,0.00,0.00,0.00,2142798,1099000,1099000,20
0.79,0.63,0.00,0.02,0.00,43133394,41136000,2006000,20
0.76,0.60,0.00,0.01,0.00,41797367,40776000,1019000,20
0.76,0.59,0.00,0.01,0.00,43182362,41181000,2008000,20
0.83,0.67,0.00,0.01,0.00,40358847,35277000,5039000,20
0.43,0.32,0.00,0.01,0.00,26144234,22266000,3872000,20
0.65,0.52,0.00,0.01,0.00,32513114,30416000,2027000,20
0.80,0.63,0.00,0.01,0.00,42814831,37618000,5083000,20
0.40,0.31,0.00,0.01,0.00,23278506,20400000,2914000,20
0.77,0.60,0.00,0.01,0.00,43441553,41444000,2021000,20
0.76,0.59,0.00,0.01,0.00,41432434,40371000,1009000,20
0.08,0.06,0.00,0.00,0.00,5726871,3303000,2202000,21
0.28,0.20,0.00,0.01,0.00,19254266,9109000,10121000,21
4.17,3.33,0.00,0.07,0.00,211990578,209850000,1998000,21
4.84,3.89,0.00,0.08,0.00,239041166,238049000,1000000,21
0.11,0.08,0.00,0.00,0.00,6912717,6931000,0,21
14.12,11.32,0.00,0.24,0.00,699023274,697953000,999000,21
0.08,0.06,0.00,0.00,0.00,5336316,3574000,1787000,21
3.85,3.08,0.00,0.07,0.00,193630207,192566000,997000,21
0.30,0.23,0.00,0.01,0.00,17940264,8431000,9485000,21
4.21,3.36,0.00,0.07,0.00,211965130,210856000,999000,21
0.43,0.33,0.00,0.01,0.00,24883041,17177000,7634000,21
3.13,2.49,0.00,0.05,0.00,159176603,158191000,1001000,21
0.08,0.06,0.00,0.00,0.00,4852310,3245000,1622000,21
0.22,0.16,0.00,0.00,0.00,14656036,10464000,4185000,21
0.11,0.09,0.00,0.00,0.00,6945767,4954000,1981000,21
0.25,0.19,0.00,0.01,0.00,15902215,14985000,936000,21
0.10,0.07,0.00,0.00,0.00,5848791,2934000,2934000,21
4.58,3.65,0.00,0.08,0.00,231588364,229600000,2005000,21
4.31,3.45,0.00,0.07,0.00,213414207,212379000,1001000,21
0.65,0.50,0.00,0.01,0.00,34699836,29636000,4939000,21
0.25,0.18,0.00,0.01,0.00,16756512,13599000,2914000,22
0.70,0.58,0.00,0.01,0.00,30508520,29373000,1012000,22
0.28,0.21,0.00,0.01,0.00,17473485,13615000,3890000,22
0.68,0.54,0.00,0.01,0.00,35068976,31049000,4006000,22
0.64,0.51,0.00,0.01,0.00,34449904,32444000,1966000,22
0.27,0.21,0.00,0.00,0.00,13826736,12865000,989000,22
1.21,0.94,0.00,0.02,0.00,65318183,56427000,8909000,22
0.26,0.20,0.00,0.01,0.00,14449656,12304000,2050000,22
0.64,0.50,0.00,0.01,0.00,37622580,34531000,3046000,22
0.29,0.22,0.00,0.01,0.00,16512022,13591000,2912000,22
0.88,0.68,0.00,0.02,0.00,49439525,46394000,3025000,22
0.66,0.52,0.00,0.01,0.00,35388142,33380000,2023000,22
0.28,0.22,0.00,0.00,0.00,14180610,12306000,1893000,22
0.25,0.19,0.00,0.01,0.00,16069789,14060000,2008000,22
0.66,0.50,0.00,0.01,0.00,38183375,36100000,2005000,22
0.25,0.19,0.00,0.01,0.00,15171855,14160000,1011000,22
0.27,0.20,0.00,0.01,0.00,15978209,12984000,2996000,22
0.30,0.22,0.00,0.01,0.00,19140371,18154000,1008000,22
0.64,0.49,0.00,0.01,0.00,38431118,34511000,3944000,22
0.65,0.50,0.00,0.01,0.00,36880921,33923000,2993000,22
3.35,2.68,0.00,0.06,0.00,163860779,157581000,5984000,23
1.61,1.25,0.00,0.03,0.00,86804841,74899000,11826000,23
3.20,2.59,0.00,0.05,0.00,151109090,144073000,7003000,23
1.40,1.11,0.00,0.02,0.00,71727161,66707000,4978000,23
1.81,1.45,0.00,0.03,0.00,85496437,78563000,6961000,23
1.48,1.15,0.00,0.03,0.00,80626615,75533000,4969000,23
1.71,1.36,0.00,0.03,0.00,83677711,68454000,15100000,23
3.24,2.58,0.00,0.06,0.00,163417455,157404000,6015000,23
3.20,2.60,0.00,0.05,0.00,149457744,143347000,5972000,23
3.26,2.64,0.00,0.05,0.00,153900746,141840000,12071000,23
1.42,1.11,0.00,0.03,0.00,76433175,72398000,4022000,23
3.35,2.68,0.00,0.06,0.00,165582825,159567000,5983000,23
1.64,1.29,0.00,0.03,0.00,86156200,81113000,5006000,23
1.71,1.35,0.00,0.03,0.00,86076405,79042000,7003000,23
3.35,2.72,0.00,0.05,0.00,157082051,148051000,9003000,23
1.49,1.17,0.00,0.03,0.00,75818690,67985000,7882000,23
1.40,1.08,0.00,0.03,0.00,75468149,73386000,2010000,23
1.46,1.14,0.00,0.03,0.00,80071243,71041000,9005000,23
1.56,1.23,0.00,0.03,0.00,80998289,73989000,6999000,23
3.30,2.68,0.00,0.05,0.00,153498942,145410000,7967000,23
4.19,3.43,0.00,0.06,0.00,190033474,176534000,13039000,24
1.35,1.07,0.00,0.02,0.00,67121539,61106000,6010000,24
1.55,1.21,0.00,0.03,0.00,80111947,74132000,6010000,24
2.97,2.39,0.00,0.05,0.00,142741186,136846000,5949000,24
1.31,1.04,0.00,0.02,0.00,65841700,60767000,5063000,24
1.35,1.07,0.00,0.02,0.00,67847679,59870000,7982000,24
1.41,1.12,0.00,0.02,0.00,70798868,56627000,14156000,24
1.67,1.30,0.00,0.03,0.00,88260361,78131000,10016000,24
1.50,1.18,0.00,0.03,0.00,77467682,70572000,6957000,24
2.16,1.71,0.00,0.04,0.00,107895366,99942000,7995000,24
1.34,1.06,0.00,0.02,0.00,68411528,60359000,8047000,24
1.59,1.25,0.00,0.03,0.00,82035049,70006000,12001000,24
1.41,1.11,0.00,0.03,0.00,73636273,63830000,9820000,24
3.31,2.65,0.00,0.05,0.00,159993082,154980000,4999000,24
1.42,1.12,0.00,0.02,0.00,72704102,65736000,6972000,24
1.27,1.01,0.00,0.02,0.00,65442478,61472000,3965000,24
1.36,1.08,0.00,0.02,0.00,68006701,65032000,2956000,24
1.57,1.24,0.00,0.03,0.00,80048620,67875000,12156000,24
1.57,1.24,0.00,0.03,0.00,78175296,71141000,7013000,24
1.81,1.42,0.00,0.03,0.00,92565573,81616000,10948000,24
1.50,1.19,0.00,0.03,0.00,78055832,71831000,5903000,25
1.83,1.44,0.00,0.03,0.00,94889232,85037000,9888000,25
2.28,1.91,0.00,0.03,0.00,86629612,81299000,5018000,25
1.62,1.27,0.00,0.03,0.00,85498631,75550000,9940000,25
1.72,1.36,0.00,0.03,0.00,88217914,83180000,5010000,25
1.74,1.36,0.00,0.03,0.00,92536481,79565000,12929000,25
1.70,1.33,0.00,0.03,0.00,90026861,83003000,6916000,25
1.58,1.26,0.00,0.03,0.00,79374218,75375000,4020000,25
1.81,1.43,0.00,0.03,0.00,93356770,80501000,12920000,25
1.64,1.29,0.00,0.03,0.00,85504697,76424000,9050000,25
1.65,1.32,0.00,0.03,0.00,80260904,75135000,5009000,25
1.64,1.28,0.00,0.03,0.00,87930140,81938000,5995000,25
1.65,1.31,0.00,0.03,0.00,83778694,81721000,2017000,25
3.35,2.71,0.00,0.05,0.00,157868747,150830000,6992000,25
1.61,1.28,0.00,0.03,0.00,80289928,73269000,7025000,25
1.64,1.30,0.00,0.03,0.00,81438398,73351000,8038000,25
1.51,1.17,0.00,0.03,0.00,81492670,74374000,7035000,25
3.65,2.96,0.00,0.06,0.00,169816874,162748000,7032000,25
3.37,2.70,0.00,0.06,0.00,161750482,155754000,5990000,25
1.92,1.52,0.00,0.03,0.00,96016145,87005000,9000000,25
3.35,2.69,0.00,0.06,0.00,164447058,158176000,6006000,26
2.93,2.36,0.00,0.05,0.00,141628933,138592000,3012000,26
1.22,1.00,0.00,0.02,0.00,55154429,51117000,4009000,26
1.41,1.12,0.00,0.02,0.00,71610960,65503000,6046000,26
2.08,1.64,0.00,0.04,0.00,104945499,101944000,2998000,26
2.98,2.40,0.00,0.05,0.00,145431479,138481000,6973000,26
2.98,2.41,0.00,0.05,0.00,141632379,138554000,2990000,26
1.49,1.20,0.00,0.02,0.00,70517015,62465000,8060000,26
1.22,0.97,0.00,0.02,0.00,63120161,60119000,3005000,26
1.68,1.32,0.00,0.03,0.00,86319935,76313000,10041000,26
1.51,1.20,0.00,0.03,0.00,76008041,66978000,8997000,26
1.67,1.32,0.00,0.03,0.00,85064784,72875000,12145000,26
1.34,1.05,0.00,0.02,0.00,70403311,62501000,7936000,26
3.00,2.42,0.00,0.05,0.00,143696247,138657000,4987000,26
1.36,1.07,0.00,0.02,0.00,72227401,68167000,3951000,26
3.10,2.51,0.00,0.05,0.00,147622106,138643000,8976000,26
6.70,5.35,0.00,0.11,0.00,325560811,314491000,10982000,26
1.41,1.14,0.00,0.02,0.00,64702513,61644000,2982000,26
0.51,0.39,0.00,0.01,0.00,28334721,22470000,5861000,26
3.00,2.42,0.00,0.05,0.00,141714418,139712000,1995000,26
5.11,4.14,0.00,0.08,0.00,240660614,232349000,8012000,27
5.04,4.10,0.00,0.08,0.00,232744742,224708000,7989000,27
1.90,1.50,0.00,0.03,0.00,98167710,89161000,9016000,27
5.11,4.16,0.00,0.08,0.00,234833154,225708000,8948000,27
1.95,1.56,0.00,0.03,0.00,95312334,90279000,5015000,27
1.94,1.55,0.00,0.03,0.00,96858567,87860000,8985000,27
1.99,1.58,0.00,0.03,0.00,100069898,91061000,9006000,27
5.03,4.08,0.00,0.08,0.00,236843287,227870000,8955000,27
5.01,4.05,0.00,0.08,0.00,236951408,227947000,8997000,27
1.88,1.49,0.00,0.03,0.00,94910235,90925000,3996000,27
1.97,1.59,0.00,0.03,0.00,94850586,86837000,7985000,27
5.16,4.20,0.00,0.08,0.00,237432108,230381000,7011000,27
5.15,4.19,0.00,0.08,0.00,237433229,234324000,3004000,27
1.94,1.54,0.00,0.03,0.00,95943516,86943000,8994000,27
2.06,1.65,0.00,0.03,0.00,100228658,92185000,8016000,27
5.15,4.19,0.00,0.08,0.00,235915527,229859000,5996000,27
5.19,4.22,0.00,0.08,0.00,238476158,233458000,4988000,27
1.81,1.44,0.00,0.03,0.00,92257181,85253000,7020000,27
1.97,1.58,0.00,0.03,0.00,95726487,90741000,4985000,27
2.02,1.59,0.00,0.04,0.00,104723451,96612000,7968000,27
3.31,2.65,0.00,0.06,0.00,165600742,159823000,1997000,28
4.46,3.59,0.00,0.07,0.00,219396284,217430000,1994000,28
2.55,2.11,0.00,0.04,0.00,109322407,107292000,2005000,28
3.86,3.14,0.00,0.06,0.00,180756141,152624000,28115000,28
5.72,4.62,0.00,0.09,0.00,273976933,236854000,36977000,28
5.32,4.34,0.00,0.08,0.00,244840281,207844000,36972000,28
14.64,11.97,0.00,0.22,0.00,659435323,656383000,2997000,28
3.57,2.88,0.00,0.06,0.00,171751597,166791000,4993000,28
5.27,4.29,0.00,0.08,0.00,243692392,218732000,24969000,28
2.58,2.12,0.00,0.04,0.00,116991792,114860000,1997000,28
6.32,5.10,0.00,0.10,0.00,304545617,269497000,35064000,28
3.36,2.75,0.00,0.05,0.00,151720018,149717000,2009000,28
3.37,2.75,0.00,0.05,0.00,154183426,152191000,2002000,28
3.48,2.84,0.00,0.05,0.00,160899432,130918000,29981000,28
3.55,2.88,0.00,0.06,0.00,167047657,142036000,25006000,28
3.06,2.47,0.00,0.05,0.00,147187092,118135000,29033000,28
3.55,2.91,0.00,0.05,0.00,158878819,153954000,4966000,28
4.58,3.73,0.00,0.07,0.00,209740190,184699000,24959000,28
2.96,2.39,0.00,0.05,0.00,141948379,139031000,2979000,28
13.66,11.08,0.00,0.22,0.00,639385470,636259000,3001000,28
0.60,0.45,0.00,0.01,0.00,36229563,28905000,6977000,29
1.08,0.85,0.00,0.02,0.00,55325688,52308000,3017000,29
0.82,0.63,0.00,0.02,0.00,46625922,37690000,8926000,29
3.24,2.60,0.00,0.05,0.00,158893210,106589000,52289000,29
1.04,0.81,0.00,0.02,0.00,55271874,50280000,5028000,29
0.43,0.33,0.00,0.01,0.00,24931827,18934000,5979000,29
0.60,0.46,0.00,0.01,0.00,34719866,25784000,8925000,29
0.62,0.48,0.00,0.01,0.00,34762072,27032000,7723000,29
1.54,1.26,0.00,0.02,0.00,67587594,58539000,8929000,29
4.27,3.43,0.00,0.07,0.00,190971867,99993000,90993000,29
1.08,0.85,0.00,0.02,0.00,57987637,54002000,4000000,29
2.62,2.08,0.00,0.04,0.00,129302017,118261000,11024000,29
1.02,0.80,0.00,0.02,0.00,53372291,44337000,9069000,29
0.94,0.73,0.00,0.02,0.00,48920435,39917000,8981000,29
1.10,0.87,0.00,0.02,0.00,56000496,52975000,2998000,29
0.62,0.47,0.00,0.01,0.00,37241958,32207000,5032000,29
0.61,0.47,0.00,0.01,0.00,34291543,31261000,3025000,29
1.17,0.93,0.00,0.02,0.00,59178911,52303000,6907000,29
1.14,0.91,0.00,0.02,0.00,56699136,49757000,6966000,29
0.94,0.73,0.00,0.02,0.00,48204201,37399000,10826000,29
12.14,9.89,0.00,0.19,0.00,564130780,531790000,31987000,30
3.12,2.51,0.00,0.05,0.00,151047187,142040000,9002000,30
3.88,3.12,0.00,0.06,0.00,184743995,176773000,7989000,30
2.93,2.36,0.00,0.05,0.00,142879631,138873000,3996000,30
2.51,2.02,0.00,0.04,0.00,119105804,112971000,5998000,30
6.47,5.24,0.00,0.10,0.00,298615045,283612000,14979000,30
3.92,3.16,0.00,0.06,0.00,186482080,181485000,4985000,30
5.72,4.67,0.00,0.09,0.00,260957542,254923000,5998000,30
2.86,2.31,0.00,0.05,0.00,136884740,132867000,3996000,30
5.34,4.29,0.00,0.09,0.00,253501473,243493000,9979000,30
4.99,4.05,0.00,0.08,0.00,229997238,198904000,30985000,30
10.32,8.44,0.00,0.16,0.00,462080346,421966000,39996000,30
4.67,3.65,0.00,0.09,0.00,250340300,87300000,4013000,30
4.37,3.54,0.00,0.07,0.00,202595869,196577000,6017000,30
2.87,2.32,0.00,0.05,0.00,134545007,124549000,9963000,30
4.41,3.58,0.00,0.07,0.00,203646755,170515000,33100000,30
3.84,3.10,0.00,0.06,0.00,179524304,171541000,7978000,30
3.04,2.45,0.00,0.05,0.00,144247794,131205000,13020000,30
8.26,6.71,0.00,0.13,0.00,382138200,355129000,27009000,30
3.26,2.61,0.00,0.05,0.00,157374054,147392000,9958000,30
3.28,2.65,0.00,0.05,0.00,157631881,156368000,995000,31
1.87,1.47,0.00,0.03,0.00,99721372,98777000,1007000,31
4.47,3.65,0.00,0.07,0.00,206045609,206032000,0,31
4.09,3.31,0.00,0.07,0.00,193183329,192145000,1000000,31
3.41,2.74,0.00,0.06,0.00,166005663,165014000,1000000,31
3.28,2.66,0.00,0.05,0.00,154054117,153010000,1000000,31
5.91,4.81,0.00,0.09,0.00,273605930,270503000,2994000,31
0.40,0.31,0.00,0.01,0.00,22946303,22031000,1001000,31
2.02,1.60,0.00,0.04,0.00,103223628,96169000,6940000,31
3.35,2.72,0.00,0.05,0.00,155529844,154538000,997000,31
3.43,2.74,0.00,0.06,0.00,170446800,169483000,996000,31
3.62,2.94,0.00,0.06,0.00,170488250,169408000,1002000,31
3.35,2.71,0.00,0.05,0.00,160992656,159924000,999000,31
3.53,2.86,0.00,0.06,0.00,166044829,165097000,1000000,31
3.69,3.00,0.00,0.06,0.00,171108578,170107000,1000000,31
3.41,2.76,0.00,0.06,0.00,162439123,161446000,1002000,31
3.44,2.77,0.00,0.06,0.00,165481336,164539000,1003000,31
3.34,2.71,0.00,0.05,0.00,158800475,158791000,0,31
0.31,0.23,0.00,0.01,0.00,19858773,18880000,993000,31
0.35,0.28,0.00,0.01,0.00,17361581,16366000,1022000,31
