@relation problema
@attribute 'pkg' real
@attribute 'cores' real
@attribute 'ram' real
@attribute 'gpu' real
@attribute 'psys' real
@attribute 'duration_time' real
@attribute 'user_time' real
@attribute 'system_time' real
@attribute 'class' {0,1,2,3,4,5,6,7,8,9,10,11,12,13,14,15,16,17,18,19,20,21,22,23,24,25,26,27,28,29,30,31}
@data
3.00,2.41,0.00,0.05,0.00,151420669,127324000,23873000,0
0.64,0.50,0.00,0.01,0.00,34625072,33630000,989000,0
3.10,2.50,0.00,0.05,0.00,152099590,118315000,33804000,0
3.09,2.50,0.00,0.05,0.00,149228588,123174000,26036000,0
3.14,2.54,0.00,0.05,0.00,151504071,123632000,27916000,0
1.85,1.47,0.00,0.03,0.00,95031935,69062000,26023000,0
3.07,2.51,0.00,0.05,0.00,142435309,118301000,24061000,0
4.31,3.66,0.00,0.05,0.00,153487588,121410000,32108000,0
3.03,2.45,0.00,0.05,0.00,147776842,124837000,22970000,0
0.65,0.50,0.00,0.01,0.00,36963240,34915000,1995000,0
3.15,2.55,0.00,0.05,0.00,154365939,124312000,30075000,0
0.62,0.48,0.00,0.01,0.00,35881976,34865000,1025000,0
3.06,2.47,0.00,0.05,0.00,149673787,122760000,26947000,0
3.07,2.48,0.00,0.05,0.00,150963590,120189000,30792000,0
0.65,0.50,0.00,0.01,0.00,36531711,34541000,2031000,0
1.96,1.57,0.00,0.03,0.00,97532972,96538000,1005000,0
0.61,0.45,0.00,0.01,0.00,39367868,38311000,1008000,0
3.10,2.50,0.00,0.05,0.00,153165995,121130000,32034000,0
3.15,2.54,0.00,0.05,0.00,153256107,124214000,29050000,0
3.12,2.52,0.00,0.05,0.00,152050401,119896000,31972000,0
1.46,1.14,0.00,0.03,0.00,81600614,80443000,1005000,1
5.42,4.30,0.00,0.10,0.00,285505391,282569000,2995000,1
44.36,36.35,0.00,0.69,0.00,2032524135,2031167000,1000000,1
1.44,1.14,0.00,0.03,0.00,75289547,74254000,990000,1
1.17,0.89,0.00,0.02,0.00,67911464,66934000,999000,1
43.20,35.22,0.00,0.68,0.00,2016326334,2015344000,1000000,1
1.68,1.34,0.00,0.03,0.00,84988090,83046000,2001000,1
1.56,1.24,0.00,0.03,0.00,80984660,80017000,987000,1
1.43,1.13,0.00,0.03,0.00,75235118,74256000,1003000,1
1.46,1.16,0.00,0.03,0.00,76501965,75499000,1006000,1
2.34,1.89,0.00,0.04,0.00,114452804,112444000,2007000,1
3.33,2.67,0.00,0.06,0.00,166457460,164516000,1994000,1
0.71,0.57,0.00,0.01,0.00,36256749,34189000,1953000,1
2.16,1.73,0.00,0.04,0.00,106684816,105708000,997000,1
1.83,1.44,0.00,0.03,0.00,98369479,96327000,1986000,1
42.15,34.45,0.00,0.66,0.00,1941304069,1940300000,1000000,1
1.99,1.58,0.00,0.03,0.00,101040557,99043000,2000000,1
1.85,1.48,0.00,0.03,0.00,93147339,92157000,1001000,1
2.00,1.60,0.00,0.03,0.00,101088953,98108000,3003000,1
0.81,0.61,0.00,0.02,0.00,48503864,47497000,1010000,1
1.95,1.56,0.00,0.03,0.00,101410533,96135000,5007000,2
3.40,2.75,0.00,0.06,0.00,165075346,160105000,4972000,2
2.29,1.83,0.00,0.04,0.00,116133442,114129000,2002000,2
4.65,3.78,0.00,0.07,0.00,218885875,211983000,6966000,2
3.43,2.77,0.00,0.06,0.00,164770507,162770000,1997000,2
3.52,2.85,0.00,0.06,0.00,169500159,166503000,2991000,2
4.63,3.76,0.00,0.07,0.00,218859570,214863000,3997000,2
3.02,2.44,0.00,0.05,0.00,144988643,140893000,3996000,2
2.00,1.61,0.00,0.03,0.00,98056997,97056000,1000000,2
6.51,5.29,0.00,0.10,0.00,307148063,304834000,1998000,2
3.07,2.50,0.00,0.05,0.00,145434023,142420000,3008000,2
4.56,3.69,0.00,0.07,0.00,219971232,216985000,2999000,2
1.92,1.53,0.00,0.03,0.00,99809244,96679000,3021000,2
4.49,3.63,0.00,0.07,0.00,215513138,212521000,3007000,2
4.40,3.57,0.00,0.07,0.00,209528587,204586000,4989000,2
3.08,2.50,0.00,0.05,0.00,145828483,141811000,4023000,2
2.93,2.35,0.00,0.05,0.00,146809942,144759000,2010000,2
3.94,3.22,0.00,0.06,0.00,182120477,177001000,5000000,2
6.60,5.39,0.00,0.10,0.00,304102946,301047000,3000000,2
3.03,2.46,0.00,0.05,0.00,143758070,140742000,3015000,2
9.92,8.06,0.00,0.16,0.00,469756301,414571000,54943000,3
10.30,8.37,0.00,0.17,0.00,488311679,432370000,55918000,3
8.66,7.03,0.00,0.14,0.00,411869863,405772000,5996000,3
10.00,8.13,0.00,0.16,0.00,474710301,431732000,42973000,3
15.82,12.99,0.00,0.24,0.00,694696152,622699000,71965000,3
7.76,6.31,0.00,0.12,0.00,363444749,355315000,8007000,3
6.50,5.31,0.00,0.10,0.00,298138876,292042000,6000000,3
11.44,9.29,0.00,0.18,0.00,541516530,496436000,44948000,3
11.83,9.65,0.00,0.19,0.00,548391427,482152000,66020000,3
7.03,5.71,0.00,0.11,0.00,331994449,323976000,7974000,3
7.54,6.12,0.00,0.12,0.00,354090213,349081000,5001000,3
7.04,5.68,0.00,0.12,0.00,339559742,333567000,5992000,3
8.62,6.98,0.00,0.14,0.00,410443644,371364000,39038000,3
9.69,7.83,0.00,0.16,0.00,467138599,456111000,11002000,3
6.43,5.24,0.00,0.10,0.00,297944914,292884000,4981000,3
10.49,8.52,0.00,0.17,0.00,492706286,455635000,36970000,3
6.78,5.49,0.00,0.11,0.00,322074266,312052000,10001000,3
10.50,8.54,0.00,0.17,0.00,489826031,437813000,51977000,3
5.77,4.67,0.00,0.09,0.00,274936143,268945000,5998000,3
8.88,7.21,0.00,0.14,0.00,418334604,364412000,53913000,3
6.11,4.81,0.00,0.11,0.00,323852995,152647000,16068000,4
8.36,6.77,0.00,0.14,0.00,396520832,267963000,9998000,4
8.01,6.47,0.00,0.13,0.00,383241864,245358000,18538000,4
6.01,4.83,0.00,0.10,0.00,294468514,162951000,12333000,4
6.77,5.48,0.00,0.11,0.00,321339104,316302000,5004000,4
6.00,4.81,0.00,0.10,0.00,295640217,170278000,7011000,4
5.46,4.39,0.00,0.09,0.00,264148602,253190000,10964000,4
6.15,4.96,0.00,0.10,0.00,293145758,283172000,9970000,4
8.00,6.47,0.00,0.13,0.00,383054209,253523000,11022000,4
9.41,7.59,0.00,0.15,0.00,450351638,321615000,10019000,4
7.35,5.91,0.00,0.12,0.00,354457077,222440000,13025000,4
8.72,7.11,0.00,0.14,0.00,402041303,395007000,6982000,4
6.38,5.15,0.00,0.10,0.00,302523013,173845000,9991000,4
7.97,6.44,0.00,0.13,0.00,380364134,250522000,10979000,4
6.29,5.04,0.00,0.10,0.00,304079832,170864000,14988000,4
6.53,5.24,0.00,0.11,0.00,317508014,186427000,12323000,4
7.81,6.34,0.00,0.12,0.00,359533343,223373000,17237000,4
6.51,5.21,0.00,0.11,0.00,318950836,185797000,13984000,4
8.85,7.16,0.00,0.14,0.00,415982111,279131000,18008000,4
6.75,5.43,0.00,0.11,0.00,326366053,192263000,14942000,4
6.41,5.06,0.00,0.11,0.00,335931284,172947000,12996000,5
6.86,5.50,0.00,0.12,0.00,339885056,208071000,13530000,5
6.53,5.25,0.00,0.11,0.00,318093599,190398000,9018000,5
7.22,5.86,0.00,0.12,0.00,339123584,335136000,3989000,5
9.78,8.12,0.00,0.14,0.00,399919154,267885000,12512000,5
10.41,8.42,0.00,0.17,0.00,491293997,350367000,21022000,5
6.06,4.87,0.00,0.10,0.00,294350832,165987000,9999000,5
8.35,6.81,0.00,0.13,0.00,382553415,261773000,10029000,5
5.98,4.80,0.00,0.10,0.00,293086470,166710000,8984000,5
8.19,6.63,0.00,0.13,0.00,385951913,376870000,9020000,5
5.07,4.03,0.00,0.09,0.00,251740346,236782000,14986000,5
21.07,17.19,0.00,0.33,0.00,965488178,951474000,13992000,5
6.44,5.18,0.00,0.11,0.00,311605489,185340000,7288000,5
6.26,5.03,0.00,0.10,0.00,302213654,173139000,10008000,5
8.07,6.53,0.00,0.13,0.00,382923238,249077000,15065000,5
6.12,4.92,0.00,0.10,0.00,296171817,165205000,12374000,5
5.58,4.48,0.00,0.09,0.00,268697104,142824000,8961000,5
6.23,5.00,0.00,0.10,0.00,301030919,170493000,11031000,5
6.36,5.10,0.00,0.11,0.00,308215260,175292000,13529000,5
6.56,5.28,0.00,0.11,0.00,313416031,180462000,14035000,5
8.77,6.97,0.00,0.15,0.00,453882823,272568000,18781000,6
3.13,2.54,0.00,0.05,0.00,149871526,144867000,4995000,6
23.85,19.30,0.00,0.39,0.00,1143896771,1128919000,14985000,6
7.43,6.12,0.00,0.11,0.00,326142549,320197000,6003000,6
4.30,3.49,0.00,0.07,0.00,206155280,198133000,8005000,6
26.41,21.42,0.00,0.42,0.00,1250357655,1236210000,14002000,6
23.86,19.32,0.00,0.38,0.00,1128604410,1105570000,22991000,6
21.22,17.11,0.00,0.35,0.00,1016445572,1002443000,14006000,6
7.94,6.50,0.00,0.12,0.00,363820381,359826000,4009000,6
24.06,19.55,0.00,0.38,0.00,1125397498,991638000,14994000,6
19.09,15.63,0.00,0.29,0.00,866621419,860467000,6003000,6
22.97,18.62,0.00,0.37,0.00,1090930989,1085946000,4999000,6
43.14,35.42,0.00,0.66,0.00,1932008926,1926848000,4999000,6
13.10,10.68,0.00,0.20,0.00,603822381,594662000,9010000,6
25.71,20.87,0.00,0.41,0.00,1204018318,1188887000,14998000,6
9.20,7.49,0.00,0.14,0.00,422809712,415780000,7013000,6
16.17,13.21,0.00,0.25,0.00,735680050,730607000,5004000,6
42.66,34.60,0.00,0.68,0.00,2004009457,1984957000,18999000,6
39.19,32.12,0.00,0.60,0.00,1773409686,1766191000,7000000,6
5.40,4.40,0.00,0.08,0.00,248839935,240849000,7994000,6
21.60,17.83,0.00,0.32,0.00,956703619,954467000,1998000,7
67.91,56.00,0.00,1.02,0.00,2992270724,2843869000,147993000,7
87.56,72.34,0.00,1.29,0.00,3808707698,3676517000,132018000,7
36.52,29.89,0.00,0.56,0.00,1661747560,1454599000,207085000,7
22.81,18.65,0.00,0.35,0.00,1041831526,905576000,136086000,7
54.74,44.79,0.00,0.84,0.00,2467935580,2315685000,152044000,7
55.47,45.49,0.00,0.85,0.00,2507487963,2507458000,0,7
67.02,55.26,0.00,0.99,0.00,2929504880,2775182000,153954000,7
67.40,55.15,0.00,1.03,0.00,3042346253,2895001000,146949000,7
23.56,19.25,0.00,0.37,0.00,1078883717,1075736000,2999000,7
88.35,72.44,0.00,1.34,0.00,3947751789,3794263000,152970000,7
26.66,21.84,0.00,0.41,0.00,1199807422,1082646000,116961000,7
20.62,16.86,0.00,0.32,0.00,939170687,936042000,3000000,7
2.93,2.27,0.00,0.06,0.00,163762035,4794000,4794000,7
41.84,34.44,0.00,0.63,0.00,1844663807,1844557000,0,7
8.90,7.29,0.00,0.13,0.00,397139786,272003000,125001000,7
88.71,72.74,0.00,1.34,0.00,3960574725,3817243000,142971000,7
61.98,50.97,0.00,0.93,0.00,2742767570,2740404000,1999000,7
47.05,38.84,0.00,0.70,0.00,2052633397,2049520000,3000000,7
27.47,22.49,0.00,0.42,0.00,1236371059,1102057000,134007000,7
7.39,5.95,0.00,0.12,0.00,351977091,334498000,17025000,8
10.40,8.49,0.00,0.16,0.00,477109856,416088000,61012000,8
4.79,3.87,0.00,0.08,0.00,228763912,220733000,7990000,8
13.68,11.14,0.00,0.22,0.00,635928998,627953000,7999000,8
10.02,8.13,0.00,0.16,0.00,470921747,456910000,13966000,8
8.78,7.16,0.00,0.14,0.00,399848819,390664000,9015000,8
11.73,9.54,0.00,0.19,0.00,547788914,529706000,18024000,8
4.73,3.84,0.00,0.08,0.00,221949425,212945000,8997000,8
16.23,13.26,0.00,0.25,0.00,733753336,662733000,70971000,8
12.74,10.41,0.00,0.20,0.00,584388529,568348000,16009000,8
14.15,11.58,0.00,0.22,0.00,641164802,583149000,58014000,8
8.88,7.22,0.00,0.14,0.00,412751356,400762000,11963000,8
9.24,7.55,0.00,0.14,0.00,420299436,412259000,8005000,8
15.14,12.25,0.00,0.24,0.00,709393672,642306000,67031000,8
4.70,3.80,0.00,0.07,0.00,220565809,206568000,13970000,8
17.96,14.75,0.00,0.27,0.00,803829023,792770000,11010000,8
24.36,19.92,0.00,0.38,0.00,1106157000,1081101000,25002000,8
15.32,12.47,0.00,0.24,0.00,706192080,635129000,71014000,8
13.63,11.14,0.00,0.21,0.00,620944472,551902000,68987000,8
9.75,7.93,0.00,0.15,0.00,452197981,435226000,16969000,8
1.22,0.96,0.00,0.02,0.00,66863654,64612000,2019000,9
1.67,1.33,0.00,0.03,0.00,85417021,81389000,4019000,9
0.37,0.28,0.00,0.01,0.00,24329945,22380000,1946000,9
0.21,0.16,0.00,0.00,0.00,12851456,11864000,988000,9
0.33,0.24,0.00,0.01,0.00,22044687,18036000,4008000,9
0.23,0.16,0.00,0.01,0.00,16225447,14218000,2031000,9
1.14,0.90,0.00,0.02,0.00,60812596,60821000,0,9
1.20,0.97,0.00,0.02,0.00,59214851,56220000,2958000,9
0.60,0.47,0.00,0.01,0.00,34164846,32213000,1952000,9
0.14,0.10,0.00,0.00,0.00,9110937,6073000,3036000,9
0.69,0.54,0.00,0.01,0.00,37487924,35412000,2023000,9
0.43,0.32,0.00,0.01,0.00,25627565,22556000,3075000,9
0.50,0.38,0.00,0.01,0.00,31036616,28958000,1997000,9
0.20,0.16,0.00,0.00,0.00,11521177,7676000,3838000,9
0.54,0.40,0.00,0.01,0.00,34773489,30682000,4090000,9
0.54,0.42,0.00,0.01,0.00,31437510,26540000,4914000,9
1.27,1.01,0.00,0.02,0.00,66271912,62907000,3373000,9
0.70,0.54,0.00,0.01,0.00,39007764,36952000,2052000,9
0.39,0.30,0.00,0.01,0.00,22013480,18989000,2998000,9
2.28,1.83,0.00,0.04,0.00,112179061,110168000,2003000,9
4.44,3.62,0.00,0.07,0.00,208104781,204785000,2996000,10
6.75,5.52,0.00,0.11,0.00,312531096,308519000,3993000,10
4.74,3.87,0.00,0.07,0.00,218776339,214729000,3994000,10
6.30,5.12,0.00,0.10,0.00,296204618,288232000,7978000,10
7.25,5.89,0.00,0.12,0.00,338877576,330861000,8020000,10
5.18,4.21,0.00,0.08,0.00,243762828,233641000,9984000,10
5.61,4.56,0.00,0.09,0.00,262579628,256558000,6013000,10
5.84,4.76,0.00,0.09,0.00,271333329,259373000,12017000,10
7.42,6.05,0.00,0.12,0.00,343297387,334134000,9003000,10
8.67,7.01,0.00,0.14,0.00,408224611,396204000,12006000,10
5.92,4.84,0.00,0.09,0.00,272243358,267194000,5003000,10
5.85,4.79,0.00,0.09,0.00,268529047,260420000,7982000,10
6.24,5.09,0.00,0.10,0.00,284397446,272332000,12014000,10
5.90,4.81,0.00,0.09,0.00,271217033,256190000,15011000,10
7.20,5.88,0.00,0.11,0.00,327728539,313697000,13986000,10
8.32,6.81,0.00,0.13,0.00,378262020,369205000,8980000,10
9.15,7.48,0.00,0.14,0.00,413595179,395584000,17981000,10
4.44,3.63,0.00,0.07,0.00,203575225,196498000,7017000,10
5.85,4.80,0.00,0.09,0.00,261891173,255809000,5995000,10
5.63,4.59,0.00,0.09,0.00,258206356,250160000,8005000,10
7.31,5.94,0.00,0.12,0.00,346505481,344181000,2001000,11
28.39,23.17,0.00,0.45,0.00,1321772323,1319693000,2001000,11
46.39,37.78,0.00,0.74,0.00,2182257032,2180968000,999000,11
4.47,3.63,0.00,0.07,0.00,213165477,212086000,1000000,11
11.81,9.71,0.00,0.18,0.00,531275291,529184000,1996000,11
5.31,4.32,0.00,0.08,0.00,249459192,247387000,2003000,11
20.80,16.96,0.00,0.33,0.00,965267438,964167000,1000000,11
0.12,0.09,0.00,0.00,0.00,8616271,7549000,1078000,11
11.06,8.99,0.00,0.18,0.00,521686713,520701000,999000,11
11.81,9.62,0.00,0.19,0.00,549726653,548594000,999000,11
4.62,3.76,0.00,0.07,0.00,215175544,213188000,2001000,11
10.16,8.27,0.00,0.16,0.00,475849577,473853000,1999000,11
33.16,26.87,0.00,0.53,0.00,1550492449,1387470000,162937000,11
7.86,6.41,0.00,0.12,0.00,366189847,364203000,2001000,11
11.35,9.28,0.00,0.18,0.00,521168027,520097000,1000000,11
8.17,6.69,0.00,0.13,0.00,372627137,371550000,998000,11
28.47,23.22,0.00,0.45,0.00,1319144859,1318050000,1000000,11
20.81,17.02,0.00,0.32,0.00,953921498,952830000,999000,11
60.53,49.81,0.00,0.91,0.00,2677283014,2674000000,2998000,11
15.96,12.99,0.00,0.25,0.00,744132854,742996000,999000,11
3.00,2.43,0.00,0.05,0.00,144071802,139764000,3993000,12
4.09,3.31,0.00,0.07,0.00,196994069,189020000,8000000,12
4.12,3.34,0.00,0.07,0.00,196371586,189242000,7008000,12
5.14,4.21,0.00,0.08,0.00,234296258,231138000,3001000,12
5.87,4.91,0.00,0.08,0.00,237242900,233088000,3984000,12
3.91,3.19,0.00,0.06,0.00,181379523,174330000,6973000,12
4.90,3.99,0.00,0.08,0.00,231052694,227961000,2986000,12
16.68,13.70,0.00,0.25,0.00,744036184,717006000,27000000,12
6.30,5.12,0.00,0.10,0.00,295392573,285417000,9979000,12
4.66,3.81,0.00,0.07,0.00,213081016,208094000,5002000,12
2.93,2.38,0.00,0.05,0.00,138249997,135242000,3005000,12
2.87,2.33,0.00,0.05,0.00,137016119,135021000,2015000,12
1.51,1.21,0.00,0.03,0.00,75049347,71052000,3947000,12
9.93,8.08,0.00,0.16,0.00,462718949,451714000,10993000,12
8.18,6.65,0.00,0.13,0.00,386795732,379708000,6994000,12
9.88,8.03,0.00,0.16,0.00,462239045,449211000,13006000,12
7.13,5.84,0.00,0.11,0.00,322421754,307360000,14968000,12
6.33,5.16,0.00,0.10,0.00,293218320,289168000,3988000,12
4.54,3.69,0.00,0.07,0.00,211713835,204699000,7024000,12
4.42,3.57,0.00,0.07,0.00,211515642,202538000,8979000,12
1.29,1.01,0.00,0.02,0.00,70696030,68494000,2014000,13
0.62,0.49,0.00,0.01,0.00,34079670,34121000,0,13
0.63,0.49,0.00,0.01,0.00,34569979,32617000,1976000,13
2.01,1.60,0.00,0.03,0.00,102705907,100691000,1993000,13
0.64,0.50,0.00,0.01,0.00,35933821,33941000,1996000,13
1.31,1.04,0.00,0.02,0.00,68484752,68508000,0,13
1.07,0.85,0.00,0.02,0.00,54546876,53545000,1010000,13
0.62,0.47,0.00,0.01,0.00,35306691,33321000,2019000,13
1.08,0.84,0.00,0.02,0.00,59483404,56431000,3023000,13
1.09,0.87,0.00,0.02,0.00,55275353,51393000,3953000,13
1.01,0.78,0.00,0.02,0.00,57597248,55570000,2020000,13
2.05,1.63,0.00,0.04,0.00,104179923,103206000,1002000,13
1.02,0.80,0.00,0.02,0.00,55321822,54369000,1006000,13
1.06,0.84,0.00,0.02,0.00,53357109,51444000,1978000,13
0.82,0.64,0.00,0.02,0.00,43714576,42708000,1016000,13
2.02,1.62,0.00,0.03,0.00,102480441,100505000,2010000,13
1.04,0.82,0.00,0.02,0.00,54009700,52882000,997000,13
0.63,0.49,0.00,0.01,0.00,35066535,34077000,1002000,13
1.05,0.83,0.00,0.02,0.00,54100616,53120000,1002000,13
1.05,0.84,0.00,0.02,0.00,53465154,51498000,1980000,13
37.45,30.65,0.00,0.59,0.00,1726973108,1717681000,8998000,14
14.05,11.53,0.00,0.22,0.00,637017695,636062000,1000000,14
28.37,23.10,0.00,0.45,0.00,1333718011,1324415000,8996000,14
6.30,5.24,0.00,0.09,0.00,254517456,251522000,2994000,14
29.18,23.76,0.00,0.47,0.00,1370662518,1358551000,11996000,14
36.82,30.04,0.00,0.58,0.00,1702209410,1688178000,13993000,14
41.35,33.71,0.00,0.65,0.00,1917324185,1903248000,13994000,14
20.04,16.27,0.00,0.32,0.00,951284189,938286000,12990000,14
13.23,10.78,0.00,0.21,0.00,617074071,613997000,2999000,14
47.77,39.13,0.00,0.74,0.00,2177909294,2162852000,14998000,14
48.24,39.27,0.00,0.77,0.00,2253530053,2238186000,14994000,14
22.48,18.35,0.00,0.35,0.00,1034997514,1022921000,12010000,14
10.64,8.66,0.00,0.17,0.00,499339761,498217000,1000000,14
22.23,18.05,0.00,0.36,0.00,1051412023,1046286000,4996000,14
40.90,33.47,0.00,0.63,0.00,1867467803,1850397000,16994000,14
9.87,8.02,0.00,0.16,0.00,466680174,459668000,7010000,14
43.64,35.75,0.00,0.67,0.00,1977509486,1967220000,10001000,14
39.51,32.31,0.00,0.61,0.00,1804997605,1797672000,6998000,14
47.14,38.63,0.00,0.72,0.00,2129893821,2120743000,9003000,14
28.76,23.52,0.00,0.45,0.00,1311399335,1309276000,2000000,14
3.71,3.05,0.00,0.06,0.00,167668812,161840000,4964000,15
9.74,7.95,0.00,0.15,0.00,453592264,451498000,2002000,15
5.83,4.74,0.00,0.09,0.00,277718275,275713000,2005000,15
2.76,2.22,0.00,0.05,0.00,137525326,135535000,1993000,15
2.34,1.90,0.00,0.04,0.00,111997288,107959000,3998000,15
6.06,4.94,0.00,0.10,0.00,283545727,282465000,1001000,15
5.86,4.75,0.00,0.09,0.00,278744783,276765000,1998000,15
3.66,2.96,0.00,0.06,0.00,175597217,172605000,3010000,15
7.78,6.33,0.00,0.12,0.00,362621217,354606000,7991000,15
3.44,2.82,0.00,0.05,0.00,158062820,155823000,1997000,15
3.48,2.83,0.00,0.06,0.00,161463152,156254000,4976000,15
3.89,3.17,0.00,0.06,0.00,181440943,177326000,3984000,15
6.60,5.40,0.00,0.10,0.00,301817506,298749000,3007000,15
3.37,2.74,0.00,0.05,0.00,159409769,156375000,3007000,15
3.63,2.95,0.00,0.06,0.00,168792451,163791000,4993000,15
9.65,7.84,0.00,0.15,0.00,453694746,450626000,2997000,15
2.78,2.24,0.00,0.05,0.00,133292772,129169000,4005000,15
3.58,2.89,0.00,0.06,0.00,173647037,169651000,4015000,15
2.62,2.11,0.00,0.04,0.00,128381976,122431000,5972000,15
9.13,7.43,0.00,0.15,0.00,426839960,421838000,4998000,15
25.04,20.40,0.00,0.39,0.00,1142616933,1137169000,4996000,16
27.89,23.00,0.00,0.42,0.00,1236793144,1230756000,5998000,16
26.47,21.67,0.00,0.41,0.00,1216328131,1208223000,7994000,16
2.91,2.28,0.00,0.05,0.00,155854560,1660000,6641000,16
68.18,56.08,0.00,1.03,0.00,3046942276,3040610000,5999000,16
13.47,11.02,0.00,0.21,0.00,619724619,614642000,4997000,16
24.83,20.40,0.00,0.38,0.00,1115088381,1112084000,3000000,16
18.07,14.78,0.00,0.28,0.00,831151374,828146000,3000000,16
38.04,31.16,0.00,0.59,0.00,1729393238,1725357000,4000000,16
21.56,17.64,0.00,0.34,0.00,987560918,982419000,5002000,16
52.56,43.36,0.00,0.79,0.00,2318349188,2313147000,5000000,16
56.48,46.25,0.00,0.87,0.00,2564285737,2562135000,2000000,16
23.04,18.96,0.00,0.35,0.00,1025434051,1020235000,5001000,16
17.67,14.40,0.00,0.27,0.00,795059023,657048000,138010000,16
43.01,35.44,0.00,0.64,0.00,1898250136,1894226000,4000000,16
34.94,28.62,0.00,0.54,0.00,1577940624,1574651000,2999000,16
24.45,20.14,0.00,0.37,0.00,1080992100,1079859000,1000000,16
39.74,32.78,0.00,0.59,0.00,1741517324,1737287000,4000000,16
46.34,38.16,0.00,0.70,0.00,2047273548,2043008000,4000000,16
19.48,15.92,0.00,0.30,0.00,890355770,887273000,3000000,16
11.72,9.49,0.00,0.19,0.00,568611858,565338000,3001000,17
39.72,32.49,0.00,0.62,0.00,1832603656,1822452000,10002000,17
109.12,88.73,0.00,1.75,0.00,5159080876,5150447000,7999000,17
25.31,20.75,0.00,0.39,0.00,1153807520,1149730000,3999000,17
15.91,12.91,0.00,0.26,0.00,756173598,750168000,6001000,17
39.75,32.51,0.00,0.62,0.00,1821671852,1816629000,4998000,17
98.68,80.70,0.00,1.53,0.00,4504011091,4497396000,5999000,17
15.47,12.64,0.00,0.24,0.00,710569965,708511000,1998000,17
51.57,42.46,0.00,0.78,0.00,2293224079,2289197000,4000000,17
32.56,26.72,0.00,0.50,0.00,1467301993,1460002000,7000000,17
60.54,49.54,0.00,0.94,0.00,2755251629,2743085000,12000000,17
34.25,27.87,0.00,0.54,0.00,1597693079,1593694000,3999000,17
26.40,21.61,0.00,0.41,0.00,1201103992,1196038000,5000000,17
39.05,31.90,0.00,0.61,0.00,1785367650,1780197000,4997000,17
36.76,30.07,0.00,0.57,0.00,1667583567,1663441000,3998000,17
16.76,13.59,0.00,0.27,0.00,792815646,787810000,4998000,17
17.24,14.02,0.00,0.27,0.00,801314785,799301000,2000000,17
36.57,29.97,0.00,0.56,0.00,1645620474,1641600000,3999000,17
37.10,30.45,0.00,0.56,0.00,1660766054,1656735000,3999000,17
42.57,34.89,0.00,0.65,0.00,1913986855,1906962000,6999000,17
3.05,2.43,0.00,0.05,0.00,153725428,970000,7764000,18
2.92,2.25,0.00,0.05,0.00,135070814,126031000,9002000,18
15.06,12.27,0.00,0.23,0.00,672054007,665986000,5999000,18
24.66,20.18,0.00,0.38,0.00,1130947640,1128934000,1999000,18
30.65,24.95,0.00,0.48,0.00,1404406090,1295481000,108956000,18
60.41,49.25,0.00,0.94,0.00,2765229447,2632126000,133006000,18
21.40,17.55,0.00,0.33,0.00,973015498,969892000,2999000,18
27.37,22.23,0.00,0.43,0.00,1255571849,1252414000,3000000,18
23.88,19.36,0.00,0.37,0.00,1100208634,1095169000,5000000,18
14.88,12.11,0.00,0.24,0.00,694472973,690514000,3997000,18
26.10,21.21,0.00,0.41,0.00,1196354391,1191219000,5000000,18
15.09,12.28,0.00,0.23,0.00,672443703,666403000,5994000,18
61.94,50.68,0.00,0.96,0.00,2828219674,2826795000,999000,18
41.31,33.89,0.00,0.63,0.00,1855242285,1850949000,3999000,18
11.95,9.75,0.00,0.19,0.00,549601257,547594000,2002000,18
14.04,11.33,0.00,0.22,0.00,642903422,634805000,7997000,18
23.47,19.18,0.00,0.36,0.00,1070082196,1065896000,3999000,18
27.01,22.03,0.00,0.41,0.00,1212528822,1206513000,5997000,18
70.72,58.01,0.00,1.06,0.00,3128503589,2984421000,143972000,18
27.67,22.62,0.00,0.42,0.00,1225918218,1220841000,5003000,18
26.59,21.71,0.00,0.42,0.00,1230974604,1186094000,43039000,19
2.99,2.38,0.00,0.05,0.00,150009845,8597000,0,19
26.49,21.84,0.00,0.40,0.00,1168632465,1133520000,35016000,19
2.53,2.03,0.00,0.04,0.00,122758509,876000,6882000,19
2.52,2.03,0.00,0.04,0.00,122952470,2037000,6037000,19
17.90,14.54,0.00,0.28,0.00,837881971,768951000,68906000,19
36.33,29.86,0.00,0.54,0.00,1604873572,1539804000,64991000,19
2.56,2.06,0.00,0.04,0.00,122148872,7575000,0,19
16.29,13.31,0.00,0.25,0.00,742086211,707102000,35005000,19
21.09,17.29,0.00,0.32,0.00,957599022,919608000,37983000,19
2.52,2.01,0.00,0.04,0.00,128038169,1781000,7840000,19
30.35,24.86,0.00,0.47,0.00,1370595433,1342587000,27991000,19
2.47,1.90,0.00,0.05,0.00,140977421,903000,6319000,19
16.65,13.61,0.00,0.26,0.00,753680742,687603000,65961000,19
17.20,14.05,0.00,0.26,0.00,776383041,719397000,57031000,19
31.70,25.87,0.00,0.49,0.00,1438225895,1377185000,61008000,19
26.65,21.89,0.00,0.40,0.00,1189552957,1154503000,35015000,19
11.53,9.44,0.00,0.18,0.00,522692338,521721000,1001000,19
26.64,21.78,0.00,0.41,0.00,1209515077,1173496000,35984000,19
2.59,2.09,0.00,0.04,0.00,123064058,2112000,7394000,19
2.22,1.78,0.00,0.04,0.00,112018015,109777000,2014000,20
1.21,0.96,0.00,0.02,0.00,62745848,62753000,0,20
2.45,1.98,0.00,0.04,0.00,116064663,115082000,1000000,20
0.03,0.03,0.00,0.00,0.00,2103521,1063000,1063000,20
2.07,1.67,0.00,0.04,0.00,102964818,100977000,1999000,20
0.64,0.49,0.00,0.01,0.00,37041428,36062000,1001000,20
1.13,0.90,0.00,0.02,0.00,58768029,56625000,2022000,20
1.04,0.90,0.00,0.01,0.00,32207238,30157000,2010000,20
1.30,1.02,0.00,0.02,0.00,69445683,64474000,5037000,20
0.03,0.02,0.00,0.00,0.00,2374046,1609000,804000,20
2.54,2.04,0.00,0.04,0.00,125417811,121330000,4010000,20
2.30,1.87,0.00,0.04,0.00,107808457,106716000,997000,20
2.55,2.08,0.00,0.04,0.00,119317561,115362000,3978000,20
2.52,2.04,0.00,0.04,0.00,120705299,118691000,2011000,20
2.12,1.70,0.00,0.04,0.00,106178157,104162000,2003000,20
0.62,0.48,0.00,0.01,0.00,35115258,33164000,2009000,20
2.57,2.08,0.00,0.04,0.00,123856634,118927000,4955000,20
1.02,0.83,0.00,0.02,0.00,49810197,49853000,0,20
2.62,2.13,0.00,0.04,0.00,122415589,116447000,5971000,20
2.18,1.75,0.00,0.04,0.00,106262443,105283000,1002000,20
1.80,1.42,0.00,0.03,0.00,95568782,94388000,1004000,21
3.43,2.77,0.00,0.06,0.00,168742456,156748000,11980000,21
26.73,22.00,0.00,0.41,0.00,1199076410,1196986000,1999000,21
66.08,54.54,0.00,0.99,0.00,2921066413,2919564000,999000,21
1.83,1.46,0.00,0.03,0.00,92197756,91209000,1002000,21
110.17,90.79,0.00,1.65,0.00,4860215227,4858720000,999000,21
2.06,1.64,0.00,0.04,0.00,104389380,103302000,1002000,21
25.56,20.95,0.00,0.39,0.00,1160854214,1158872000,1998000,21
3.50,2.82,0.00,0.06,0.00,169087415,160072000,9004000,21
40.13,32.97,0.00,0.61,0.00,1807647143,1805443000,1999000,21
2.70,2.16,0.00,0.05,0.00,134792386,125744000,8981000,21
39.97,32.85,0.00,0.61,0.00,1796506435,1795195000,1000000,21
1.92,1.54,0.00,0.03,0.00,96694523,96691000,0,21
3.30,2.69,0.00,0.05,0.00,153987015,146033000,7947000,21
2.61,2.10,0.00,0.04,0.00,126199584,124167000,2002000,21
1.98,1.59,0.00,0.03,0.00,98304869,97358000,1003000,21
2.16,1.72,0.00,0.04,0.00,112177932,111186000,1001000,21
81.59,66.70,0.00,1.26,0.00,3725409581,3725265000,0,21
71.24,58.84,0.00,1.06,0.00,3111443683,3110125000,1000000,21
6.47,5.29,0.00,0.10,0.00,295564673,285510000,10017000,21
0.29,0.21,0.00,0.01,0.00,20141785,15840000,3960000,22
0.66,0.52,0.00,0.01,0.00,35421772,34417000,1012000,22
0.32,0.24,0.00,0.01,0.00,20185805,18152000,2016000,22
0.80,0.63,0.00,0.01,0.00,42783643,38791000,3978000,22
0.65,0.51,0.00,0.01,0.00,37036304,34034000,3003000,22
0.35,0.27,0.00,0.01,0.00,20134824,20093000,0,22
4.08,3.32,0.00,0.07,0.00,191198852,185174000,6005000,22
0.31,0.23,0.00,0.01,0.00,18878837,15122000,3780000,22
0.69,0.53,0.00,0.01,0.00,37931210,35882000,2050000,22
0.33,0.25,0.00,0.01,0.00,17883887,14137000,3770000,22
3.72,3.03,0.00,0.06,0.00,174321880,166297000,8014000,22
0.69,0.54,0.00,0.01,0.00,35898366,33842000,2051000,22
0.28,0.22,0.00,0.01,0.00,16325830,15283000,1018000,22
0.32,0.24,0.00,0.01,0.00,20750173,16050000,4720000,22
0.70,0.56,0.00,0.01,0.00,36377931,33412000,2948000,22
0.28,0.21,0.00,0.01,0.00,15809792,14848000,989000,22
0.30,0.22,0.00,0.01,0.00,18444773,16527000,1944000,22
0.32,0.25,0.00,0.01,0.00,19579446,18597000,978000,22
0.67,0.51,0.00,0.01,0.00,38123826,37135000,1003000,22
0.68,0.54,0.00,0.01,0.00,36980424,35989000,1028000,22
5.39,4.37,0.00,0.09,0.00,258948067,250670000,8021000,23
3.49,2.83,0.00,0.06,0.00,164321939,152187000,12014000,23
4.65,3.80,0.00,0.07,0.00,215588109,209575000,5987000,23
3.57,2.90,0.00,0.06,0.00,169594718,162568000,7024000,23
3.65,2.94,0.00,0.06,0.00,176130592,167124000,9006000,23
3.57,2.96,0.00,0.05,0.00,142804544,137805000,4992000,23
4.02,3.24,0.00,0.07,0.00,191973124,176835000,14986000,23
10.62,8.67,0.00,0.17,0.00,491258145,483248000,8004000,23
5.43,4.44,0.00,0.08,0.00,248597715,242498000,6012000,23
4.93,4.03,0.00,0.08,0.00,225944247,219774000,5993000,23
3.03,2.44,0.00,0.05,0.00,146073609,140053000,6002000,23
5.29,4.32,0.00,0.08,0.00,241236195,232202000,8969000,23
3.83,3.11,0.00,0.06,0.00,178202223,170221000,7963000,23
3.77,3.06,0.00,0.06,0.00,178013514,168898000,8994000,23
5.56,4.54,0.00,0.09,0.00,255095487,246067000,9002000,23
3.01,2.42,0.00,0.05,0.00,145688575,138706000,7035000,23
3.05,2.48,0.00,0.05,0.00,143891606,138717000,4989000,23
3.60,2.91,0.00,0.06,0.00,171814406,161809000,9988000,23
3.34,2.69,0.00,0.05,0.00,160171331,148234000,11938000,23
4.81,3.90,0.00,0.08,0.00,225671320,220617000,5014000,23
12.01,9.85,0.00,0.19,0.00,547795108,530451000,17014000,24
3.47,2.81,0.00,0.06,0.00,165749713,161657000,3991000,24
3.29,2.66,0.00,0.05,0.00,158867602,148864000,9990000,24
4.74,3.86,0.00,0.08,0.00,221422855,217402000,4007000,24
3.03,2.45,0.00,0.05,0.00,143494213,135463000,8027000,24
3.72,3.00,0.00,0.06,0.00,178957162,175970000,2999000,24
4.21,3.43,0.00,0.07,0.00,194260599,187189000,7007000,24
4.03,3.27,0.00,0.06,0.00,189705949,183620000,5987000,24
3.38,2.73,0.00,0.05,0.00,160877334,153869000,7039000,24
5.99,4.88,0.00,0.09,0.00,276641497,271620000,4993000,24
2.99,2.41,0.00,0.05,0.00,144350470,139336000,5012000,24
3.84,3.08,0.00,0.06,0.00,187591646,182560000,4987000,24
3.60,2.92,0.00,0.06,0.00,168849610,162874000,5995000,24
5.35,4.35,0.00,0.08,0.00,250146986,246135000,4002000,24
3.64,2.95,0.00,0.06,0.00,172105655,166095000,6003000,24
2.99,2.42,0.00,0.05,0.00,143343729,137310000,6013000,24
3.08,2.49,0.00,0.05,0.00,146330523,142285000,4008000,24
4.15,3.35,0.00,0.07,0.00,197003111,186902000,10048000,24
3.43,2.76,0.00,0.06,0.00,164866209,158690000,6026000,24
3.42,2.73,0.00,0.06,0.00,170924847,159927000,10995000,24
3.39,2.72,0.00,0.06,0.00,166814680,155592000,10038000,25
3.44,2.77,0.00,0.06,0.00,165002281,155105000,9942000,25
4.72,3.91,0.00,0.07,0.00,201572893,193605000,7983000,25
3.07,2.49,0.00,0.05,0.00,145193203,141082000,4002000,25
4.30,3.50,0.00,0.07,0.00,200968070,192894000,7995000,25
3.42,2.76,0.00,0.06,0.00,165682405,158637000,7028000,25
3.22,2.61,0.00,0.05,0.00,153641943,149695000,3991000,25
3.15,2.55,0.00,0.05,0.00,148685214,141520000,6976000,25
4.06,3.29,0.00,0.07,0.00,190826089,182614000,7983000,25
3.12,2.51,0.00,0.05,0.00,150621434,142591000,8033000,25
3.10,2.51,0.00,0.05,0.00,149141470,140206000,8949000,25
4.21,3.40,0.00,0.07,0.00,200739737,190732000,9985000,25
3.44,2.78,0.00,0.06,0.00,165167856,161149000,4003000,25
4.93,4.01,0.00,0.08,0.00,230547643,225591000,5013000,25
3.16,2.54,0.00,0.05,0.00,153910000,147944000,5957000,25
3.06,2.46,0.00,0.05,0.00,146801599,137796000,8986000,25
3.11,2.52,0.00,0.05,0.00,147632902,139548000,7974000,25
6.49,5.33,0.00,0.10,0.00,294098955,289019000,5000000,25
4.86,3.95,0.00,0.08,0.00,228816694,221760000,6992000,25
3.66,2.96,0.00,0.06,0.00,171791179,155680000,15967000,25
4.68,3.79,0.00,0.08,0.00,226993369,222737000,3995000,26
4.16,3.38,0.00,0.07,0.00,196430757,187439000,9021000,26
2.99,2.49,0.00,0.04,0.00,124065704,117087000,7005000,26
2.76,2.23,0.00,0.04,0.00,131487214,123529000,7969000,26
4.80,3.91,0.00,0.08,0.00,224683847,219676000,4992000,26
4.72,3.84,0.00,0.08,0.00,222054706,213035000,9001000,26
4.28,3.49,0.00,0.07,0.00,199032747,192011000,7000000,26
2.87,2.32,0.00,0.05,0.00,136180184,132221000,3976000,26
2.53,2.06,0.00,0.04,0.00,120274752,112216000,7944000,26
2.81,2.26,0.00,0.05,0.00,138685509,130617000,7976000,26
3.18,2.58,0.00,0.05,0.00,149528914,143510000,5979000,26
3.16,2.56,0.00,0.05,0.00,148009388,140994000,6999000,26
2.71,2.18,0.00,0.04,0.00,130734225,125760000,4990000,26
4.45,3.64,0.00,0.07,0.00,202496506,196402000,5981000,26
2.72,2.20,0.00,0.04,0.00,128912073,122914000,5947000,26
4.49,3.67,0.00,0.07,0.00,204415324,198372000,6011000,26
14.52,11.84,0.00,0.23,0.00,665750049,654730000,10995000,26
2.57,2.07,0.00,0.04,0.00,124851963,118891000,5994000,26
0.92,0.73,0.00,0.02,0.00,48812152,42724000,6103000,26
4.19,3.40,0.00,0.07,0.00,196039651,194025000,2010000,26
8.42,6.87,0.00,0.13,0.00,392283782,387038000,5000000,27
7.77,6.33,0.00,0.12,0.00,363203434,357233000,6003000,27
4.69,3.81,0.00,0.08,0.00,222346125,216243000,6006000,27
7.99,6.51,0.00,0.13,0.00,371418550,367302000,4003000,27
4.79,3.90,0.00,0.08,0.00,225062821,217055000,8002000,27
4.65,3.77,0.00,0.08,0.00,221152358,214162000,7005000,27
5.20,4.23,0.00,0.08,0.00,244770979,238786000,5994000,27
7.56,6.17,0.00,0.12,0.00,349106364,346080000,3000000,27
7.80,6.35,0.00,0.12,0.00,363046132,359051000,4000000,27
4.93,4.03,0.00,0.08,0.00,227190316,224091000,3001000,27
5.16,4.23,0.00,0.08,0.00,232992873,228953000,3999000,27
7.89,6.43,0.00,0.12,0.00,366591011,362623000,4006000,27
7.92,6.45,0.00,0.13,0.00,368975375,362964000,5999000,27
4.67,3.79,0.00,0.07,0.00,220085371,210107000,10005000,27
5.30,4.37,0.00,0.08,0.00,232494566,227373000,5008000,27
8.01,6.56,0.00,0.12,0.00,363027474,358890000,4009000,27
9.49,7.74,0.00,0.15,0.00,437750744,432728000,4996000,27
5.31,4.34,0.00,0.08,0.00,241127611,238093000,3001000,27
4.77,3.88,0.00,0.08,0.00,223234713,218215000,5004000,27
3.19,2.57,0.00,0.05,0.00,154596200,148602000,6024000,27
49.95,40.97,0.00,0.77,0.00,2281835579,2273675000,2999000,28
14.37,11.84,0.00,0.22,0.00,638533347,636471000,2001000,28
9.21,7.60,0.00,0.14,0.00,407559864,402581000,4994000,28
10.30,8.60,0.00,0.14,0.00,417130717,384084000,33007000,28
208.00,167.92,0.00,3.43,0.00,10128568248,10100530000,26996000,28
23.91,19.56,0.00,0.37,0.00,1092607751,1060549000,32016000,28
103.86,85.98,0.00,1.53,0.00,4510096963,4504683000,4999000,28
3.59,2.90,0.00,0.06,0.00,175115569,169143000,6005000,28
23.84,19.61,0.00,0.36,0.00,1047571613,1012427000,35014000,28
9.87,8.17,0.00,0.14,0.00,427072843,423957000,2999000,28
46.15,37.87,0.00,0.70,0.00,2075489294,2048290000,26990000,28
27.28,22.23,0.00,0.43,0.00,1267915185,1266845000,1000000,28
24.71,20.31,0.00,0.38,0.00,1107522475,1102421000,5001000,28
26.52,21.87,0.00,0.40,0.00,1168405455,1147325000,21005000,28
47.56,39.23,0.00,0.71,0.00,2091752703,2067531000,23994000,28
27.23,22.34,0.00,0.41,0.00,1221227273,1197152000,24003000,28
19.73,16.29,0.00,0.29,0.00,861773572,859774000,1999000,28
20.49,16.91,0.00,0.30,0.00,898077982,874064000,24001000,28
48.14,39.72,0.00,0.72,0.00,2111200334,2108191000,3000000,28
30.05,24.77,0.00,0.45,0.00,1320042306,1315003000,5000000,28
0.99,0.76,0.00,0.02,0.00,56966392,49764000,6966000,29
1.45,1.17,0.00,0.02,0.00,72499340,68435000,3967000,29
2.14,1.72,0.00,0.04,0.00,103591328,89659000,13946000,29
3.83,3.09,0.00,0.06,0.00,185995973,133999000,51999000,29
3.49,2.83,0.00,0.06,0.00,165604267,157541000,8027000,29
0.77,0.61,0.00,0.01,0.00,38090986,33036000,5005000,29
1.26,1.00,0.00,0.02,0.00,66335329,58401000,7918000,29
1.08,0.85,0.00,0.02,0.00,56125838,51113000,5011000,29
2.60,2.11,0.00,0.04,0.00,122958409,114965000,7997000,29
17.87,14.51,0.00,0.28,0.00,832690307,745641000,87074000,29
1.53,1.22,0.00,0.03,0.00,76252405,73226000,3009000,29
10.32,8.41,0.00,0.16,0.00,478106324,466090000,12002000,29
3.27,2.66,0.00,0.05,0.00,151334438,142351000,8959000,29
2.12,1.69,0.00,0.04,0.00,104459475,98439000,6026000,29
1.56,1.25,0.00,0.03,0.00,77094453,75040000,2001000,29
1.03,0.81,0.00,0.02,0.00,54660962,48750000,5969000,29
1.11,0.89,0.00,0.02,0.00,55236143,49300000,5916000,29
2.12,1.71,0.00,0.04,0.00,102654460,98646000,3985000,29
1.54,1.23,0.00,0.03,0.00,77986230,71119000,6914000,29
2.42,1.96,0.00,0.04,0.00,112814213,105673000,7044000,29
18.73,15.35,0.00,0.29,0.00,858709678,834236000,24006000,30
9.99,8.16,0.00,0.16,0.00,463948309,459887000,3999000,30
13.07,10.69,0.00,0.20,0.00,598476720,590466000,7992000,30
5.13,4.19,0.00,0.08,0.00,236596119,230477000,6012000,30
5.31,4.31,0.00,0.08,0.00,249375075,244374000,4987000,30
19.34,15.83,0.00,0.30,0.00,881540162,869545000,12007000,30
11.33,9.24,0.00,0.18,0.00,526207311,517280000,8987000,30
11.32,9.23,0.00,0.18,0.00,523868650,509731000,13992000,30
3.68,2.99,0.00,0.06,0.00,173846404,167820000,5993000,30
9.04,7.33,0.00,0.14,0.00,422177584,407148000,15005000,30
7.27,5.91,0.00,0.12,0.00,342736864,316746000,25979000,30
19.82,16.16,0.00,0.31,0.00,919506634,892446000,27013000,30
4.58,3.56,0.00,0.09,0.00,253135675,87962000,5754000,30
18.06,14.75,0.00,0.28,0.00,833645041,819576000,14009000,30
7.45,6.06,0.00,0.12,0.00,347615961,336569000,11018000,30
6.73,5.46,0.00,0.11,0.00,318289979,284293000,34035000,30
9.59,7.80,0.00,0.15,0.00,448343276,442322000,5990000,30
5.98,4.86,0.00,0.09,0.00,279387650,275369000,4005000,30
10.08,8.21,0.00,0.16,0.00,469977385,445019000,25001000,30
9.14,7.44,0.00,0.14,0.00,425791379,418722000,7012000,30
4.86,3.94,0.00,0.08,0.00,233884475,232603000,1002000,31
2.83,2.27,0.00,0.05,0.00,142352678,141386000,1002000,31
18.59,15.30,0.00,0.28,0.00,835063424,833989000,999000,31
6.22,5.04,0.00,0.10,0.00,298450090,297484000,1001000,31
5.07,4.12,0.00,0.08,0.00,241015324,239957000,999000,31
5.60,4.57,0.00,0.09,0.00,260944794,259933000,999000,31
8.69,7.10,0.00,0.14,0.00,401608418,399639000,1998000,31
1.37,1.09,0.00,0.02,0.00,71401670,69388000,2011000,31
4.70,3.82,0.00,0.08,0.00,221755342,217661000,3993000,31
4.70,3.84,0.00,0.07,0.00,219461545,219359000,0,31
4.96,4.01,0.00,0.08,0.00,234882927,232899000,1999000,31
9.80,8.00,0.00,0.15,0.00,454390144,453402000,1000000,31
5.03,4.11,0.00,0.08,0.00,233808832,231824000,1998000,31
6.04,4.89,0.00,0.10,0.00,289761093,287788000,1998000,31
6.25,5.10,0.00,0.10,0.00,289356791,288374000,1001000,31
6.28,5.13,0.00,0.10,0.00,286942164,284943000,1999000,31
4.93,4.00,0.00,0.08,0.00,234028230,233042000,1000000,31
4.98,4.06,0.00,0.08,0.00,229161208,228183000,1000000,31
0.70,0.54,0.00,0.01,0.00,38182614,36252000,1959000,31
0.59,0.45,0.00,0.01,0.00,34223441,32273000,2017000,31
