@relation problema-weka.filters.unsupervised.attribute.Remove-R3-8

@attribute pkg numeric
@attribute cores numeric
@attribute class {0,1,2,3,4,5,6,7,8,9,10,11,12,13,14,15,16,17,18,19,20,21,22,23,24,25,26,27,28,29,30,31}

@data
3.04,2.44,0
0.62,0.48,0
3.19,2.58,0
3.17,2.54,0
3.19,2.58,0
1.88,1.52,0
3.24,2.65,0
3.12,2.53,0
3.11,2.52,0
1.06,0.92,0
3.24,2.64,0
0.66,0.52,0
3.17,2.56,0
3.11,2.5,0
0.62,0.47,0
1.97,1.57,0
0.63,0.49,0
3.14,2.54,0
3.13,2.53,0
3.25,2.64,0
1.2,0.93,1
5.34,4.22,1
9.72,7.71,1
0.84,0.65,1
1.22,0.95,1
9.74,7.71,1
1.2,0.94,1
1.23,0.97,1
0.83,0.63,1
1.22,0.97,1
1.29,1.02,1
2.67,2.18,1
0.53,0.42,1
0.74,0.57,1
1.32,1.04,1
9.89,7.84,1
1.25,1,1
1.37,1.08,1
1.23,0.98,1
0.63,0.48,1
0.73,0.56,2
0.81,0.66,2
0.73,0.54,2
1.89,1.53,2
0.77,0.61,2
0.79,0.63,2
1.84,1.47,2
1.75,1.4,2
0.74,0.57,2
0.9,0.7,2
1.81,1.44,2
1.88,1.5,2
0.73,0.56,2
1.78,1.43,2
1.88,1.52,2
1.8,1.44,2
1.75,1.4,2
0.88,0.68,2
2.05,1.63,2
1.74,1.39,2
5.27,4.22,3
6.31,5.08,3
2.76,2.2,3
6.47,5.2,3
6.67,5.39,3
3.88,3.1,3
2.37,1.88,3
6.83,5.54,3
6.81,5.5,3
2.18,1.72,3
2.43,1.92,3
2.23,1.76,3
4.81,3.84,3
2.69,2.15,3
2.49,1.99,3
6.39,5.14,3
2.44,1.93,3
6.6,5.31,3
2.15,1.71,3
4.78,3.83,3
4.68,3.62,4
6.14,4.92,4
4.78,3.81,4
2.79,2.21,4
2.59,2.06,4
5.05,3.98,4
2.68,2.12,4
3.17,2.5,4
6.29,5.04,4
6.83,5.43,4
4.49,3.58,4
4.33,3.45,4
4.35,3.45,4
4.47,3.54,4
5.41,4.28,4
4.56,3.65,4
6.26,5.02,4
5.11,4.03,4
5.67,4.5,4
4.46,3.52,4
4.91,3.84,5
4.48,3.55,5
4.43,3.53,5
3.38,2.65,5
6.36,5.09,5
7.91,6.32,5
4.47,3.53,5
6.93,5.55,5
4.36,3.46,5
3.76,2.95,5
3.76,2.94,5
7.08,5.65,5
4.31,3.42,5
4.55,3.62,5
6.25,5,5
3.93,3.09,5
4.06,3.24,5
4.51,3.56,5
4.77,3.78,5
4.42,3.5,5
4.96,3.88,6
1.95,1.58,6
6.67,5.28,6
5.78,4.69,6
1.67,1.32,6
9.09,7.22,6
11.79,9.45,6
8.72,6.91,6
5.55,4.5,6
9.26,7.45,6
3.17,2.53,6
5.67,4.61,6
7.12,5.79,6
3.42,2.73,6
7.86,6.29,6
2.58,2.05,6
2.67,2.13,6
9.1,7.21,6
7.13,5.76,6
1.86,1.48,6
3.02,2.43,7
7.84,6.35,7
8.18,6.63,7
10.2,8.25,7
5.92,4.78,7
8.43,6.78,7
4.38,3.57,7
7.98,6.45,7
7.78,6.27,7
2.73,2.21,7
8.04,6.47,7
6.93,5.61,7
4.27,3.47,7
2.96,2.29,7
3.36,2.72,7
4.42,3.57,7
8.18,6.62,7
3.41,2.76,7
2.89,2.33,7
6.51,5.31,7
4.67,3.7,8
6.62,5.36,8
2.45,1.97,8
3.83,3.06,8
3.38,2.72,8
5.18,4.35,8
4.2,3.36,8
4.1,3.32,8
11.26,9.16,8
3.81,3.06,8
5.8,4.67,8
6.04,4.85,8
3.22,2.59,8
7.45,5.96,8
3.36,2.7,8
4.93,4.01,8
5.8,4.68,8
11.1,9.01,8
9.18,7.46,8
3.22,2.59,8
1.08,0.85,9
0.41,0.3,9
0.3,0.22,9
0.08,0.06,9
0.29,0.23,9
0.08,0.06,9
1.15,0.91,9
1.15,0.91,9
0.51,0.41,9
0.08,0.06,9
0.5,0.38,9
0.38,0.29,9
0.31,0.24,9
0.09,0.06,9
0.47,0.35,9
0.47,0.37,9
1.15,0.92,9
0.34,0.25,9
0.34,0.26,9
0.32,0.24,9
1.09,0.84,10
2.58,2.08,10
1.11,0.85,10
3,2.39,10
2.21,1.75,10
2.32,1.91,10
1.73,1.37,10
1.87,1.47,10
3.33,2.68,10
3.1,2.44,10
2.7,2.15,10
2.58,2.08,10
1.87,1.46,10
1.86,1.46,10
3.33,2.68,10
3.36,2.7,10
3.89,3.13,10
1.12,0.88,10
2.74,2.23,10
1.97,1.55,10
1.15,0.9,11
1.3,1.02,11
10.63,8.54,11
1.24,1,11
1.91,1.53,11
1.13,0.88,11
1.36,1.08,11
0.08,0.05,11
1.17,0.92,11
1.97,1.59,11
1.2,0.94,11
2.05,1.67,11
7.61,6.09,11
1.16,0.92,11
1.53,1.22,11
1.3,1.04,11
1.3,1.04,11
2.02,1.62,11
8.14,6.65,11
1.24,0.97,11
0.8,0.62,12
0.92,0.72,12
1.22,0.95,12
2.65,2.16,12
2.58,2.07,12
0.87,0.66,12
2.7,2.18,12
6.33,5.09,12
1.73,1.37,12
2.61,2.11,12
0.79,0.61,12
0.77,0.6,12
0.72,0.55,12
2.82,2.24,12
2.51,1.98,12
2.93,2.33,12
3.12,2.54,12
2.83,2.28,12
1.01,0.79,12
1.04,0.82,12
0.67,0.51,13
0.27,0.2,13
0.25,0.2,13
0.67,0.52,13
0.27,0.2,13
0.68,0.53,13
0.65,0.51,13
0.25,0.18,13
0.62,0.48,13
0.65,0.51,13
0.62,0.47,13
0.7,0.55,13
0.36,0.27,13
0.63,0.49,13
0.77,0.6,13
0.67,0.52,13
0.63,0.49,13
0.24,0.18,13
0.62,0.48,13
0.61,0.46,13
4.25,3.36,14
3.82,3.04,14
4.11,3.28,14
2.83,2.24,14
3.54,2.8,14
2.61,2.08,14
3.03,2.42,14
1.44,1.13,14
3.58,2.86,14
4.77,3.8,14
4.9,3.9,14
5.36,4.3,14
2.67,2.09,14
1.26,0.99,14
4.52,3.63,14
3.23,2.6,14
2.95,2.36,14
4.36,3.49,14
4.82,3.84,14
3.63,2.88,14
1.26,0.99,15
1.17,0.93,15
3.6,2.9,15
1.24,0.98,15
1.26,1,15
4.06,3.3,15
3.61,2.91,15
1.08,0.85,15
5.09,4.12,15
1.06,0.84,15
1.09,0.86,15
1.35,1.07,15
3.84,3.11,15
1.21,0.97,15
1.21,0.95,15
1.23,0.98,15
1.06,0.83,15
1.2,0.95,15
1.2,0.94,15
1.14,0.89,15
2.96,2.26,16
3.71,2.95,16
5.36,4.37,16
2.89,2.24,16
6.25,4.97,16
2.46,1.95,16
4.68,3.72,16
5,3.99,16
4.75,3.79,16
4.9,3.91,16
4.63,3.66,16
4.85,3.88,16
4.08,3.25,16
6.15,4.93,16
11.13,9.09,16
2.84,2.29,16
4.8,3.84,16
4.87,3.85,16
10.11,8.31,16
2.89,2.29,16
9.45,7.43,17
10.61,8.35,17
17.06,14,17
10.67,8.4,17
9.63,7.67,17
10.64,8.38,17
10.51,8.42,17
10.06,8.02,17
9.58,7.57,17
10.73,8.46,17
11.92,9.68,17
10.67,8.4,17
10.77,8.49,17
2.09,1.66,17
9.63,7.6,17
10.74,8.45,17
11.38,9.27,17
9.68,7.64,17
9.61,7.59,17
10.84,8.91,17
2.96,2.3,18
3.09,2.42,18
4.73,3.71,18
8.64,6.96,18
13.83,11.09,18
9.63,7.67,18
2.25,1.81,18
5.16,4.07,18
9.11,7.25,18
3.65,2.9,18
4.6,3.59,18
4.67,3.64,18
2.97,2.37,18
4.42,3.54,18
3.64,2.89,18
4.56,3.55,18
3.39,2.72,18
4.94,3.84,18
10.3,8.19,18
4.68,3.64,18
8.71,7.07,19
2.98,2.35,19
2.44,1.93,19
2.53,2.02,19
2.64,2.13,19
9.9,8.07,19
10.33,8.44,19
2.56,2.06,19
2.42,1.91,19
2.73,2.17,19
2.56,2.05,19
2.76,2.21,19
2.54,2.02,19
3.4,2.7,19
3.43,2.73,19
14.36,11.65,19
2.44,1.92,19
1.44,1.13,19
2.55,2.03,19
2.63,2.13,19
0.78,0.6,20
0.32,0.24,20
0.75,0.58,20
0.05,0.04,20
0.68,0.53,20
0.6,0.46,20
0.38,0.28,20
0.59,0.45,20
0.71,0.55,20
0.03,0.03,20
0.79,0.63,20
0.76,0.6,20
0.76,0.59,20
0.83,0.67,20
0.43,0.32,20
0.65,0.52,20
0.8,0.63,20
0.4,0.31,20
0.77,0.6,20
0.76,0.59,20
0.08,0.06,21
0.28,0.2,21
4.17,3.33,21
4.84,3.89,21
0.11,0.08,21
14.12,11.32,21
0.08,0.06,21
3.85,3.08,21
0.3,0.23,21
4.21,3.36,21
0.43,0.33,21
3.13,2.49,21
0.08,0.06,21
0.22,0.16,21
0.11,0.09,21
0.25,0.19,21
0.1,0.07,21
4.58,3.65,21
4.31,3.45,21
0.65,0.5,21
0.25,0.18,22
0.7,0.58,22
0.28,0.21,22
0.68,0.54,22
0.64,0.51,22
0.27,0.21,22
1.21,0.94,22
0.26,0.2,22
0.64,0.5,22
0.29,0.22,22
0.88,0.68,22
0.66,0.52,22
0.28,0.22,22
0.25,0.19,22
0.66,0.5,22
0.25,0.19,22
0.27,0.2,22
0.3,0.22,22
0.64,0.49,22
0.65,0.5,22
3.35,2.68,23
1.61,1.25,23
3.2,2.59,23
1.4,1.11,23
1.81,1.45,23
1.48,1.15,23
1.71,1.36,23
3.24,2.58,23
3.2,2.6,23
3.26,2.64,23
1.42,1.11,23
3.35,2.68,23
1.64,1.29,23
1.71,1.35,23
3.35,2.72,23
1.49,1.17,23
1.4,1.08,23
1.46,1.14,23
1.56,1.23,23
3.3,2.68,23
4.19,3.43,24
1.35,1.07,24
1.55,1.21,24
2.97,2.39,24
1.31,1.04,24
1.35,1.07,24
1.41,1.12,24
1.67,1.3,24
1.5,1.18,24
2.16,1.71,24
1.34,1.06,24
1.59,1.25,24
1.41,1.11,24
3.31,2.65,24
1.42,1.12,24
1.27,1.01,24
1.36,1.08,24
1.57,1.24,24
1.57,1.24,24
1.81,1.42,24
1.5,1.19,25
1.83,1.44,25
2.28,1.91,25
1.62,1.27,25
1.72,1.36,25
1.74,1.36,25
1.7,1.33,25
1.58,1.26,25
1.81,1.43,25
1.64,1.29,25
1.65,1.32,25
1.64,1.28,25
1.65,1.31,25
3.35,2.71,25
1.61,1.28,25
1.64,1.3,25
1.51,1.17,25
3.65,2.96,25
3.37,2.7,25
1.92,1.52,25
3.35,2.69,26
2.93,2.36,26
1.22,1,26
1.41,1.12,26
2.08,1.64,26
2.98,2.4,26
2.98,2.41,26
1.49,1.2,26
1.22,0.97,26
1.68,1.32,26
1.51,1.2,26
1.67,1.32,26
1.34,1.05,26
3,2.42,26
1.36,1.07,26
3.1,2.51,26
6.7,5.35,26
1.41,1.14,26
0.51,0.39,26
3,2.42,26
5.11,4.14,27
5.04,4.1,27
1.9,1.5,27
5.11,4.16,27
1.95,1.56,27
1.94,1.55,27
1.99,1.58,27
5.03,4.08,27
5.01,4.05,27
1.88,1.49,27
1.97,1.59,27
5.16,4.2,27
5.15,4.19,27
1.94,1.54,27
2.06,1.65,27
5.15,4.19,27
5.19,4.22,27
1.81,1.44,27
1.97,1.58,27
2.02,1.59,27
3.31,2.65,28
4.46,3.59,28
2.55,2.11,28
3.86,3.14,28
5.72,4.62,28
5.32,4.34,28
14.64,11.97,28
3.57,2.88,28
5.27,4.29,28
2.58,2.12,28
6.32,5.1,28
3.36,2.75,28
3.37,2.75,28
3.48,2.84,28
3.55,2.88,28
3.06,2.47,28
3.55,2.91,28
4.58,3.73,28
2.96,2.39,28
13.66,11.08,28
0.6,0.45,29
1.08,0.85,29
0.82,0.63,29
3.24,2.6,29
1.04,0.81,29
0.43,0.33,29
0.6,0.46,29
0.62,0.48,29
1.54,1.26,29
4.27,3.43,29
1.08,0.85,29
2.62,2.08,29
1.02,0.8,29
0.94,0.73,29
1.1,0.87,29
0.62,0.47,29
0.61,0.47,29
1.17,0.93,29
1.14,0.91,29
0.94,0.73,29
12.14,9.89,30
3.12,2.51,30
3.88,3.12,30
2.93,2.36,30
2.51,2.02,30
6.47,5.24,30
3.92,3.16,30
5.72,4.67,30
2.86,2.31,30
5.34,4.29,30
4.99,4.05,30
10.32,8.44,30
4.67,3.65,30
4.37,3.54,30
2.87,2.32,30
4.41,3.58,30
3.84,3.1,30
3.04,2.45,30
8.26,6.71,30
3.26,2.61,30
3.28,2.65,31
1.87,1.47,31
4.47,3.65,31
4.09,3.31,31
3.41,2.74,31
3.28,2.66,31
5.91,4.81,31
0.4,0.31,31
2.02,1.6,31
3.35,2.72,31
3.43,2.74,31
3.62,2.94,31
3.35,2.71,31
3.53,2.86,31
3.69,3,31
3.41,2.76,31
3.44,2.77,31
3.34,2.71,31
0.31,0.23,31
0.35,0.28,31
