@relation problema
@attribute 'L1-dcache-loads' real
@attribute 'L1-dcache-load-misses' real
@attribute 'branch-instructions' real
@attribute 'branch-load-misses' real
@attribute 'branch-loads' real
@attribute 'branch-misses' real
@attribute 'cache-misses' real
@attribute 'cache-references' real
@attribute 'cpu-cycles' real
@attribute 'dTLB-load-misses' real
@attribute 'dTLB-loads' real
@attribute 'iTLB-loads' real
@attribute 'iTLB-load-misses' real
@attribute 'instructions' real
@attribute 'page-faults' real
@attribute 'power/energy-psys/' real
@attribute 'power/energy-pkg/' real
@attribute 'power/energy-cores/' real
@attribute 'power/energy-ram/' real
@attribute 'power/energy-gpu/' real
@attribute 'duration_time' real
@attribute 'user_time' real
@attribute 'system_time' real
@attribute 'perf_time' real
@attribute 'class' {0,1,2,3,4,5,6,7,8,9,10,11,12,13,14,15,16,17,18,19,20,21,22,23,24,25,26,27,28,29,30,31}
@data
249486909,294550,153872333,695714,154600099,711025,195223,2766206,508458503,119843,250826988,13024,107236,771682889,127,3.74,1.7,1.64,0.09,0.0,162922204,111972000,30992000,503934631,0
252098192,246317,154478975,654403,154494857,654350,167221,2203521,506290822,115905,252873262,182806,106022,770434090,129,3.32,1.69,1.64,0.08,0.0,137564018,98100000,39039000,152017352,0
245325044,391576,150953330,712268,156129485,719801,201947,2332894,504952865,114284,254095246,11923,109613,762114137,714,3.32,1.68,1.62,0.08,0.0,136449891,112130000,24028000,150990291,0
250271193,300299,154328091,566521,154860786,562366,147353,2175722,500424467,115505,251256076,27693,105461,768498131,128,3.31,1.68,1.62,0.08,0.0,135041442,99717000,34901000,149714355,0
249982377,292764,154388387,654666,154386356,651231,152664,2073143,506136250,114956,252087439,97072,105277,768856074,127,3.34,1.69,1.64,0.08,0.0,136345377,106052000,30014000,150936670,0
250326652,296504,154527104,670739,154488439,664880,141095,2108076,503162547,115153,252047369,14790,105520,768880015,128,3.3,1.68,1.62,0.08,0.0,135895961,104750000,30926000,150408958,0
247517425,294909,153881388,639676,153876851,640146,164255,2191783,511147056,115592,249859043,285352,105638,765800143,127,3.43,1.71,1.65,0.08,0.0,138052209,106804000,30943000,152442774,0
247911594,310550,154280507,712374,154288815,711311,189135,2284343,505778493,115499,249605324,21236,105426,765469350,130,3.33,1.65,1.6,0.08,0.0,136914975,109693000,26924000,151392062,0
70528805,170394,44897790,180648,44675201,180424,138184,838774,94474017,4387,71743734,2285,1457,246498132,135,0.64,0.32,0.31,0.02,0.0,26130181,24823000,992000,40670007,0
92842407,265937,61778768,425198,61682921,425675,137039,1619748,349495432,111616,93556695,409458,206359,324520353,133,2.25,1.09,1.04,0.05,0.0,94902772,69706000,24895000,109439563,0
248754254,294281,154915650,690447,154801909,690795,150536,2151568,504781739,115010,250519287,9800,105623,772841711,129,3.33,1.65,1.59,0.08,0.0,137088279,107884000,28968000,151440812,0
247634734,306636,153970931,727620,154017529,727852,141453,2197350,506649085,116110,249952418,10618,106021,768154335,130,3.33,1.64,1.58,0.08,0.0,137250731,103030000,34009000,151611534,0
248255238,318491,154053457,701770,153916994,703761,162005,2273593,507392988,115544,250867949,10235,105609,769821144,129,3.31,1.59,1.54,0.08,0.0,138696378,99487000,38800000,153326868,0
7170141,324647,5425035,159392,6687166,166773,133771,550681,28291383,2972,8047634,5016,2955,46449940,591,0.2,0.1,0.09,0.01,0.0,7780740,5637000,1879000,22143349,0
67162048,219971,44158188,189426,45081375,204696,183866,886129,95151230,5037,70100513,1991,2061,249501576,330,0.64,0.32,0.31,0.02,0.0,25896201,23600000,1966000,40169334,0
68443992,210563,44496693,179302,44490348,182053,159641,827464,96570480,4139,71405921,2460,1578,242852844,133,0.65,0.32,0.31,0.02,0.0,25716365,22501000,2935000,40281047,0
68083036,214346,44907497,182219,45007525,182118,142534,914882,96039841,4109,70877585,2500,1241,246092784,134,0.62,0.28,0.28,0.02,0.0,27250132,25902000,996000,41560446,0
68227053,215689,44530681,183780,44584659,184266,133044,791714,96875084,3747,71490399,2504,1682,241162791,135,0.65,0.32,0.32,0.01,0.0,26107529,22848000,2980000,40567736,0
250768727,305152,154622009,665473,154939034,660014,138302,2058600,501407807,114188,251648056,37853,206669,768320672,126,3.3,1.64,1.59,0.08,0.0,135512822,97063000,38024000,149707028,0
56577780,183925,56845238,198963,56788195,199416,130908,892626,105520746,3825,58968475,2938,1581,293173810,131,0.72,0.35,0.35,0.02,0.0,28866964,26517000,1964000,43322515,0
2624868,334018,20873352,284563,21354986,294010,133255,4408471,983756450,31423,3477836,5273,9074,220874429,133,6.63,2.8,2.67,0.18,0.0,321192840,296935000,2999000,671034809,1
729206,105217,5827843,112262,5727643,122437,76133,1044450,180975004,6767,544056,772,1633,121361218,64,1.12,0.51,0.5,0.03,0.0,48900338,47596000,991000,63314070,1
678103,141896,3403606,67346,3392169,68190,96385,951296,152613377,4109,366983,299,1024,137431715,129,0.93,0.44,0.43,0.02,0.0,40843761,38579000,1978000,55309911,1
1073685,139359,5493369,140850,5428645,144649,96438,743288,99104098,2711,334365,317,853,98214586,126,0.61,0.28,0.27,0.02,0.0,26643388,25320000,1012000,40983325,1
972861,163017,3601744,78563,3428035,77867,93798,1120253,236156003,7310,802324,926,1968,226756467,132,1.48,0.7,0.68,0.04,0.0,64239231,61861000,1995000,78363853,1
1308534,203908,20928959,127002,20868884,120934,113094,1957336,494476721,13682,1326881,1367,3778,313345890,133,3.08,1.45,1.4,0.07,0.0,134277476,133945000,0,148554339,1
301755,97924,3117654,51736,3116167,51442,90672,643976,55158197,1984,218267,189,380,68890240,131,0.33,0.16,0.16,0.01,0.0,14492536,14224000,0,29108260,1
1766992,288970,65921972,174999,65856130,175924,140722,3111251,781700198,20274,1437513,2430,5159,947669419,133,4.69,2.12,2.04,0.12,0.0,212445172,210180000,2001000,226617003,1
32914902,235314,62884574,137747,62756349,134710,107676,2199177,522339917,14524,32272521,2119,4176,564176055,131,3.12,1.4,1.34,0.08,0.0,142117058,140824000,998000,156707646,1
1887312,185376,5912846,155064,5877004,142881,126194,1024428,151408471,4003,399276,351,2053,87433794,190,0.91,0.42,0.41,0.02,0.0,40980143,40021000,621000,55155604,1
3334622,462562,210702657,287944,210720971,288617,169944,5211544,1447570860,35574,2523591,4468,9810,1995136963,128,8.73,3.95,3.8,0.22,0.0,391751870,389473000,1997000,406331971,1
1348334,225122,4726039,125001,4643630,126939,104625,2040894,506894374,13657,1139542,2084,4173,73908929,132,3.13,1.46,1.41,0.08,0.0,137397191,135993000,999000,151810920,1
90747983,259308,143602996,133093,143410621,133151,97035,2386933,596612732,15969,91074822,2257,4465,743462822,133,3.73,1.77,1.71,0.09,0.0,161469964,161150000,0,175767254,1
1613610,152966,3345609,68381,3245643,65343,86514,1018820,179162800,5849,783409,1009,1881,139963894,135,1.13,0.53,0.51,0.03,0.0,48604538,47287000,1006000,63089459,1
2224689,226323,55441366,117357,55749393,115301,115939,1903483,443133543,12630,1217738,1355,3263,668772293,133,2.63,1.17,1.12,0.07,0.0,120117298,119724000,0,134619608,1
3189615,463669,210671409,291781,210850746,293624,229769,5423246,1447690360,37844,2835342,4605,10134,1995697711,128,8.62,3.86,3.72,0.22,0.0,392599633,392190000,0,407363645,1
635215,132134,2722479,67718,2461010,61717,84582,787248,133121597,4571,549946,758,1433,30709007,133,0.84,0.39,0.37,0.02,0.0,36163997,35758000,0,50797191,1
1791260,183791,3751534,82869,3629205,79670,106902,1138087,183035478,5636,684352,1041,1738,142932281,126,1.1,0.5,0.48,0.03,0.0,49354599,48109000,981000,63841620,1
439137,106523,4568155,140318,4626121,119658,95911,837555,101704719,3146,194103,340,713,74681080,134,0.64,0.29,0.29,0.02,0.0,28132908,26921000,997000,42666547,1
758444,105602,3287614,51814,3085115,47953,76774,652627,69695105,3230,514611,624,1002,87761905,130,0.44,0.19,0.19,0.01,0.0,19307456,18980000,0,33600509,1
201355563,767719,121642334,1863358,120201812,2176422,248006,3213036,249559952,18065,199974528,10257,7817,595566086,911,2.24,0.8,0.75,0.07,0.0,118480557,93546000,7041000,453836934,2
194826993,495642,121636838,1474355,121349577,1474337,189383,2037563,254795619,10004,192765900,13167,6116,588868580,1002,1.73,0.89,0.86,0.04,0.0,68893200,66619000,2018000,83554465,2
136323872,6691484,88173024,1764943,89285542,1709166,1167859,7638763,342865897,105487,147366334,12705,10918,451243457,2868,2.22,1.08,1.04,0.06,0.0,92436099,89139000,3004000,107247965,2
68256044,469637,48842211,1643917,48585608,1479736,158625,1185926,132139332,9795,72056098,2020,2149,243196395,522,0.89,0.43,0.42,0.02,0.0,36428204,34123000,2007000,51037915,2
193190490,757354,120533579,1488282,119721887,1460713,267092,2250779,256621506,14531,198846288,7354,2144,585851528,907,1.78,0.92,0.88,0.04,0.0,69264351,68974000,0,83841867,2
81339109,446242,68109155,1479698,68601627,1446604,158676,1397060,158153146,5788,81599879,3370,2901,329984135,522,1.08,0.54,0.53,0.02,0.0,42826404,41539000,1013000,57334268,2
196005302,435155,119477406,1454107,118988217,1493468,182513,1617769,244893104,8719,194188452,11243,2762,587188308,520,1.72,0.86,0.83,0.04,0.0,66468906,64190000,2005000,81210386,2
198069653,1022917,125105540,1573583,122583325,1521130,410236,2861724,271905154,24817,197776514,30674,16273,597102089,1905,1.87,0.95,0.92,0.04,0.0,71705019,66468000,4960000,86353655,2
194808733,515085,121400899,1478334,121987511,1451560,209100,2038384,252684973,10165,194104173,11787,6778,584305873,1001,1.74,0.86,0.82,0.04,0.0,69764849,69557000,0,84210517,2
67912001,769506,45441479,1581908,44455035,1485007,230995,1621551,137438849,7311,72213661,1682,1817,251693698,914,0.9,0.42,0.41,0.02,0.0,37586601,35335000,2019000,51789577,2
66544056,863432,47404814,1605535,46285469,1649225,191076,1712782,136389170,8176,74873503,6430,5776,248537462,1431,0.9,0.45,0.43,0.02,0.0,36720242,31502000,4922000,51374881,2
91523103,1187543,87066597,2295188,91376548,2376055,442457,3164296,255885415,12124,96418382,8337,7422,428278560,2330,1.68,0.83,0.8,0.04,0.0,68931505,67589000,1008000,83568917,2
193802851,479268,123362723,1218692,123523223,1251623,163489,1692989,251508463,9113,186781934,14319,3730,583170881,520,1.71,0.86,0.83,0.04,0.0,68191616,66980000,999000,82563677,2
195556340,797994,121782071,1521719,119861971,1525625,293637,2499161,258426830,17407,197272752,6750,2239,595159604,956,1.77,0.89,0.87,0.04,0.0,69937943,66655000,2984000,84252621,2
192538213,430779,120442382,1476343,120243400,1474084,208263,1710297,253286498,12404,197812378,10788,2679,580257252,517,1.73,0.87,0.85,0.04,0.0,68098260,66808000,1012000,82427178,2
69052221,774007,43404571,1638143,44725472,1502651,267574,1929599,132161934,8177,74002837,2146,1853,255522278,915,0.89,0.44,0.41,0.02,0.0,35022772,33661000,990000,49727924,2
69692977,834067,44260858,1695532,43980129,1528980,234318,1831878,132466565,8101,73023111,1473,1861,254470082,915,0.88,0.43,0.41,0.02,0.0,35525567,33196000,2011000,49900644,2
87250943,443489,55403535,1376038,49158322,1905758,180518,1423839,137774044,7871,74628053,5622,5429,287894697,784,0.9,0.43,0.42,0.02,0.0,36887078,34578000,1975000,51423432,2
194357359,429925,119322872,1432983,119068155,1587515,171031,1638869,241788529,8182,194249883,9646,2642,590371373,521,1.69,0.84,0.81,0.04,0.0,65915265,64598000,1009000,80347740,2
69327890,756228,46199923,1805738,47566699,1578691,250227,1766897,125738999,12832,74829457,1448,1719,253209878,912,0.84,0.41,0.4,0.02,0.0,34015958,31727000,1982000,48510137,2
150154501,5132378,99690085,876633,99351537,897641,1914289,11444207,408916935,187390,167746910,21657,18076,508750947,3385,3.3,1.21,1.14,0.11,0.0,162566950,133415000,6018000,504559341,3
157604116,5024844,116957234,2425916,116242891,2491920,1513472,11525551,419761569,200449,145735624,13594,10670,506453912,2479,2.83,1.38,1.33,0.08,0.0,113666843,107400000,5966000,128330573,3
154672314,5029774,116117175,2460604,122155136,2414897,1642250,10138537,437482952,168617,163100885,13753,12348,522983525,2869,2.89,1.4,1.36,0.08,0.0,118244420,113925000,4032000,132946834,3
132615058,4790883,91584465,813896,92485431,825371,1499234,10069231,356792581,180088,130000416,14059,9758,425677137,2480,2.35,1.11,1.07,0.07,0.0,96471294,90130000,6008000,110968174,3
196811215,5022279,145444793,2916061,146273499,2921988,1661663,12465119,953922411,392429,200248420,22368,216883,684870392,2476,6.18,2.91,2.82,0.16,0.0,257366018,198036000,59011000,271993728,3
358788874,4993780,224117309,1039105,225410023,1053763,1641434,11339563,604564465,178139,371219669,27065,12557,1087731888,2666,4.17,2.02,1.95,0.11,0.0,163254286,156928000,5997000,177871585,3
385408801,5164148,242341667,1618332,242785966,1617494,1641296,13016979,1114876267,384966,388288898,556841,217722,1178893248,2473,7.3,3.54,3.43,0.18,0.0,300268648,237964000,61990000,314872937,3
212248036,4591877,154694230,2974007,155633438,2994047,2563202,12838407,995089187,523305,215698528,35006,545607,729875507,3257,6.4,3.02,2.91,0.18,0.0,269673045,198535000,70834000,284286302,3
406346705,5128822,257704120,1521385,258672999,1533740,1668075,13138772,1127625645,397208,408703158,215270,217783,1262883971,2473,7.4,3.57,3.45,0.19,0.0,304002526,237690000,65914000,318629534,3
408213833,5125154,253479243,1521073,255265743,1523653,1757810,12935558,1140415648,392836,427726468,545601,219634,1267508625,2667,7.45,3.62,3.5,0.19,0.0,306797910,239580000,66882000,321541302,3
361395200,4984592,224142036,1042416,225315039,1045763,1670164,11574949,605402731,182799,368288367,26109,13207,1093586708,2671,4.09,2.01,1.94,0.11,0.0,164755530,160437000,4010000,179618134,3
143496727,4996317,99958543,839352,104406444,820822,1448186,9786429,382315455,161786,154423125,11500,10042,476079705,2478,2.52,1.18,1.14,0.08,0.0,103893355,92651000,10958000,118464629,3
140388797,5122792,100595479,833470,109251465,774918,1464570,9335139,379605934,175107,152287777,10564,11617,469588800,2868,2.52,1.19,1.15,0.08,0.0,102520191,96119000,5945000,117165527,3
403978434,4994544,256318583,1582564,257358975,1587575,1526115,12936953,1136443570,399638,407911367,29321,217221,1249046518,2472,7.5,3.57,3.44,0.19,0.0,307865186,249435000,58101000,322184321,3
145478406,4837867,108298069,2545090,110652567,2551378,2483355,10965741,455626169,304835,158884828,12329,15795,513958110,3650,3.05,1.44,1.4,0.1,0.0,122839674,112565000,9961000,137454712,3
194590550,5035215,131303373,1315222,136775919,1311848,1667147,12163808,890774022,384135,205996713,27161,216161,650528526,2868,5.73,2.69,2.6,0.15,0.0,241238613,168882000,71949000,255725020,3
411030852,5569139,258271375,1510572,259248220,1519213,1565047,12939630,1141032512,395401,416574411,421239,414161,1265170895,2472,7.48,3.59,3.47,0.19,0.0,308970678,232779000,75928000,323596678,3
204492226,5169908,130765437,1313329,130769279,1329519,1819309,12252011,909647674,384405,221500904,312232,215538,695997765,3258,5.86,2.73,2.63,0.16,0.0,246281826,197119000,49029000,260942272,3
211239325,4748716,139251537,1343307,138878132,1373254,1694871,12849941,902532458,390822,209730203,541102,216491,703513005,2870,5.79,2.73,2.64,0.15,0.0,244143679,191809000,52220000,258482490,3
216664950,5091425,142301955,1323448,143085266,1328654,1608295,12375848,925811737,388440,218550358,471305,827668,709334618,2670,5.98,2.81,2.71,0.16,0.0,250108538,184986000,64995000,264633756,3
137966436,5113966,96053828,742934,92745778,807612,6191297,14254406,456998584,555765,137534114,37825,78163,492176967,8584,3.74,1.32,1.25,0.16,0.0,180764088,124894000,27976000,520838688,4
129161741,5865449,91414485,982969,89501143,1002835,6793333,16290341,501007044,658992,132873846,30128,30338,469236059,6383,3.38,1.47,1.41,0.14,0.0,135349829,124990000,9999000,149872208,4
349525185,4114745,223247702,822832,217816425,904141,4299031,10975258,616586854,433526,340688392,39990,69564,1064916242,5948,4.16,2.0,1.94,0.14,0.0,167130724,155730000,11051000,181729252,4
136362890,6246746,97445938,664606,95771201,657087,5792713,17766013,463575200,719918,128911118,13861,7438,486311101,3463,3.06,1.32,1.28,0.13,0.0,129291491,118954000,9996000,143961150,4
360412374,7003662,234122705,1237642,236933079,1168814,7427149,16874831,778304028,688188,361678766,58558,78254,1102622982,7964,5.21,2.43,2.34,0.19,0.0,211016597,192698000,17971000,225475714,4
176711526,7981975,124624787,707316,120235993,705436,10118367,18726857,621838423,1068608,179816381,62434,54633,649484468,13170,4.18,1.88,1.81,0.19,0.0,169088273,149605000,19077000,183611891,4
351602528,5601115,220940196,1197497,218725681,1194806,6354650,15773004,709221212,607996,347745107,38102,25901,1091830806,5992,4.75,2.25,2.17,0.17,0.0,191735079,173437000,17941000,206470591,4
145042891,4811525,98672924,668349,95487934,639725,5346512,13047716,447264983,456560,147783182,37202,14508,524105598,7639,2.94,1.34,1.29,0.12,0.0,120818618,105439000,15062000,135388639,4
125555312,4371261,89844252,652174,88637438,659027,4390761,11631625,424675860,547356,126004135,13467,6486,448363091,2872,2.77,1.24,1.2,0.11,0.0,114801848,109300000,5013000,129344362,4
123040030,4957248,87308117,756679,87130030,749239,4878320,13473200,400547148,439092,128318583,26801,19919,443932212,6342,2.65,1.19,1.14,0.11,0.0,108283370,92929000,14988000,123099620,4
348616279,5951977,218736665,1171189,216022971,1196841,6477580,18086802,715269874,689437,345879061,35543,19804,1072059421,5449,4.8,2.26,2.18,0.17,0.0,193243756,182929000,9996000,207897605,4
127886181,5946367,90490402,668306,87579834,673254,5822568,17043264,469610271,779904,126287261,19044,13219,449791757,3453,3.06,1.37,1.32,0.13,0.0,128028002,119713000,7980000,142583168,4
348189631,5929456,218516222,1227715,216463123,1223629,6498510,18101605,713709349,683969,345589435,34676,10672,1071116003,5497,4.82,2.29,2.21,0.17,0.0,193098422,178723000,13978000,207784468,4
346666102,4761046,222057570,983332,218267314,967722,4085596,11217754,628630242,429038,339711378,36320,69329,1058899657,5952,4.28,2.05,1.99,0.14,0.0,169838820,154546000,14956000,184464489,4
372259122,4712257,237983034,906103,229202540,874931,4944428,12997201,658066128,469133,358675277,45205,19941,1145286100,7572,4.51,2.16,2.09,0.15,0.0,178066404,164654000,13051000,192739487,4
124029939,4396553,87261474,767621,85773395,747697,4710072,12349219,401180547,432531,129477028,22940,18973,447376069,6341,2.65,1.2,1.15,0.11,0.0,107533311,88304000,18851000,122150141,4
125280866,4609414,86208985,880932,82151555,932170,4948587,12442350,456141672,593078,130847590,16402,26869,443277642,4169,2.98,1.33,1.29,0.12,0.0,123391738,117032000,6001000,137742204,4
357112005,6801794,234930765,1207747,235817802,1194162,6808103,16157834,777637270,681483,357278477,53618,110169,1100168019,7572,5.22,2.44,2.36,0.19,0.0,210354212,198975000,10998000,224906159,4
129739079,4329126,88844347,638585,88077342,645201,4620980,12363629,425583225,563101,132033276,15043,7471,458947513,2881,2.75,1.21,1.17,0.11,0.0,116285704,111858000,4030000,130752507,4
128580719,5698819,91989072,724212,90875624,638147,5500587,13149091,435850814,629071,123451641,29082,64036,446104398,6116,2.88,1.3,1.25,0.12,0.0,117647137,110317000,7020000,131978508,4
205170195,8179947,156341761,854384,156034810,832000,8239711,19693535,668348862,707898,218343859,64726,108946,773306493,12767,4.87,2.0,1.91,0.2,0.0,213776519,175450000,21054000,537714581,5
393757899,7712505,250727633,1212109,249016844,1150204,7346583,17599120,804625073,742556,381930626,65719,98905,1211086295,7647,5.38,2.56,2.48,0.19,0.0,217948293,205692000,11982000,232474315,5
179974621,7995479,125770482,1162915,121839231,1335105,11380048,24279239,717904150,1117898,172494355,74207,70450,648816826,12637,4.68,2.1,2.01,0.21,0.0,193527010,164077000,29013000,207932643,5
445327772,7809327,296360244,1039360,291387437,1096553,8892496,21595778,916609999,738551,432269061,78986,90473,1438474103,12759,6.17,2.97,2.87,0.23,0.0,248351750,225050000,23005000,263076219,5
386159287,7886469,244720165,1403519,244990950,1325325,8061342,17954768,824164095,960635,386525093,44644,89180,1205131583,7206,5.55,2.66,2.57,0.2,0.0,221954109,207591000,14040000,236532151,5
172212386,6822546,118953953,1012259,115769140,1243065,9366160,21157383,653750500,858784,169229236,36116,95640,633010142,8144,4.23,1.92,1.85,0.18,0.0,176706267,161377000,14942000,191476577,5
177995020,6695388,117573541,963373,115038483,1218920,9820499,21663147,650282207,864950,173102688,30673,84269,649328911,7363,4.24,1.91,1.84,0.18,0.0,175427462,158196000,16914000,190020460,5
161356596,7437977,114374706,1163740,113617991,1001387,7833338,18705110,617088323,927383,157841307,26567,66549,553089822,4952,4.11,1.84,1.77,0.17,0.0,166036515,158631000,6983000,180767773,5
395269370,7105429,249929081,940617,245668525,943879,6868041,18474077,787327868,743087,387632709,40941,93785,1226781084,6424,5.29,2.5,2.42,0.19,0.0,212477050,203818000,7992000,227133413,5
211043936,8098160,158279177,891256,157802088,939040,8441700,20050063,693266561,760970,213046202,79497,38330,791431959,14528,4.6,2.11,2.03,0.19,0.0,186706518,162231000,24034000,201427640,5
168379862,6667386,112318286,995716,108378800,981501,7610508,18446301,545491885,728574,170478637,22674,20560,621978687,6819,3.57,1.61,1.55,0.15,0.0,147203924,133896000,12989000,161956856,5
167226513,6297188,111779923,981147,108226850,972692,7655604,18684632,545182395,696168,171517055,26762,14935,626142140,6428,3.59,1.62,1.56,0.15,0.0,147386304,132009000,15001000,161910255,5
387401298,7614554,244304626,1435743,242708499,1380472,8511730,18469682,814696564,857230,383839761,50255,76813,1209454053,7205,5.47,2.6,2.51,0.2,0.0,220065472,203663000,16052000,234676127,5
170420226,6613716,116941481,1097568,107370852,1079898,7477428,19193327,609066946,853368,162418055,25709,56059,591520179,4735,3.98,1.79,1.73,0.17,0.0,163944814,143659000,19952000,178696482,5
193230980,9759227,146349624,875583,150147997,832620,11075038,23697651,713788508,1233270,179742069,68300,85604,686908346,12587,4.68,2.09,2.01,0.22,0.0,193435769,168084000,25012000,208153490,5
224395121,11742424,169058003,1007783,170254776,998056,15250870,27425253,834117364,1649773,221170218,71596,49032,829525769,13239,5.59,2.56,2.45,0.26,0.0,223909092,199634000,23956000,238588773,5
227988045,8313702,170306238,946748,168547008,959205,9629025,20601381,746812416,849364,247799546,63705,44436,853911610,15451,4.94,2.27,2.18,0.21,0.0,201770194,172449000,28907000,216372746,5
186762423,8238038,138473075,946149,139810437,975826,9415738,21130689,678250467,957843,186728162,46726,37144,686352855,11209,4.48,2.04,1.95,0.2,0.0,183342608,158035000,25005000,198326606,5
192842343,6974942,139011106,847814,133720938,869920,8838199,19622166,615098826,831047,176703840,45281,61046,676946716,9356,4.07,1.84,1.77,0.18,0.0,165505951,145215000,19892000,180262912,5
158056375,5992632,112923266,785036,116088901,789015,5713017,15806353,568846046,842696,158367745,15969,8243,553811172,3654,3.68,1.64,1.59,0.15,0.0,153358973,145050000,8002000,168000780,5
765091429,2648446,442955093,3496795,440688193,3620904,1211843,8137449,963145300,45955,772253883,43394,21906,2333175090,3253,7.12,3.35,3.23,0.18,0.0,294469165,262465000,11019000,620549172,6
646417838,1165020,399856302,3047973,397889825,3161401,399530,3814756,746035474,23459,651198318,23610,13245,1902733504,1557,5.19,2.69,2.61,0.11,0.0,202353394,199113000,3001000,216695019,6
208638508,2365459,134335526,1538905,124770809,1689969,607742,3512258,303885788,23003,206910099,7569,5763,648659355,1694,2.09,1.02,0.99,0.05,0.0,82582358,77251000,5016000,97481722,6
278211073,16632382,210547724,9736614,211204756,9574442,14374357,40892003,1322552944,1628645,276583690,46727,39669,930746283,9843,8.64,3.94,3.79,0.33,0.0,356269486,336893000,18993000,370703898,6
325860759,15799048,234933045,11602994,232989306,11387783,12477206,36044507,1347743621,1492533,322304015,86081,51898,1041985075,9821,8.73,4.03,3.88,0.32,0.0,364708295,350379000,14015000,379377887,6
684108753,10003377,465939168,2777264,467245288,2542924,970525,10270544,1001948061,35292,694855099,42362,21998,2139393340,3838,6.82,3.45,3.34,0.16,0.0,270453625,266093000,4001000,284886897,6
662147360,2914017,421933057,5103889,417720635,5206140,589921,5668853,846849421,35079,656648594,48177,18779,1960938934,4280,5.85,3.01,2.92,0.13,0.0,229225244,221979000,6967000,243934999,6
241842106,7189839,170397449,2475996,167136660,2601924,5496720,17281805,537651524,165224,241963124,36870,30451,838021767,8067,3.7,1.77,1.71,0.12,0.0,145673336,130330000,15038000,160332671,6
381733687,6952626,248390098,6628428,247558627,6727259,6110883,13593196,979512196,119238,385917621,155128,130487,1396887121,41426,6.57,3.2,3.09,0.2,0.0,263823684,197321000,66107000,278512587,6
227159725,9229901,189715999,2299841,189077310,2317975,683209,4404566,511728472,22083,231507274,21068,13875,859915109,3844,3.33,1.61,1.55,0.08,0.0,138508854,131178000,7009000,152799357,6
689084270,10165753,465175527,2914762,465933099,2908272,759971,5768580,958331257,36815,698441712,39463,19672,2151966922,3839,6.53,3.25,3.15,0.15,0.0,261507734,251167000,10006000,276039721,6
202587910,10106208,155656968,6484915,154307562,6555745,4251451,26456710,611597356,238427,200760185,23402,22313,746203685,7618,4.04,1.93,1.86,0.13,0.0,165568148,150255000,15025000,179948711,6
220483372,9848364,173738036,2134964,168876080,2165695,1019372,5539012,506382806,24471,215484344,21432,56113,747754592,4429,3.32,1.59,1.52,0.09,0.0,136969388,127661000,8976000,151462884,6
144839916,2052489,150412871,3183954,146248704,3153515,767247,4641606,315364143,12627,141075748,11821,4406,679071530,1887,2.15,1.06,1.02,0.05,0.0,85412169,81084000,4004000,99867395,6
222016162,2334156,144127648,3616026,140217224,3951100,1434496,5078831,407812376,20979,217880070,15771,15705,708809070,4944,2.76,1.36,1.31,0.08,0.0,110547418,100313000,9932000,125143187,6
633181434,1046425,393238018,3574739,393485252,3343597,426796,3845252,742066338,25415,643342992,26068,8792,1883436375,1105,5.21,2.67,2.59,0.11,0.0,200579454,193115000,7004000,215298529,6
721066842,28044355,458140730,2807855,453835138,3043469,1065552,6873495,1101570536,42007,724480369,40604,24140,2122432196,4578,7.38,3.65,3.53,0.17,0.0,297337223,287950000,8998000,312069837,6
174911128,1860026,132958922,2536910,130969555,2545375,966104,4490850,331412440,21251,174569741,30597,21311,609307915,4796,2.22,1.09,1.06,0.06,0.0,89179967,78885000,9985000,103669651,6
313657701,25427915,243569331,7331566,242960651,7324890,5033827,19631272,1151939517,482461,315772607,51086,38017,1021222731,8552,7.4,3.47,3.34,0.22,0.0,309461925,289194000,19944000,324276878,6
656657412,5847086,420131373,3473455,424143509,3434793,3471497,15742264,1072964024,436901,660342241,46730,31532,1948069819,4425,7.26,3.58,3.47,0.2,0.0,288763899,278368000,10013000,303272285,6
304383055,6415387,201435244,113038,201956125,119285,111016,13545467,320689605,12167,302262586,4181,3032,1425814219,232,2.58,1.17,1.13,0.06,0.0,112859914,90980000,1999000,437199684,7
645265287,27453895,302855205,492301,303499178,486070,18209911,54208615,1356800916,284477,654120957,581677,127025,2113658452,98337,9.39,4.62,4.46,0.35,0.0,366194400,201266000,164217000,380841981,7
644134936,27456869,303354622,481820,304347559,479664,18544231,54910520,1358414981,286462,653867423,592868,125826,2208855592,98333,9.38,4.65,4.48,0.35,0.0,365442866,202917000,161934000,380056775,7
374442809,6337130,214545070,148537,215738701,212938,150311,13884673,537901714,15129,371885522,2545,4309,1453397699,239,3.68,1.88,1.82,0.08,0.0,145515028,144230000,1001000,160006851,7
444048226,15923591,301213148,402739,300890613,395936,8052937,27108308,1026275516,125076,444792881,436150,105449,1994474994,97892,7.07,3.46,3.33,0.21,0.0,276895758,131348000,145385000,291456736,7
643704780,28018457,300594920,463506,302018701,465180,18507685,53100471,1214768010,277260,662611336,586213,121785,2109495752,98332,8.44,4.12,3.96,0.33,0.0,327758756,149735000,177686000,342270288,7
761136464,26899262,438839914,571012,437989905,572598,24197504,45704000,1559410480,779505,765498394,521345,265733,3133091128,97891,10.79,5.23,5.03,0.41,0.0,420364342,218066000,202062000,434726426,7
205885193,6439899,100860093,79822,100211751,79519,110458,12223773,218848389,7884,206228773,791,1423,935899442,324,1.5,0.76,0.74,0.03,0.0,59119971,56841000,1994000,73594060,7
616534921,26769974,564468758,541109,559103794,541004,25583785,47329181,1431423489,641840,609038447,403821,108280,2982916438,97884,9.87,4.72,4.54,0.39,0.0,388455513,187104000,201111000,402789282,7
302764034,6465844,200492606,116385,200389635,116057,118585,12457629,420238983,11874,305149873,1533,2606,1223739363,232,2.9,1.47,1.43,0.06,0.0,114225159,112997000,999000,129026923,7
517541800,20758330,358589094,519059,354979250,513628,18219065,39387509,1232168261,612991,507287720,495421,457219,2288413182,97887,8.54,4.14,3.98,0.33,0.0,331231170,140877000,189835000,345976310,7
512781151,27237676,348891854,525759,348450061,530905,24573636,47823156,1356569646,671499,518715704,373075,106771,2504217060,97889,9.43,4.56,4.38,0.38,0.0,363790943,178257000,185267000,378445639,7
304551262,50290162,200351674,109768,200498253,107834,151196,90274718,390416219,12107,307029621,1580,2934,1128503964,527,2.81,1.47,1.43,0.06,0.0,104970210,103715000,1006000,119492384,7
511747510,25604972,201558914,121174,200726577,115185,234003,55240977,395693564,15134,508331160,2152,3708,1647231922,726,2.8,1.46,1.41,0.06,0.0,106528498,104220000,1985000,121178049,7
816122187,20645281,655202292,588788,651175254,583986,18280546,41500518,1714113617,629649,812457496,333633,109873,3595282785,97889,11.86,5.8,5.59,0.42,0.0,463748643,273649000,189757000,478458266,7
657685973,27939910,305724071,494746,304041002,506561,18650739,54750581,1367786931,289763,653028153,666722,126788,2231694598,99215,9.46,4.6,4.44,0.35,0.0,369216987,192817000,175833000,383957898,7
644870957,28091137,300287292,469907,301193403,466996,18436577,53212427,1220995367,282237,664273273,595869,132772,2115722039,98337,8.46,4.1,3.94,0.33,0.0,328464178,145957000,181947000,342921052,7
206043190,6431074,101017348,78192,100098565,84468,134058,11768666,217716534,8155,204878769,1084,1935,934704376,327,1.5,0.76,0.74,0.03,0.0,59038904,56679000,1988000,73574830,7
647858530,27914992,300689694,467145,301009000,471311,18431608,52256913,1215522797,278609,666508147,581850,121118,2123350751,98331,8.42,4.06,3.91,0.33,0.0,328791290,156505000,171458000,343354391,7
815278388,21079797,658787228,598687,658156189,599362,18358219,42744605,1723938359,634747,806546558,514618,206576,3593725498,97890,11.95,5.78,5.57,0.42,0.0,467202865,274751000,191826000,481631653,7
449144100,6133159,229775484,4242539,227094894,4208945,3917224,17185597,760920264,81620,442791223,47456,25144,1542148363,6387,5.9,2.5,2.39,0.19,0.0,265186991,219927000,22992000,595626398,8
313553303,6152175,179939772,3465907,180008444,3438265,2969368,14898754,644144860,91848,313978008,35477,12535,1153093897,4427,4.39,2.18,2.11,0.12,0.0,174018123,166724000,7030000,188457627,8
377456530,5916187,186205920,3394708,186173693,3426586,3042059,15416106,710022297,79573,376537234,21150,12029,1334350227,4232,4.81,2.39,2.31,0.13,0.0,192011167,185658000,6021000,206463345,8
304161887,9974648,173206976,3342964,177793022,3352423,6263808,23634171,1048154793,3170463,313873188,30052,641547,1044339724,5643,7.07,3.41,3.28,0.21,0.0,283002476,235539000,47107000,297850254,8
243289439,8441602,143684592,2695486,145590862,2669740,4568710,18533934,506557443,81741,247155138,35159,17595,866209754,6778,3.47,1.71,1.65,0.12,0.0,135886634,123581000,11959000,150361055,8
266803408,10377192,154710103,2495138,157160467,2501600,11025171,27817188,669939103,827532,274913221,59228,16942,858239346,8140,4.57,2.19,2.11,0.17,0.0,180924779,162669000,17963000,195551052,8
230295741,7698075,182692827,566779,181322204,558302,3860954,16967659,508668530,55342,222275716,27049,194273,1167664761,3454,3.47,1.64,1.58,0.12,0.0,141707183,132431000,8961000,156487325,8
776182790,21679638,433604772,4091359,438351570,4101042,7446583,33553049,1588207330,400650,786216478,60457,233324,2333901932,6772,10.77,5.33,5.16,0.31,0.0,428904616,348672000,79924000,443612961,8
257646324,15663505,155891692,2806380,159866790,2817601,7568195,25771663,572203823,286814,268825151,26803,12998,942054728,4623,4.03,1.93,1.86,0.16,0.0,154695016,146277000,8015000,169209130,8
721875343,22542153,550554122,4222654,549530167,4237399,17915486,44216795,2175753555,1630343,722726991,649422,111264,3111900577,90614,14.67,6.98,6.73,0.48,0.0,588067409,444525000,143169000,602759429,8
330460117,17328105,192709716,3603476,197031393,3582219,7697944,31022473,1106263257,383841,340944943,33578,312479,1214028362,4813,7.4,3.49,3.36,0.24,0.0,298381987,235123000,63033000,312855750,8
247521657,8226413,139850885,2453027,142925260,2409487,4461719,17943036,523212594,60677,257773455,29467,22338,867639031,6582,3.61,1.76,1.7,0.12,0.0,141600804,132270000,9018000,156049264,8
324776895,7759337,164958395,3099202,164831432,3066760,4464315,18131192,591925600,79579,322150685,44714,15621,1111244158,6386,4.07,1.99,1.93,0.13,0.0,159495757,148154000,11011000,174219670,8
216592047,7809976,132007317,2367727,135353481,2353265,3916423,16318657,482461607,64307,226481483,19418,12050,800756237,4622,3.33,1.61,1.55,0.11,0.0,130733764,121306000,9022000,145150282,8
153521744,5832838,80824495,2516778,80161430,2527079,3289355,13007355,341403430,55311,162939682,17210,7694,591145157,4429,2.36,1.12,1.08,0.08,0.0,92548222,81089000,11012000,107239289,8
720999368,7588224,422386057,1578911,425931589,1588313,3671711,19693044,1439958495,265384,723839408,69275,282417,2180695120,6379,9.73,4.83,4.68,0.25,0.0,389315128,314009000,75002000,404051268,8
242816465,5826757,130920857,478596,130675978,480520,2974602,14031896,463124629,36120,243465719,18920,23461,976859890,3266,3.14,1.47,1.42,0.1,0.0,128657874,123342000,5013000,143179438,8
267651327,7602705,141078445,2774397,143884629,2790220,4297839,18568749,600189728,230140,278106603,19793,12369,935213348,4623,4.0,1.87,1.81,0.13,0.0,162824757,149492000,12956000,177705279,8
224435841,7569636,130347604,2401778,133778240,2394822,3824322,16394952,483387740,74113,231946291,20284,11089,801521295,4620,3.34,1.61,1.55,0.11,0.0,131057870,119567000,11052000,145871492,8
247927659,9930256,170578237,2678517,172406035,2635785,6880273,23089709,572034831,106098,256295664,19843,12180,1041118280,5996,3.95,1.88,1.81,0.14,0.0,155486160,144095000,11007000,169919292,8
137328274,236829,78565707,93195,77792134,101535,181983,1527024,161653440,9638,138502274,5188,3305,354043428,415,1.44,0.57,0.54,0.04,0.0,66712584,46001000,4089000,395926293,9
136802157,229310,75648706,75202,75606510,76909,150513,1144354,152573385,5040,142270682,2481,1604,362673070,373,1.04,0.53,0.51,0.02,0.0,41078383,37805000,2984000,55495582,9
68290280,196489,34949196,72324,35112517,72346,157539,878563,61850288,3864,67381810,3636,1500,186379679,610,0.44,0.22,0.22,0.01,0.0,16966522,15636000,1042000,31624341,9
136768301,229410,75811874,72037,75838103,72128,138529,1102900,151407812,4618,141526891,2612,1507,363984399,375,1.03,0.5,0.48,0.02,0.0,42290967,40011000,2000000,56889705,9
135859876,235418,77072178,74988,77133000,75199,139538,1079423,151811499,4835,142468979,2228,2102,366211034,377,1.05,0.52,0.51,0.02,0.0,41251094,39079000,1953000,55755972,9
138060165,229939,76419932,79697,76365838,79442,159061,1174246,158345817,5658,147164631,2406,1876,370548879,1349,1.08,0.54,0.53,0.02,0.0,42387552,39066000,3005000,57031820,9
43767706,238715,20778561,62757,20879464,63123,171340,675658,44112774,3888,50360474,1763,1164,117801222,620,0.31,0.15,0.15,0.01,0.0,11739629,11569000,0,26131746,9
2777196,184010,4773706,34702,6546908,34851,107275,477882,14903031,2235,12465452,2955,?,?,405,0.1,0.05,0.05,0.0,0.0,3986524,2827000,942000,18594586,9
69398151,489534,31647930,56850,25244992,59592,605092,1691766,64817696,10095,50164195,14827,2188,181529803,2142,0.44,0.21,0.21,0.01,0.0,17150701,11963000,4984000,31677346,9
151651492,422879,79980542,99204,81575822,103676,297335,1587026,174292761,10746,151391841,12379,5115,392690005,1647,1.19,0.6,0.59,0.03,0.0,47165759,43854000,2990000,62016882,9
138420457,228590,75331702,76231,75382903,77454,143549,1152213,154179313,5035,143124041,3146,1541,367156790,373,1.03,0.52,0.52,0.02,0.0,41482302,37300000,3926000,55966291,9
43358545,218896,22594759,67455,22509181,62124,138898,604734,44218704,1978,49050577,2327,1511,118362355,625,0.31,0.16,0.16,0.01,0.0,11783755,11387000,0,26367847,9
140351722,264969,76744893,75605,76740334,75173,178293,1234322,160939809,6115,145336734,2843,1567,373493724,622,1.1,0.54,0.53,0.03,0.0,43638461,39408000,3940000,58435441,9
40086509,174734,22215994,60295,22223741,59763,114689,554221,43536162,1328,51833464,1110,830,136314616,178,0.3,0.14,0.14,0.01,0.0,11548011,10287000,1028000,25994940,9
1763563,163156,4088011,35698,5596674,35505,102708,481128,13230348,2249,5792717,1453,?,?,403,0.1,0.05,0.04,0.0,0.0,3660946,845000,2535000,18345646,9
43516056,624826,27061825,72625,32658052,75045,1134708,2470209,129427016,22614,57957544,16597,11010,146937302,6482,0.88,0.42,0.4,0.03,0.0,34088441,21804000,11893000,48900904,9
69132222,222934,34793667,68256,35188698,70915,181296,903258,63978119,4692,66760211,4940,1606,190753338,859,0.44,0.22,0.21,0.01,0.0,17852674,12746000,4902000,32391391,9
138859088,204039,73661916,71901,73240282,71891,156170,986562,147721609,4648,143419223,1474,1650,365331150,382,1.01,0.51,0.5,0.02,0.0,40230453,38947000,998000,54957460,9
1945268,166233,4343998,35639,5540077,35345,103788,484653,14065200,2292,12811672,3302,?,?,407,0.1,0.05,0.05,0.0,0.0,3824387,1772000,1772000,18387234,9
76379041,237045,38381034,71417,36667652,70440,306846,1218370,72079614,6883,67998449,4005,1789,206082483,1376,0.49,0.25,0.25,0.01,0.0,19448252,16090000,3016000,34234549,9
83161375,1007347,56544878,712674,62203086,592576,682780,4697671,183730809,25626,103864373,14483,5581,303531732,2025,1.81,0.52,0.48,0.06,0.0,102095357,70897000,8102000,429135786,10
99239607,2221593,85877001,373766,83983258,355203,2133198,6126689,252987349,128909,100177486,18403,15961,428730795,3247,1.71,0.82,0.79,0.06,0.0,67552865,63281000,3955000,82158757,10
123521775,2584575,89983126,296703,87789283,290986,2531362,6945730,278576685,167589,124149904,24316,7637,435467820,3521,1.87,0.89,0.86,0.07,0.0,75419468,63086000,12016000,89947083,10
106454323,3043514,77626666,308838,74624378,340789,2854942,7216119,272429845,159210,103147268,28645,10609,383531773,4305,1.84,0.86,0.82,0.07,0.0,73249078,64942000,7992000,87789771,10
103215475,2207705,73944528,233393,73727508,218350,1129808,3963018,202015978,25012,101853963,11584,4440,372758375,3715,1.37,0.67,0.65,0.04,0.0,54059368,48789000,4978000,68671955,10
107597878,2939278,76447721,310402,73955833,341877,2632937,6658296,271001916,170422,106951646,30370,9948,380504567,4300,1.81,0.86,0.83,0.07,0.0,72999356,64748000,7969000,87443691,10
102711109,2469990,71361262,338587,70077633,330829,2457838,6421848,260846596,200021,104853651,18046,5622,371687984,3544,1.74,0.82,0.8,0.07,0.0,70008697,60739000,8961000,84688563,10
132228982,4160491,92065781,249594,88456571,301478,3719429,8728682,320716254,175286,139374352,37684,14359,499382032,7294,2.18,1.03,0.99,0.08,0.0,86681999,71456000,14886000,101416608,10
120907952,2567490,86284621,289764,83839699,284696,2590736,7032487,276262639,173878,119662703,20461,6851,428833408,3590,1.87,0.89,0.86,0.07,0.0,74673269,65322000,9044000,89234865,10
106835319,2727916,71206657,331467,69150620,351688,3079139,7586068,283831298,202888,110601623,21358,6765,387852175,4565,1.87,0.82,0.79,0.08,0.0,79894146,72597000,7058000,94299695,10
263422830,1334952,158551271,1050351,156426172,1147327,575656,4072156,345395254,17371,268371476,17629,9304,803760405,2083,2.38,1.21,1.18,0.06,0.0,92575776,87208000,5011000,107213408,10
304663537,2814580,189890706,853476,189054361,865251,2461851,7295930,473586940,189469,304436699,26967,5676,946042045,3515,3.23,1.57,1.53,0.1,0.0,128358122,119956000,7997000,142870889,10
299514779,2935517,191409470,1044807,187712213,1003495,3284004,9028141,495656721,193255,293271630,46509,9901,924801300,5794,3.38,1.67,1.62,0.1,0.0,133168355,123830000,9060000,147988195,10
263487121,1554893,161198790,1135438,161037568,1128126,817885,4481053,364071084,16478,266910785,12962,167539,806080261,2214,2.52,1.26,1.23,0.06,0.0,98297009,90867000,6989000,112891192,10
111014205,1183663,80267617,637990,77959884,637088,565479,2776412,194264333,13290,111251337,9706,6257,385565295,1988,1.31,0.64,0.62,0.04,0.0,52705908,45391000,6907000,67403604,10
221007079,6535686,169258668,600626,174626214,583591,7241411,16271031,580909734,459910,231027741,55055,37382,823859063,9764,3.93,1.84,1.78,0.15,0.0,157083421,142788000,13979000,171771873,10
86765453,1627569,59553500,262603,61144558,204075,713255,3554844,159333039,13180,89490774,7524,2843,316167603,2021,1.1,0.54,0.52,0.03,0.0,42521396,40211000,2010000,57131572,10
88261885,1180772,60988158,770436,62448249,678327,702181,3976674,178904641,15313,94835838,8819,3203,332743243,2069,1.22,0.59,0.57,0.03,0.0,48205383,43957000,3996000,62793419,10
276129975,2893574,173162094,981344,169770291,992406,2981066,8119780,471159524,173256,280021332,51163,9366,852025000,5984,3.25,1.59,1.54,0.1,0.0,126960421,113597000,12954000,141886859,10
279696694,2560236,174180485,696967,171202005,714071,2316854,6925781,423563125,134761,271842882,24212,11054,858983712,3277,2.93,1.45,1.4,0.09,0.0,114350192,109054000,5002000,129065290,10
69584681,14083175,29857256,5138214,30123839,5086102,143565,2108037,233952046,14196,63999074,3988,3802,174525047,175,2.16,0.72,0.67,0.06,0.0,112975322,90503000,4022000,428860720,11
67769128,14009745,55462981,4809457,59096913,4642458,104491,1326623,225851304,7116,78432718,1843,1961,228561108,168,1.51,0.76,0.75,0.03,0.0,61600024,59257000,1975000,76139726,11
67497639,13655607,30829549,4677180,35597988,4562333,117929,1352538,239633212,7069,77049911,2113,2248,159297172,206,1.6,0.79,0.77,0.04,0.0,64557876,63310000,1004000,78976596,11
189777788,12893502,59711804,5298345,60647777,5330687,131422,1549710,286910629,8116,196716101,1185,2347,442776032,180,1.92,0.96,0.93,0.04,0.0,76519894,74219000,2005000,91079528,11
94030273,14341524,33453347,5197875,34417835,5168320,110741,4899106,223030693,6905,94603068,1319,1795,196866760,222,1.53,0.75,0.73,0.03,0.0,60687724,60300000,0,75251376,11
771275767,23956146,608024953,5764928,607618944,5727253,168990,21289978,1145285332,34431,775774303,5695,7961,2630644836,227,8.12,4.25,4.13,0.17,0.0,309002047,308713000,0,323363408,11
67433892,26698515,42267120,8856783,46895243,8589033,124894,10554217,328701841,11363,79969368,2335,2643,238433177,187,2.16,1.04,1.01,0.05,0.0,89810464,88476000,1005000,104281982,11
764040380,23833382,602514646,5787691,602804801,5783347,152167,20310895,1090964225,26538,766765482,3277,6764,2596339238,212,7.73,4.02,3.9,0.16,0.0,294599050,292242000,1994000,309199551,11
68367785,8023445,29972460,5073039,34821589,4862248,105652,1270864,207201703,5954,78389017,1195,1405,156244417,188,1.37,0.67,0.65,0.03,0.0,55958386,53691000,1988000,70515165,11
66627048,13525836,28415617,4558829,29235550,4551056,132659,2266062,213182271,7133,67941188,753,1450,152220549,210,1.42,0.71,0.69,0.03,0.0,57985203,56734000,995000,72609856,11
68296066,26639373,47067155,9694157,51691826,9392631,122261,14758599,337267161,11033,80581799,2503,2722,210749218,221,2.24,1.1,1.06,0.05,0.0,91365611,91080000,0,105978274,11
66562577,6071072,41596753,4691219,41535814,4617544,135262,1322755,219455509,7093,66152961,1405,1467,185016980,183,1.48,0.73,0.71,0.03,0.0,59731265,58428000,990000,74316271,11
77256073,13984566,28449993,5201379,29146171,5204374,109355,3615812,211027616,6396,78352762,596,1265,156180759,211,1.43,0.7,0.68,0.03,0.0,57451517,54180000,2955000,71902835,11
89127679,14136160,30425776,4562510,35017752,4372708,167977,4642682,210118706,5556,96394481,1495,1456,212552608,209,1.42,0.72,0.69,0.03,0.0,56795794,55516000,991000,71455675,11
66989105,13557794,28236326,4503984,29046160,4478348,113515,5350138,210535593,6980,67610006,707,1326,151930022,213,1.44,0.71,0.68,0.03,0.0,58140345,57864000,0,72491707,11
66334853,13517628,29768521,4749591,29594957,4720567,125664,3649721,202530030,5516,66794071,777,1618,163413322,221,1.36,0.66,0.63,0.03,0.0,55229511,52907000,1996000,69811309,11
79388676,6523803,52728494,5090022,56798162,4863809,115683,1317140,245618954,7655,89887954,2095,2084,317140385,156,1.65,0.81,0.79,0.04,0.0,66753765,65478000,1007000,81016293,11
66088783,7766263,40440835,4877087,41166349,4875433,107409,1210967,205505860,5461,67898448,562,1260,196641706,192,1.39,0.67,0.64,0.03,0.0,55927241,55571000,0,70130531,11
429033366,67170300,315639904,23002032,317354559,23008127,204729,86177648,1943768604,48959,431439509,7025,12409,1145826646,259,12.64,6.12,5.91,0.29,0.0,525021811,523763000,999000,539536251,11
65968039,13317498,28725106,4324270,29213077,4333175,117727,3032803,219759674,7083,66822979,718,1466,137787060,221,1.48,0.73,0.69,0.03,0.0,59020633,56757000,1991000,73536033,11
326923416,1135110,213701429,625181,213231901,654604,364658,4069321,392427724,24884,325029190,29091,8900,969324756,1937,3.32,1.29,1.23,0.09,0.0,157989135,125548000,11048000,496105119,12
159157546,10376493,136694388,762264,140230919,778862,1497229,7272983,522099256,30816,169743331,40892,11008,597202196,6384,3.37,1.58,1.53,0.09,0.0,141751023,135414000,6018000,156559574,12
326868075,982958,211650361,595314,211802117,609587,281049,3194810,389018894,16009,330509239,22493,6512,974990614,1937,2.69,1.38,1.34,0.06,0.0,105077896,101769000,2993000,119724185,12
94101292,533339,71623651,109435,71251156,101577,192110,1487916,144892721,6944,91030284,7739,3275,350483752,1041,0.98,0.48,0.48,0.02,0.0,38956454,34749000,3971000,53411975,12
250195726,22415351,172418685,2529770,178633862,2593241,1592189,8807797,837680563,56007,250743434,50167,17815,803877310,5696,5.16,2.39,2.3,0.14,0.0,222270048,212927000,8996000,236927192,12
95554113,267065,61458739,88931,64534581,120164,213101,1522713,128240185,8833,97140008,2416,1887,328004635,918,0.89,0.44,0.43,0.02,0.0,34502303,30292000,3908000,49255723,12
84438998,780139,88695311,132673,85808343,104228,281287,1851103,144891742,6289,83276567,2354,2158,395627093,915,0.99,0.49,0.48,0.02,0.0,38902707,34702000,3965000,53350636,12
246317820,21125020,182148883,1650582,178127441,1696514,5362772,12755735,862743026,82924,246380484,71375,20792,867398701,13316,5.51,2.54,2.44,0.17,0.0,233122696,207788000,24974000,247898854,12
316575601,536134,196471716,537130,194308567,529650,213203,1959166,349179761,10918,317782854,12038,3446,955469922,519,2.46,1.26,1.23,0.05,0.0,93941970,92649000,996000,108481981,12
90758850,2430015,64760263,131510,64102547,90266,327095,1859977,148082905,11716,99104799,18814,7713,326337662,3747,1.01,0.5,0.49,0.03,0.0,39801825,34542000,4934000,54455397,12
101502786,877683,81585472,2171787,81618996,2053367,265088,2208083,216518748,14207,115170920,13523,5406,412946488,2296,1.45,0.69,0.68,0.03,0.0,59236094,54981000,3927000,73826250,12
325986442,1169119,215879224,633870,214355654,624417,352554,2979118,371763693,16565,330412414,22039,5327,971624697,1937,2.61,1.32,1.29,0.06,0.0,100890468,92611000,7966000,115514402,12
91400864,2593761,80059329,194213,78561946,165796,468853,3022421,166382502,15182,102676036,20512,6861,332475562,3749,1.14,0.57,0.55,0.03,0.0,44687957,36478000,7887000,59044851,12
321723486,1224419,198708450,577008,197768541,566435,270569,2747846,365275392,16600,327162653,20199,4771,961676007,1899,2.6,1.33,1.28,0.06,0.0,98982456,95633000,2988000,113648099,12
95965265,2423681,80372801,201225,79645263,187333,557534,3151955,168827145,13952,108661562,23239,10677,343623881,3751,1.15,0.56,0.54,0.03,0.0,46024626,41643000,4062000,60478436,12
328087210,869195,211055932,626228,208181069,638187,313660,2836401,377977789,14837,325613687,16304,3983,974221858,909,2.68,1.35,1.31,0.06,0.0,102937063,99624000,2988000,117744079,12
318165304,1102894,197643899,700507,194702276,677975,295753,1893640,356480003,12350,322421903,9023,3379,959078817,910,2.52,1.29,1.25,0.06,0.0,96401520,93094000,3003000,111122828,12
94243971,2729196,80888686,211660,78522468,173323,472579,2693220,161306370,13403,106113215,21078,6734,337405484,3748,1.1,0.53,0.52,0.03,0.0,43855303,36512000,7099000,58471728,12
315544571,677688,201633063,758069,200517556,758321,217482,2450772,374263946,13835,325017842,21782,4188,935566980,1033,2.63,1.34,1.31,0.06,0.0,101324672,100059000,1000000,115872270,12
163814828,16257947,144456112,766569,140234867,761746,1408021,4852039,429005879,28640,161845094,30215,9692,605127944,4829,2.8,1.32,1.28,0.08,0.0,115848919,107533000,8039000,130329093,12
28139950,153515,14182257,53252,13918040,70004,159527,1071994,47863911,6455,39432102,3701,2984,102875147,522,0.68,0.17,0.15,0.02,0.0,37117781,13434000,4133000,370707821,13
78628577,123004,44932664,64168,44663229,56857,97333,655791,86713534,3066,79789913,3134,1218,230632053,126,0.61,0.32,0.31,0.01,0.0,23534900,23142000,0,37867961,13
84040549,495659,51865877,92929,51436324,89446,158905,891694,96577307,6903,88774578,2397,1193,259441202,517,0.66,0.34,0.33,0.01,0.0,26098631,24780000,1032000,40672944,13
36534629,136762,24401906,53915,24463728,55710,102024,672744,51120719,1572,40288459,319,409,130876940,134,0.35,0.17,0.17,0.01,0.0,13703388,12329000,1027000,28041488,13
78424533,116914,44170662,64312,44104213,55383,88857,652687,85879910,3345,80090266,1524,1176,229388371,128,0.61,0.31,0.3,0.01,0.0,23394212,22184000,964000,37681559,13
76601622,146853,44189800,62383,45043435,54458,87261,645276,87458217,3331,80348494,2081,1193,230804085,127,0.6,0.31,0.31,0.01,0.0,23161514,20902000,1990000,37527071,13
26677018,155314,15275881,58834,15365601,51702,91224,470694,39442551,1281,31324708,607,894,97549713,135,0.25,0.13,0.13,0.01,0.0,10191549,8926000,991000,24603129,13
34500107,327859,25397882,88732,25520848,89063,129322,864176,48618936,3444,35885262,3869,1671,128026776,587,0.32,0.16,0.16,0.01,0.0,12989234,10773000,1958000,27498922,13
76883876,154632,45059284,64077,45002320,55356,85458,665562,88358645,2478,79279779,2927,1257,228841869,127,0.61,0.32,0.31,0.01,0.0,23870709,21676000,1970000,38165328,13
75437619,154478,44570688,62473,45515781,52680,83208,644685,87287781,3176,79332297,3551,1681,227991793,126,0.61,0.31,0.3,0.01,0.0,23582712,23305000,0,38094938,13
81388657,525322,51370320,92217,51386902,80648,158653,875664,96742751,5927,89110102,2225,1148,259922152,517,0.68,0.35,0.33,0.02,0.0,26263046,23914000,1992000,40747347,13
31496497,500324,19984099,62781,20010707,62507,152157,922224,50086397,2620,40660038,495,390,126010164,524,0.34,0.17,0.16,0.01,0.0,13499197,11226000,2041000,27943020,13
79761367,100684,44218634,65084,43915986,57417,92950,663915,85495358,3559,80229790,1837,1154,231196012,128,0.62,0.32,0.31,0.01,0.0,23388920,23009000,0,37902400,13
29970466,145447,16023302,59408,16109442,56903,130094,577646,40357047,3108,32358116,731,764,98692305,328,0.27,0.14,0.13,0.01,0.0,10867301,10648000,0,25123925,13
77202804,149555,44762049,63772,44727951,56383,91475,658448,87935065,2798,79061382,2312,1260,227326298,128,0.61,0.31,0.3,0.01,0.0,23681170,22420000,974000,38271263,13
29775288,173533,15158448,59596,15232466,59513,153602,637827,42563876,5203,34535229,805,780,105617023,521,0.27,0.13,0.14,0.01,0.0,11223299,9935000,993000,25588809,13
80843436,307180,48784291,74356,48754614,69700,133384,804009,97153083,3737,87498018,3510,1371,261664965,325,0.67,0.34,0.34,0.01,0.0,25913262,23646000,1970000,40097889,13
77949805,129349,44503405,62778,44444486,57321,94149,655382,87451964,2977,79977550,1950,1172,230169347,127,0.61,0.31,0.3,0.01,0.0,23682519,22344000,1015000,37944797,13
82859182,503288,51721820,94984,51523659,86450,165483,915988,98321441,7424,89446382,2162,1456,261578991,518,0.68,0.35,0.34,0.02,0.0,26030134,25704000,0,40429534,13
28156719,130069,15277012,58856,15198762,52921,85034,463140,38345372,1516,30908786,689,1030,97847770,133,0.25,0.12,0.12,0.01,0.0,10113482,9872000,0,24387638,13
82875318,1505379,97618083,2955783,90299674,2831849,513541,3831666,224202527,20346,79897870,17894,12205,500591685,3658,2.06,0.67,0.63,0.07,0.0,110720938,72569000,17134000,431795083,14
127300541,2622662,176873072,18556998,175421511,18472983,535217,5625398,669918355,27297,123794098,23127,17056,855145865,4203,4.33,2.1,2.03,0.1,0.0,180740538,175390000,5011000,195149862,14
132991811,11749740,213160451,18486778,215214030,18378785,2355603,9984909,759427741,47652,131499447,36540,34048,921971063,8301,4.91,2.34,2.26,0.13,0.0,204997527,188635000,16054000,219771525,14
89607148,258988,125496487,13144162,125425735,13133444,154962,2405207,588397087,16253,89648809,1715,4799,531558528,135,3.72,1.73,1.67,0.09,0.0,159715512,158333000,995000,174436681,14
32213381,114920,13982003,126372,13937403,126601,89588,635387,59413730,3408,33203612,213,445,100098181,135,0.42,0.2,0.18,0.01,0.0,16237537,14951000,996000,30676855,14
88511710,261158,132875120,13192591,132842844,13223726,119246,2449932,592637011,16452,87483439,3026,5691,568582198,130,3.75,1.74,1.67,0.09,0.0,160847090,159602000,997000,175222699,14
95974673,1951301,155432502,16795738,152386005,16968915,587680,4372161,617533587,21677,91776355,23469,16852,685999043,3620,3.98,1.86,1.8,0.1,0.0,166277726,156878000,8993000,181082648,14
96566619,16635520,182443478,17156689,181132519,16992775,1578741,14969583,707936281,35829,93373431,28939,19014,840697859,6284,4.58,2.17,2.09,0.12,0.0,191850745,182566000,8978000,206663628,14
143258394,8853079,166049751,5675754,161327581,5381227,4676289,18538857,1551332905,111574,134727083,17663,14456,818271587,4235,10.09,4.76,4.59,0.29,0.0,419886576,412585000,7009000,434440910,14
86354792,287976,124700311,12815724,125105008,12870759,124508,2508705,615477657,16048,86305449,2349,4769,490721961,137,3.89,1.79,1.72,0.09,0.0,167670655,167308000,0,182027053,14
154909326,17147899,261906610,18178630,258188684,18626329,2250651,9950349,841449732,45934,146124429,53238,39532,1076350121,8303,5.51,2.61,2.51,0.15,0.0,227819292,212570000,15040000,242440907,14
116805313,17251494,228320699,16401431,228400730,16612035,1726382,18995683,719861382,35625,113020499,45492,33863,889826952,8301,4.65,2.21,2.14,0.12,0.0,194921144,178469000,16042000,209448254,14
118497292,12828947,188622061,16451267,183917952,16345075,1827769,13420782,677972108,47630,117446171,32125,31008,928456113,8297,4.43,2.08,2.0,0.12,0.0,184081134,167818000,15982000,198804555,14
86318742,277668,125354169,12878723,125353996,12870499,120735,2536818,614246783,15882,86547380,2055,4342,491957207,135,3.86,1.8,1.73,0.09,0.0,167385763,167009000,0,181793711,14
88610334,3290953,169545383,4162211,169402609,4287655,624284,3668835,331852131,19210,90701303,19562,8841,672406774,2182,2.34,1.03,0.99,0.06,0.0,89784476,84459000,4968000,104211731,14
86614820,3753123,163885806,3899829,164637978,3749644,1323274,4941764,331722791,25746,81996250,24603,15550,620685832,4231,2.22,1.06,1.02,0.07,0.0,89542938,80218000,9024000,104014630,14
129047454,13563679,239287575,17909997,244809914,17485436,2229375,10469345,754159260,65171,134563600,35334,30038,988838229,8301,4.9,2.31,2.23,0.13,0.0,204061835,192618000,11035000,218383693,14
128385137,13356645,240286977,17906648,244753448,17459539,2217579,12278176,758434867,67485,133987409,38023,29431,992203307,8301,4.92,2.32,2.25,0.13,0.0,204518490,190091000,14006000,218893023,14
64720732,1550617,25810318,142048,24836105,141066,1812468,2551104,164760065,25771,67245308,16853,24166,197263584,8518,1.11,0.53,0.5,0.03,0.0,44148435,27855000,15917000,58498543,14
87864648,2983053,101690896,2842721,97473394,2965997,1169633,5439691,261606496,25167,87294532,33410,21974,495611756,7146,1.73,0.82,0.8,0.05,0.0,71279472,61937000,8990000,86157087,14
116009088,718361,85596829,1751399,85270601,1718323,383135,3526183,191358980,20297,102799458,7557,7183,369034399,523,2.57,0.63,0.57,0.09,0.0,152865210,84448000,8941000,489710328,15
114149934,5042870,120285401,2651268,121228297,2660371,2984108,12114028,496270499,421900,117233399,21658,15204,523034513,3258,3.21,1.51,1.45,0.11,0.0,133618392,124346000,8952000,148185507,15
107708330,564862,76947485,1748511,77896021,1597481,213249,1511899,195609566,6097,114202236,3178,2483,357225299,525,1.3,0.64,0.62,0.03,0.0,52991074,49600000,2976000,67534415,15
114355264,1143804,80973481,1627377,81284621,1639425,368237,2592229,198251652,8076,119372730,7248,5689,380568144,1943,1.33,0.64,0.61,0.03,0.0,55295994,53847000,1015000,69944983,15
113485531,718337,75019644,1649533,73393423,1822883,234047,1612929,192923804,6627,120528995,5696,5625,367082552,1041,1.29,0.64,0.62,0.03,0.0,51935812,47668000,3972000,66511285,15
17115612,643970,15713461,2026610,14947919,1947785,166916,1181716,78143086,7415,19352070,1392,1086,136815852,519,0.49,0.23,0.22,0.01,0.0,21025175,17822000,2970000,35413289,15
129741717,922875,83045752,1659030,81636822,1541983,335641,2000992,198544741,7475,132156292,1788,2424,403220217,914,1.36,0.67,0.65,0.03,0.0,53888955,51567000,1983000,68342145,15
109566427,1194602,78012831,1701072,77986120,1699407,340789,2167384,198831834,8281,120812313,7497,10464,368651007,1944,1.32,0.67,0.65,0.03,0.0,53323698,48936000,3994000,68112634,15
420341595,643192,262967097,1989949,264524275,1947108,217746,2533485,495116016,16120,423278687,12113,5643,1224416253,518,3.43,1.78,1.73,0.08,0.0,134243868,131992000,1999000,148610244,15
122930435,1697248,87105848,1749381,83443153,1608335,563900,3497709,210827576,19133,125444200,4955,2000,434488374,1696,1.45,0.72,0.69,0.04,0.0,57177774,52897000,3992000,71535813,15
429830950,623115,273051132,1896985,274948978,1820696,292886,2678915,506863623,14738,432256697,11785,4945,1272713641,519,3.52,1.82,1.77,0.08,0.0,135936766,131633000,3988000,150582208,15
101938175,568108,104586781,1768574,105032163,1603796,241044,1797188,205426480,8080,104611506,6934,3584,462570702,521,1.41,0.7,0.67,0.03,0.0,56267656,55938000,0,70836019,15
107708944,732842,78664047,1694336,78116330,1634625,233656,1724414,201021824,6975,116991295,6663,5490,357376534,1041,1.34,0.67,0.65,0.03,0.0,53991349,48724000,4971000,68807697,15
114955959,857930,80665523,1660421,79150268,1660986,493028,2332248,210932078,8999,121195175,5843,4231,387694356,2214,1.41,0.7,0.68,0.03,0.0,56773200,51408000,5040000,71326189,15
107996325,605577,77362017,1921319,78179255,1823008,219903,1465943,190005494,6948,114007516,2906,2392,358101683,525,1.28,0.63,0.61,0.03,0.0,51333643,48133000,2946000,65911958,15
434372384,1088357,269336495,2355011,270050768,2191736,284268,3267957,521816258,15081,447771820,16494,6835,1260838624,908,3.66,1.87,1.81,0.08,0.0,140794102,138487000,1992000,155459266,15
119166420,717069,83418450,1654309,83590316,1645653,250317,1834110,202835823,6761,128438872,4850,5079,404846601,1041,1.39,0.69,0.66,0.03,0.0,55225767,50856000,3988000,69683268,15
114355870,553798,81991406,1762203,81244210,1678031,239792,1785226,203262154,6851,122306075,2482,1857,405455236,525,1.35,0.66,0.64,0.03,0.0,55754604,53407000,1978000,70359954,15
419047233,619709,263138705,1989713,264330257,1928989,223798,2622709,493920949,15314,423143679,18267,4820,1224622585,517,3.47,1.76,1.71,0.08,0.0,133715757,131374000,2005000,148182760,15
112488552,956122,77951831,1916894,76998500,1847091,356010,2003698,191289247,10323,114612663,3405,3653,366256101,915,1.28,0.63,0.62,0.03,0.0,50821251,47556000,2972000,65360631,15
305031904,586826,206453344,1147328,206464905,1152605,477818,3151171,536734197,20417,307544743,10201,5787,1546176464,2086,3.76,1.67,1.61,0.1,0.0,168281492,144074000,7052000,497875767,16
305082688,449025,204527101,1151358,205366609,1150922,259786,2410165,549445195,19892,306598977,9894,6150,1437209322,2080,3.72,1.88,1.82,0.08,0.0,148441684,147132000,1000000,162951380,16
207138067,445578,304239392,1612816,305732405,1619270,269214,2283372,501292870,24229,208531262,33319,9303,1043021989,4046,3.36,1.68,1.62,0.08,0.0,135375713,126103000,9007000,149678263,16
414559122,20689692,357781441,556272,355841186,563983,25516674,38967873,1213533880,777628,415085121,521896,109777,2117342071,98767,8.39,4.07,3.9,0.35,0.0,327197402,130911000,195867000,341515951,16
308507880,319363,205537949,1137111,203938126,1123082,257057,2469279,558034776,17477,305751139,4695,4885,1345686174,1106,3.72,1.85,1.79,0.08,0.0,151063814,148728000,2009000,165866050,16
310107809,421238,209085607,1138404,207904940,1125240,571479,3167064,554221359,37348,305425454,7809,5106,1462163901,2078,3.58,1.72,1.66,0.09,0.0,149258746,143968000,4998000,163855931,16
212543858,335271,209169146,1108224,204545651,1080609,530452,2353122,370803606,15316,205773042,8563,5052,1489343198,2083,2.43,1.18,1.13,0.06,0.0,100182500,95796000,3991000,114808739,16
310430171,436634,206744167,1135467,204953063,1124532,473533,2803045,604830712,24854,304622298,10433,5697,1347222879,2086,3.89,1.84,1.76,0.09,0.0,163194750,158868000,3996000,177748756,16
307205442,355731,204301740,1131884,202601791,1133074,321682,2609708,563646607,19052,306678032,2084,4168,1343219451,1109,3.6,1.69,1.62,0.09,0.0,152060465,149754000,1996000,166511385,16
311931068,379934,208635515,1132999,205744647,1115018,504734,2799395,533306935,20343,305547100,8908,4692,1466545124,2084,3.39,1.61,1.55,0.08,0.0,144441483,141147000,3003000,159180866,16
310965930,431737,207532545,1139916,205958075,1121928,539057,2957735,548751485,35540,306513155,7413,4744,1460081599,2086,3.52,1.67,1.61,0.09,0.0,148410438,143110000,5003000,163076617,16
208542813,12962846,203478618,106815,199851257,108703,7402267,28017283,356146691,197942,206916303,9445,3602,1250490964,2083,2.55,1.19,1.15,0.13,0.0,95786657,91495000,3978000,110644918,16
309786544,794937,211737979,1128983,215127066,1135851,703431,2388874,398053510,21613,304679222,22474,11254,1451924261,5992,2.69,1.33,1.28,0.07,0.0,107541009,98229000,9021000,122326124,16
320615995,527827,513699358,1339355,505260202,1316643,706509,3309878,562924633,26167,315610005,12161,5051,1789023068,2519,3.74,1.76,1.7,0.09,0.0,155682164,148283000,7013000,170377153,16
310983214,462449,311491894,1155141,307213613,1136136,581622,3367388,572500704,38831,305916744,8178,9097,1669690304,2086,3.71,1.78,1.71,0.09,0.0,154379760,151010000,3020000,169093008,16
311348461,847828,212715499,1165016,212745831,1170242,493690,3049781,611698033,58105,307847176,23374,9372,1260396249,4039,3.9,1.84,1.77,0.1,0.0,165095203,156701000,7984000,179735861,16
324645744,405078,421797053,1344789,409375492,1299246,645786,2662791,381236759,23488,308333013,16580,5084,1478274063,2518,2.59,1.29,1.25,0.06,0.0,102918005,95608000,6971000,117272212,16
307304949,352951,505165548,1139853,499697786,1141065,298016,2874071,634834058,22002,305192208,2847,4925,2365782250,1109,4.09,1.93,1.87,0.1,0.0,172277479,170981000,999000,186987347,16
213940757,344734,210990802,1105956,206801011,1078760,535766,2087343,294537074,31040,205143819,11655,7388,1061363380,2082,1.97,0.95,0.92,0.05,0.0,79131429,74790000,4042000,93889729,16
1018135781,588294,607376541,1406410,602395296,1404807,385353,4269799,1014261239,39925,1011016805,19461,11820,3579356460,2802,7.21,3.71,3.59,0.15,0.0,273258484,268958000,3999000,287761124,16
308091673,668716,207891909,1314166,208430003,1325098,346718,6299946,1538733540,56612,308053649,37125,17951,1842295730,4037,9.6,4.01,3.83,0.26,0.0,464784383,437343000,6018000,789273281,17
1116395364,878631,811218852,1523539,808334519,1515357,698769,6848258,1749523657,53377,1107704191,19610,17272,6363604185,2808,12.02,6.16,5.97,0.27,0.0,472641099,467318000,5003000,487200560,17
305438303,519018,207137262,1272978,207627346,1277996,413011,5354686,1419491382,46722,306772130,4644,9283,1842052834,1109,8.29,3.73,3.58,0.21,0.0,381757173,377474000,3994000,396389388,17
305899124,595137,206301278,1281911,206563541,1289542,299613,5539398,1419709164,42452,306429416,19678,16963,2034977432,2082,8.42,3.87,3.72,0.21,0.0,382647531,376217000,5987000,397391896,17
408155525,513970,205882637,1270804,205611431,1274004,358059,5513724,1417654143,40573,407278980,5742,10509,1837071938,1108,8.47,3.79,3.64,0.21,0.0,383363059,381057000,2000000,397958893,17
207042610,585229,207418915,1250513,206758572,1244355,615947,5085925,1240417340,39632,206718591,11523,9739,1743909008,2089,7.71,3.6,3.47,0.19,0.0,336904143,334602000,2003000,351410072,17
309715300,852064,209324171,1303532,209358221,1298598,691804,6123515,1543810100,53842,308002713,27759,17070,2046784485,4040,9.35,4.24,4.08,0.24,0.0,417945143,411624000,6009000,432596073,17
306952352,626825,206970477,1292155,206670895,1289473,573621,6034763,1573943824,46642,306615715,13440,13822,1840067094,2083,9.52,4.38,4.21,0.24,0.0,425041856,421658000,3004000,439609963,17
206447743,678278,208556831,1257704,208705697,1252338,545502,5534044,1308879807,55272,208662463,16630,10944,2961456980,2086,7.88,3.56,3.42,0.2,0.0,353887172,350461000,3003000,368685669,17
307260225,675020,207108274,1292088,206558696,1279685,528909,5749652,1536732408,46924,306821091,13118,14304,1943793336,2087,9.03,3.99,3.82,0.23,0.0,415473353,411151000,4001000,430233164,17
1014591817,640604,607975850,1472998,605977763,1470779,537647,5961195,1485535372,44165,1009802034,17035,10335,4169917701,1688,10.12,5.06,4.89,0.22,0.0,400306243,394990000,4999000,415012737,17
312555171,446555,209618715,1153018,207163258,1133806,532743,3164603,586574040,39386,305537838,8910,5475,1758539470,2079,3.82,1.84,1.77,0.09,0.0,158554401,153180000,4973000,173078229,17
306744044,468362,205904168,1157890,205879918,1158607,277497,2836184,664285391,28741,308460877,33699,19061,1339206927,4033,4.16,1.95,1.88,0.1,0.0,178860029,175561000,3009000,193414772,17
306876140,343581,205877467,1148177,204374755,1144768,265432,2820490,662872261,19908,305480385,3712,5414,2050534122,1106,4.47,2.22,2.16,0.1,0.0,179398625,176006000,3000000,194241057,17
1417967016,952527,711382073,1556533,709669921,1543336,672782,7732724,2002621230,61379,1407066112,30068,17538,6871377812,3013,13.38,6.56,6.35,0.3,0.0,540881800,532489000,7992000,555549288,17
306421089,590672,206543065,1277918,206587123,1286617,348018,5349837,1413708129,41686,306083901,19333,14304,2038797313,2080,8.49,3.82,3.67,0.21,0.0,381680160,375201000,5987000,396299038,17
207814156,625598,208799951,1260236,208778549,1250005,641063,5321198,1290476755,54363,208536255,8581,10983,2756183457,2081,7.87,3.54,3.41,0.2,0.0,348284671,343058000,5000000,362900855,17
307958190,1018737,209259375,1536343,209135002,1545675,410387,10264579,2977923023,75990,308453384,12095,23031,3845873307,1109,17.9,8.11,7.8,0.44,0.0,803520713,800201000,3000000,817960693,17
308423843,743253,207852616,1310953,207916452,1313584,436879,5891264,1546991545,51252,308461891,34880,31445,1845717400,4039,9.09,3.99,3.83,0.23,0.0,417992240,411836000,5997000,432336489,17
306013493,546811,207379544,1283024,207497434,1273550,306951,5230614,1437163029,44785,306283608,6245,10455,2646395459,1103,8.66,3.93,3.77,0.22,0.0,388470864,386252000,2001000,403041094,17
208263595,13162952,206168102,170179,203291350,187418,8916948,30613296,557618250,210250,204456381,12031,11882,1845809643,2082,4.44,1.8,1.72,0.2,0.0,198266007,163380000,16037000,521882369,18
209078103,12967179,203946251,149468,200668547,146313,7719499,29115243,557316873,221588,210654236,6846,6261,1873407730,2085,3.89,1.86,1.79,0.17,0.0,149842790,144506000,4982000,164351809,18
203382035,6486055,198728337,133440,200757485,134855,344388,16514445,479846079,18188,205962406,1665,3331,1834476063,1105,3.17,1.59,1.53,0.07,0.0,128342278,125021000,3000000,142937261,18
517034070,21180658,562195577,726726,558701782,726934,28105710,45459015,2296339936,807855,512926296,379534,317299,5339960515,98762,16.06,7.68,7.41,0.58,0.0,619124203,428864000,189939000,633711555,18
209837651,13012872,102602849,141328,101892843,146934,8107047,28597575,527194960,210638,210621201,10375,7379,1466517442,2087,3.69,1.72,1.66,0.17,0.0,142013722,138651000,3014000,156456714,18
209292498,12998930,103524634,140159,103268474,144935,7562826,28380972,518655142,220685,212216315,8734,8035,1679067757,2085,3.64,1.73,1.66,0.16,0.0,139709034,134375000,5014000,154220222,18
581860601,28172953,307753724,541704,305243226,540431,28300703,54651089,1474548526,316705,569171182,415455,314011,2689195277,99784,10.12,4.76,4.58,0.42,0.0,398034661,241399000,156258000,412516079,18
204001507,6497304,203554909,124238,202294866,123526,272513,15378237,438172508,24407,203729358,7093,4032,1721816297,1102,2.94,1.44,1.39,0.07,0.0,118960331,116639000,2011000,133381970,18
208176655,13078023,204617633,150343,203177846,151080,8304419,28989191,590333385,205615,207020012,6579,8454,1958429717,2081,4.13,1.93,1.85,0.18,0.0,159847755,154586000,4986000,174328473,18
208366960,13078635,28658006,101836,28678437,106528,7131264,26339759,327617810,203855,204120468,45437,16218,845679941,4039,2.36,1.09,1.04,0.13,0.0,89178391,82766000,6056000,103665654,18
205752340,6585570,204477559,150197,204690171,149944,680925,15970170,553110842,26991,203284429,4086,4111,1735030765,1107,3.76,1.83,1.78,0.09,0.0,153246029,149696000,2993000,167841707,18
208294725,13032251,203565398,139072,198733488,143897,8199652,28841762,542180867,196895,209832576,13913,6607,1768656727,2084,3.77,1.75,1.69,0.17,0.0,146085549,141770000,3993000,160678755,18
579583734,29067155,307652880,541971,306701738,541497,27868983,55007301,1474039331,314623,563699676,481803,313829,2669276139,99782,10.08,4.72,4.54,0.42,0.0,399607094,245150000,154094000,414303832,18
210250433,13156000,204839582,137410,200870695,146979,7586145,28719121,533810340,210005,210560481,24605,8174,1781483103,2085,3.72,1.72,1.65,0.16,0.0,144372753,140076000,4002000,158808642,18
61679262,6793583,29648518,74752,27556493,76179,259929,12334543,151489938,16722,62625955,15438,5281,386394617,2087,1.11,0.53,0.51,0.02,0.0,40519079,39238000,1006000,54858272,18
205371334,6582955,102935329,148023,101757400,144235,628595,16286682,556591290,27099,207544950,17863,8162,1440593415,2078,3.78,1.88,1.82,0.09,0.0,149842751,146543000,2990000,164531897,18
307026257,12957872,300719656,166245,296305167,168879,8403173,30201611,674370536,216654,307117041,12975,8181,2356240793,2087,4.67,2.18,2.09,0.19,0.0,181994435,178664000,3011000,196759689,18
559050743,50621769,309381877,330185,310456798,330718,46423002,92924240,1570272988,630801,555970357,68523,36428,3623549511,7939,11.23,5.12,4.87,0.66,0.0,419768818,406409000,13013000,434374956,18
208071607,13014528,103811681,158783,104098049,157671,7695007,29443429,609315751,229822,208888044,8322,7992,1660344484,2086,4.36,2.08,1.99,0.18,0.0,164309672,157982000,5999000,178788036,18
209924643,13044582,206088384,160666,204008532,157273,8005617,28296289,569340888,214028,209449887,36195,15804,1872380368,4033,3.94,1.85,1.79,0.17,0.0,153337080,145965000,6950000,167976392,18
647603625,19927243,342418314,2307201,343325555,2307862,5367577,26361920,1039903264,637119,647990030,76594,80565,2773149193,24688,7.56,3.41,3.28,0.24,0.0,326227188,244980000,59237000,655648460,19
172637767,6922387,91459714,1071650,89982823,1091837,4070655,11761058,472756312,107067,167520723,133021,139848,676427414,45677,3.13,1.52,1.46,0.1,0.0,126887988,65312000,61292000,141214552,19
129850872,4595520,54495624,165210,54407102,159368,3600430,6199597,360769965,135042,130907244,59372,59752,550853269,20539,2.39,1.13,1.08,0.08,0.0,97172832,53926000,42941000,111830666,19
143054056,6643899,114483636,1059676,118627224,1064072,4258892,6614675,384455028,143814,145770928,106378,64467,592887069,20540,2.6,1.2,1.16,0.1,0.0,106243693,65584000,40359000,120785059,19
190688622,12017526,123950375,1521980,124171784,1541087,9875998,14104409,571036553,268132,193378391,126082,124821,749581662,40942,3.95,1.88,1.81,0.16,0.0,153287102,67989000,84986000,167795093,19
253103120,6661583,104172712,158177,104174286,156765,3832464,6887456,364730783,49798,272313209,55936,76526,814078298,20590,2.52,1.21,1.17,0.09,0.0,98539515,63158000,35087000,113276029,19
189448987,12549400,144463704,1085418,143439555,1114327,7820127,13093014,626800892,144917,180180660,99709,147107,875901689,40988,4.2,1.98,1.9,0.15,0.0,168873519,97740000,70811000,183197589,19
171330241,6504555,64058768,940406,63608170,991971,3934371,6868161,353465161,55109,179825934,106762,68543,519151984,20590,2.42,1.14,1.09,0.09,0.0,95800318,66321000,29141000,110335313,19
137024103,3626389,106269076,931324,106616016,950457,2003094,6301282,310866578,61699,138513076,102488,72379,578684243,23381,2.1,1.0,0.96,0.06,0.0,84158635,49891000,33926000,98902633,19
128855007,4709080,75517087,956923,74655842,947853,3786650,6258173,350154533,142023,126828130,106482,62635,542166785,20536,2.36,1.08,1.04,0.08,0.0,97103331,54884000,41911000,111608825,19
171834043,11842532,104452035,1025246,104035858,1078144,9950866,13973149,573668658,305871,174655535,136725,125932,690031723,40939,3.88,1.81,1.74,0.16,0.0,154146543,72906000,80896000,168579898,19
208919782,11656643,149103957,274119,147398145,279158,11290804,17592522,680386908,329976,216552163,156976,127182,1052496367,40943,4.7,2.21,2.13,0.19,0.0,183412159,98083000,85072000,197884802,19
172807992,9309115,82196004,242216,84493624,244404,7145713,11000300,545524428,272699,171411657,127063,127572,723738279,40942,3.65,1.69,1.62,0.14,0.0,147184597,65419000,81522000,161733983,19
731541812,46223017,408984532,2507993,408230444,2539495,11885575,60934558,1423582958,4201703,729702797,181477,221434,3317180166,55928,9.96,4.8,4.64,0.33,0.0,383229728,290943000,91982000,397822214,19
126391497,6027214,57839960,873836,60450849,829302,4535271,7164369,340499535,149405,117957742,101000,61298,447625613,20539,2.33,1.08,1.04,0.09,0.0,91329759,50045000,41037000,105807741,19
887522833,93774476,473417976,3510884,472643767,3466123,4808536,172373930,1481343450,9337256,873679375,158620,90595,3094381801,24741,10.66,5.27,5.1,0.28,0.0,400199877,352833000,46977000,415152391,19
649770860,91812766,428485077,1143452,425149729,1139752,5297719,165798119,1323872884,5683237,641681031,113931,87192,3215200940,24689,9.39,4.6,4.46,0.26,0.0,356066349,316760000,38970000,370844092,19
935281474,25620054,521785291,8618131,521624659,8568563,5598678,33583145,1568845551,996649,923565478,69665,103144,3241984329,24693,10.92,5.3,5.13,0.3,0.0,423898091,384636000,38963000,438814297,19
160507006,3753997,108073630,159856,108164609,155686,2139703,6861331,413856658,44246,161193917,105040,72572,859750997,23364,2.83,1.37,1.32,0.08,0.0,111917737,73747000,37870000,126714595,19
623579313,16054098,366482891,2305232,366610995,2317833,9142661,24232640,1212656233,175169,626718016,302675,158604,2425091919,49122,8.47,4.07,3.93,0.28,0.0,327249964,234601000,92236000,341877928,19
39515996,393881,36947924,102733,38949238,119597,153741,1582982,55413247,9638,31573082,6598,2798,114251579,523,0.91,0.15,0.13,0.03,0.0,58440508,35206000,4023000,389407163,20
1288906,84184,998062,28896,997440,28834,55353,309146,6209806,3757,?,?,?,?,134,0.05,0.02,0.02,0.0,0.0,1793437,1459000,0,16197188,20
604048,75805,996463,28558,995841,28496,57015,308041,5953884,1635,?,?,?,?,135,0.05,0.02,0.02,0.0,0.0,1724577,1480000,0,16029810,20
760318,82806,1011422,29245,1010800,29183,56023,319351,6454992,2623,?,?,?,?,133,0.05,0.02,0.02,0.0,0.0,1732454,1517000,0,16199523,20
93161382,495402,66263341,112957,66302908,110142,151900,1156177,111133076,5414,102201550,6426,849,285470109,520,0.78,0.4,0.38,0.02,0.0,30322324,28043000,2003000,44864965,20
39347115,411061,22573825,62213,20536800,62752,233121,1200246,52982420,6756,38706655,867,709,135297049,917,0.36,0.15,0.15,0.01,0.0,15748615,13432000,2066000,30294130,20
96628167,496379,69825873,115381,67426291,117956,161640,1314465,113868320,6911,95269772,8296,2126,290197170,1034,0.79,0.4,0.39,0.02,0.0,30965287,27695000,2967000,45557968,20
87473217,246786,50956885,77564,51196599,81886,153388,1146890,102119604,9212,88595368,5242,879,264991327,519,0.67,0.28,0.27,0.02,0.0,31725851,28532000,2951000,46412898,20
74746153,3838283,51262966,423698,48507045,429335,444348,2062560,201605604,13145,76934779,11463,5174,257996076,2478,1.26,0.57,0.55,0.03,0.0,54348747,49959000,3996000,68954013,20
45539933,485610,39260349,96080,40526181,104490,157773,1136481,68086883,6788,44392972,9782,2307,152696868,1040,0.48,0.24,0.22,0.01,0.0,17808969,16497000,1031000,32199779,20
32976078,178636,16533096,60386,16535760,58809,154433,630827,43085358,5205,37392404,725,863,109330899,524,0.3,0.15,0.14,0.01,0.0,11301651,9017000,2003000,25570673,20
738945,71103,974571,28604,973949,28542,53093,308538,7358062,3589,?,?,?,?,129,0.05,0.02,0.02,0.0,0.0,1727217,756000,756000,15940014,20
37563245,324514,26037263,74434,26454856,76036,147993,885989,55735710,5408,42412926,4111,1280,133648397,784,0.37,0.18,0.18,0.01,0.0,15206140,13918000,994000,29519707,20
100461972,757985,68236561,97048,68487614,117754,253434,2108204,121998207,8589,93370706,14460,3872,294016953,1939,0.84,0.41,0.4,0.02,0.0,33032512,31789000,993000,47334901,20
94228275,472701,67804267,227500,66484602,220240,153297,1191788,113888790,5202,99034891,5241,1395,287266672,518,0.78,0.38,0.38,0.02,0.0,30939444,27690000,2966000,45454790,20
43032652,509713,35269941,97560,35265021,96373,137709,815210,53589164,3141,39974267,4781,1415,143929656,521,0.35,0.17,0.17,0.01,0.0,14103971,10898000,2972000,28376455,20
30356900,316801,24467952,75441,24544902,76694,137064,817485,52385404,2294,39271347,2322,1127,123936800,525,0.37,0.18,0.16,0.01,0.0,14011352,12748000,980000,28494488,20
528187,87345,1015416,29020,1014794,28957,59083,310690,6528173,2322,?,?,?,?,129,0.05,0.02,0.02,0.0,0.0,1774405,1488000,0,16352257,20
29285939,193649,17028347,58742,17661701,61505,129942,628660,44029905,3083,33070601,3283,1830,102754374,588,0.28,0.14,0.14,0.01,0.0,11440913,10111000,1011000,25934785,20
83422760,355887,51968852,76099,50705450,75611,147226,1183973,103837585,6076,87713317,10557,1872,268649064,995,0.69,0.34,0.33,0.02,0.0,28120848,23825000,3970000,42543461,20
8043272,48269,7868807,43051,9872676,60945,92834,862619,18345311,6740,4192616,3826,1813,21224625,134,0.5,0.07,0.05,0.02,0.0,30830302,9089000,3029000,366060651,21
903358,168607,5447142,39146,8133488,33924,57058,349358,14761893,1828,9900761,1560,6656,4755062,130,0.09,0.04,0.05,0.0,0.0,4219447,3980000,0,18522221,21
53051837,3461844,53712802,196273,59008160,211884,822732,4062352,95486561,35313,51523849,10492,9231,170007995,3061,0.65,0.31,0.31,0.03,0.0,25891504,17713000,7872000,40437257,21
23992963,540900,13888738,63404,13197933,65393,262942,1135362,41259334,8599,23878277,11351,10140,69397311,3110,0.28,0.13,0.13,0.01,0.0,11419754,7111000,4063000,26033725,21
15794532,392956,9386864,63352,9822259,56762,770461,1424203,77304841,15969,15943366,33748,7924,52859062,4326,0.51,0.24,0.24,0.02,0.0,20913612,11727000,8795000,35690821,21
670188195,289815,991440846,656678,991062621,639281,112699,2680269,710890652,17671,671439025,3070,5547,3534387825,137,4.75,2.36,2.3,0.11,0.0,192581190,192349000,0,207087196,21
1870504,168475,7753180,32558,7581712,31917,55198,336957,13615330,1365,8518363,1813,?,?,136,0.1,0.04,0.04,0.0,0.0,3808624,1795000,1795000,18103510,21
200951342,46843898,136177623,935983,134907945,938046,1157351,7887849,759881411,32083,204075195,37907,11468,606418487,5989,4.68,2.08,2.0,0.12,0.0,207004084,196756000,9987000,221678023,21
114427765,2749208,56967720,138333,55153256,129334,820822,4129294,135658696,23512,101715500,18902,9771,297919605,3059,0.93,0.46,0.45,0.03,0.0,36300284,31867000,4111000,50712166,21
25999190,501939,15225467,61168,15821498,63095,322399,1206377,50963091,11128,15174456,23114,5886,65884235,4141,0.34,0.16,0.16,0.01,0.0,14407166,7043000,7043000,28873188,21
37758147,2312348,25229750,78925,24402245,82041,657573,2953887,66268254,16475,21383350,30499,6319,133602450,4142,0.46,0.22,0.21,0.02,0.0,17512248,7680000,9600000,31926875,21
268051207,52707685,235059667,1830970,235692270,1821897,1593045,15768693,1011040535,43691,271493462,59026,16342,904477798,7925,6.29,2.92,2.8,0.17,0.0,273144784,258899000,13994000,287378358,21
669145048,51006238,499582507,613583,499480330,630117,123202,2659101,644540257,16975,673222879,2565,5073,2695610736,148,4.38,2.17,2.1,0.1,0.0,174056758,172778000,998000,188626570,21
1293947,180052,5273710,39670,8043540,34170,59749,349638,16702637,1660,14710421,1167,2701,16412445,137,0.1,0.05,0.06,0.0,0.0,4380522,4176000,0,18830662,21
1154765,76659,1155750,30191,1155128,30129,59753,322702,7277360,6478,?,?,?,?,139,0.05,0.02,0.02,0.0,0.0,1765521,774000,774000,16074031,21
1738754,185311,6287475,39519,8757696,33021,55418,351014,19308551,1474,16466746,840,1991,39180963,122,0.15,0.07,0.06,0.0,0.0,4997546,2784000,1856000,19558589,21
335401354,353556,663036207,674378,663137243,667608,150215,3454105,877996782,22627,337274263,3006,5991,2010807060,139,5.78,2.81,2.72,0.13,0.0,237017847,236662000,0,251595935,21
334929339,252235,497391121,604528,497567853,623062,111222,2230314,537405629,14789,336953970,2500,4040,2356264995,142,3.55,1.72,1.66,0.08,0.0,145195275,143984000,999000,159681033,21
46713135,2001328,52893782,195998,51046781,175597,501081,3159949,100897179,12882,40353873,17227,13688,180948796,4143,0.68,0.33,0.32,0.02,0.0,26880425,23618000,2952000,41614537,21
335119858,264989,498470875,598995,499528212,607449,115513,2256972,545723399,14550,336485633,2401,4101,2184872475,131,3.55,1.71,1.65,0.08,0.0,147672401,146403000,1002000,162030036,21
33265355,69768,21321589,40908,19982240,56659,103260,925057,27533781,6224,19803522,3397,1931,96914234,134,0.49,0.12,0.12,0.02,0.0,27789082,13247000,3785000,346662087,22
29311379,217467,14148027,58481,14061789,59797,160115,628613,40937139,2426,33489986,813,874,102820829,524,0.27,0.13,0.13,0.01,0.0,10979268,8812000,1958000,25413279,22
37009363,130923,18938982,57174,18959357,57787,144107,686678,45249194,3009,38565535,2773,1122,112722594,522,0.32,0.16,0.15,0.01,0.0,12523658,10236000,2047000,26812603,22
77959986,223133,42709691,65678,42691343,62263,168692,856401,91978184,4623,81967952,2386,1774,236806768,519,0.63,0.32,0.31,0.01,0.0,24125933,21875000,1988000,38573961,22
76129306,195186,44084918,63969,44101840,55683,111232,707310,88516115,2907,78696643,5287,1784,229270327,322,0.61,0.31,0.3,0.01,0.0,23887225,20701000,2957000,38083559,22
77485645,417113,43118775,67423,42877103,64747,148111,828516,94289657,3378,83540577,5561,3352,234565268,908,0.66,0.33,0.32,0.02,0.0,25642215,24390000,1016000,40015864,22
76766723,145753,43461771,64278,43835646,55648,88218,648626,86863587,2668,78139298,3542,1640,224245813,125,0.59,0.31,0.31,0.01,0.0,23395766,22107000,1004000,37832635,22
28643377,215080,14868245,57645,14908727,57361,174199,682486,40991493,2852,32881057,447,875,100203078,525,0.26,0.11,0.11,0.01,0.0,11894219,9702000,1940000,26372889,22
75882090,151664,43549512,60540,43349934,53872,101589,683760,87050786,3018,79968392,2674,1649,229920132,126,0.61,0.29,0.28,0.01,0.0,23790088,21508000,1955000,38329016,22
33334509,559492,24674386,73352,24535554,75492,218599,1134018,56501217,3728,38817745,7630,5539,124341571,1306,0.4,0.19,0.18,0.01,0.0,15465490,11159000,4057000,30063448,22
29763526,203816,14860586,60192,14318154,58442,161256,631041,41274442,5011,33311695,877,857,104754293,524,0.28,0.13,0.13,0.01,0.0,10948294,9627000,1069000,25280206,22
30005150,199776,14493033,60024,14056265,58122,163626,633600,39982523,2718,32522039,716,1443,99920784,524,0.28,0.14,0.13,0.01,0.0,10719754,9406000,1045000,25103420,22
28123396,233611,13911237,60770,13915982,60390,153186,609035,41188702,2521,33210325,710,962,101813911,524,0.28,0.14,0.14,0.01,0.0,10857508,8649000,1922000,25422775,22
28256285,311850,16599657,57528,16584230,57897,179747,675855,45258201,2532,32708359,4596,4657,100784571,915,0.3,0.15,0.15,0.01,0.0,11835112,8649000,2883000,26416063,22
27395144,295684,16530933,60611,17343285,60785,165177,726450,46340310,4323,31500423,4888,3505,98375829,1041,0.32,0.16,0.15,0.01,0.0,12294756,10049000,2009000,26841629,22
31081584,184739,15261159,59889,14434866,58077,166850,634942,39713575,5275,32517459,831,782,102833253,522,0.27,0.14,0.13,0.01,0.0,10839830,9666000,966000,25243543,22
27360576,324166,14148819,59503,14121454,58732,173802,682006,45809419,4089,36132054,3633,2833,101299318,913,0.33,0.16,0.15,0.01,0.0,12002901,9755000,1951000,26622434,22
79427934,271497,46319509,66651,45042358,66781,164400,955005,94822214,5805,80874383,6857,3693,236686783,1033,0.66,0.33,0.32,0.02,0.0,25634391,20481000,4876000,40270731,22
78876484,372488,43014262,73204,43043012,74069,266991,1005876,95649390,7576,86275806,3555,3123,234806453,906,0.68,0.34,0.32,0.02,0.0,25617446,21313000,3875000,40109297,22
79070519,268274,46183726,68540,44986202,68732,162859,955023,95017713,5803,80662627,6301,3704,235730963,1034,0.66,0.33,0.32,0.02,0.0,25435699,21090000,4017000,39808150,22
87386423,1252744,57170726,278090,56981099,405370,465884,5455582,150719841,14178,93547221,9032,4728,289472489,2213,1.38,0.51,0.48,0.04,0.0,64086745,36411000,9102000,387235564,23
322417621,2908432,196885797,1326160,195254865,1278411,1796141,10251603,479263781,133903,318635249,23352,11676,973250375,2466,3.32,1.65,1.59,0.09,0.0,130277562,124953000,5038000,144487345,23
312404483,2914664,193950625,1249394,192675280,1232301,1166752,8039471,451124940,46370,315503715,22268,13043,947228244,1955,3.13,1.58,1.53,0.08,0.0,122142737,119756000,2012000,136765612,23
311912708,3347052,193515827,1273906,190891140,1262151,1235022,8886264,450583306,51673,316880262,24050,12081,943560593,2060,3.2,1.57,1.52,0.08,0.0,122226719,117969000,3998000,136665515,23
111449437,3741165,87190728,599605,87564436,607927,1653201,8857758,266149878,58322,104283279,46379,10243,386989730,7165,1.82,0.86,0.84,0.06,0.0,71296580,59008000,12001000,85492004,23
105957565,3232281,72241814,788749,72173631,671136,1178433,7730313,233006161,44212,110095885,17810,3904,373129231,2656,1.58,0.77,0.75,0.05,0.0,63349771,57065000,6006000,77794839,23
123723200,2810006,81833044,767553,77917362,739010,849394,7023962,238527067,38765,126057786,16855,11242,411743907,1894,1.63,0.79,0.77,0.05,0.0,65075153,60784000,3985000,79742686,23
106751981,3148440,71704718,721262,69611718,751398,1774348,8610992,240662032,103989,112507727,16040,5472,383400081,2474,1.67,0.8,0.77,0.06,0.0,64841762,61525000,3025000,79514307,23
245517208,27483212,188732074,12206847,190729942,12128621,18523926,64009976,1731619185,2750858,250959955,55914,20927,830711569,7992,11.28,5.14,4.95,0.44,0.0,467622149,449435000,18017000,481912038,23
320852417,3223233,197943354,1279503,197051899,1232778,1872315,9893916,472578610,132161,316723002,25685,5911,972466148,2466,3.28,1.62,1.58,0.09,0.0,127475161,122100000,5004000,142218399,23
78129264,1432922,51254717,442875,53472529,422509,154272,2796834,135862314,5445,82220558,2735,1584,253869746,356,0.94,0.46,0.45,0.02,0.0,36624586,33393000,2946000,51073156,23
311566103,2935702,193156002,1142816,192428618,1153126,1239454,8125743,454264632,46035,317770372,23511,13650,945965453,1955,3.16,1.57,1.52,0.08,0.0,122630714,115377000,6962000,137276935,23
306914092,3270408,191424902,1150101,192999177,1069677,1061199,8703034,440557992,49168,315676684,23597,6005,929798353,1997,3.08,1.55,1.51,0.08,0.0,119324514,111023000,8001000,133905139,23
106113959,3499071,71091986,733930,69831074,796592,2060109,9611014,245231594,117363,111244471,22472,6184,372168440,2731,1.69,0.81,0.78,0.06,0.0,65772694,58538000,6945000,80391509,23
77575380,936568,52290951,400191,53354760,378065,161396,1899819,125360259,5158,81591900,2212,1627,258024601,233,0.84,0.42,0.42,0.02,0.0,33473178,32200000,1006000,47840619,23
317253375,2936597,193638769,1169064,188174531,1164646,1426500,9810315,440655809,40653,320784942,28620,5203,959768675,2471,3.07,1.52,1.48,0.08,0.0,119736339,114377000,4972000,134264256,23
114654465,3408237,82142363,654081,76562814,716668,1992149,8990521,257064522,141110,106071865,20586,4287,394308671,3596,1.76,0.84,0.82,0.06,0.0,69007408,61626000,7071000,83458851,23
85598659,1743242,53596519,531986,55034823,462842,175111,3428389,157637664,4855,93095443,2271,1183,276155905,389,1.07,0.53,0.51,0.02,0.0,42744722,39383000,2953000,57345039,23
108419997,3157709,72554306,705820,71148491,746501,1835603,8266055,249920485,109435,113571007,16300,5664,383677289,2473,1.74,0.82,0.79,0.06,0.0,66937119,64481000,1984000,81535403,23
99129409,3254348,72125978,677028,75452684,593730,989294,7633114,214563974,38682,104657084,12703,3057,340935666,1886,1.48,0.72,0.69,0.04,0.0,57721803,55338000,2012000,72462865,23
200332913,32791924,138107050,2183790,138789012,2165295,1468537,32643326,504870591,61827,198124138,49915,14131,721181678,4781,4.13,1.7,1.63,0.12,0.0,187450102,149228000,17907000,512320134,24
331975833,2670679,210417089,1675371,210650681,1556717,1420615,9161360,477203178,34643,335371873,35594,14226,1017747493,2924,3.33,1.69,1.64,0.09,0.0,129642660,124321000,5012000,144518863,24
103499019,2501837,72966520,670433,75861657,504255,1070080,6945559,207775452,21418,107432366,11989,3669,363866241,1959,1.42,0.69,0.67,0.04,0.0,56402949,50082000,6009000,70742372,24
105056389,2447411,72893429,651442,75722610,538415,1140294,7273632,213438261,23008,109636443,7958,3279,373481261,1959,1.47,0.73,0.7,0.04,0.0,57268858,53993000,2999000,71958118,24
103748507,2528109,74177635,570340,77584115,440385,977959,6628618,205007382,22367,106297295,12964,3910,362338326,1951,1.43,0.7,0.67,0.04,0.0,55166461,50841000,3987000,69831748,24
102999679,2515587,75176443,527721,78565336,437095,894585,6645315,201785321,22246,105006453,10780,4583,359110126,2005,1.37,0.67,0.66,0.04,0.0,54383857,49125000,5012000,68725017,24
306771174,2686125,192107031,1109190,193824434,939510,1074853,7794231,417553892,34755,313418279,18663,5624,930393337,1955,2.91,1.47,1.44,0.07,0.0,112367752,108992000,2999000,126735436,24
116779467,2831033,80104620,861463,75741717,819728,2042498,9019215,237857476,78060,110912841,20266,8079,410382504,3269,1.63,0.79,0.77,0.05,0.0,64178926,60876000,2993000,78687643,24
320022922,2833312,200220845,1251877,197084049,1368146,1675910,9481147,450799319,85184,309303511,18559,13239,952647970,2744,3.16,1.58,1.53,0.09,0.0,122581856,116228000,6011000,137187362,24
304397737,2673419,190815064,1086691,194375478,904539,1006738,7467827,414383182,28127,311683854,23951,6491,924563159,1882,2.91,1.46,1.42,0.07,0.0,111771780,107545000,3983000,126152358,24
304015608,2575242,190448792,1303270,193855085,1137302,1106051,8277174,423587279,28758,317293373,22532,5802,929856703,1861,2.95,1.5,1.45,0.08,0.0,114907688,108621000,5979000,129682784,24
105031219,2460263,75458268,536774,77611028,438242,854754,6552263,201139672,22954,105306978,9825,3432,363529898,1856,1.38,0.68,0.66,0.04,0.0,53980184,49614000,4050000,68382614,24
110409425,2863235,75465455,822948,74814597,767721,1937039,8927318,230747716,74234,115586813,13262,10008,389109393,2486,1.6,0.77,0.75,0.05,0.0,62117406,53830000,7974000,76792594,24
320098019,2855243,198576993,1319957,196191054,1425533,1812176,9847802,452814779,88126,309345167,26336,9938,957950787,2872,3.17,1.61,1.56,0.09,0.0,121774955,117493000,3982000,136362946,24
309450919,2702742,191672413,1130005,192518379,967004,1165807,7920419,418957667,28120,316169615,25255,6139,936225206,2051,2.96,1.49,1.44,0.08,0.0,113031440,104608000,7970000,127492947,24
112348995,2817415,75682301,835081,74413307,788365,2104531,8983811,233544814,73049,116251091,18691,7876,393668129,2688,1.6,0.76,0.74,0.05,0.0,63108441,59800000,2990000,77572362,24
117265504,3324870,87209852,1464086,89052187,1308227,2521936,9851627,300016618,93792,119610587,51580,12611,429118393,8206,2.05,0.98,0.94,0.07,0.0,80662546,66480000,13891000,95260778,24
129024750,3272329,92723226,1510907,93717077,1434119,2187666,9435571,294241727,89729,134006837,16083,13236,453231329,3851,2.06,0.99,0.95,0.07,0.0,79101524,70825000,7980000,93809959,24
117842705,3125755,83139950,789011,80391937,814768,2122961,8616639,255714844,69101,113051357,13651,4208,417884500,3653,1.77,0.83,0.8,0.06,0.0,70392031,63840000,6080000,84907036,24
317133459,2409121,195335952,1625843,192817650,1720610,1028830,8913688,437976423,35661,322037683,22152,8950,964995398,1979,3.07,1.51,1.46,0.08,0.0,120139952,109849000,9986000,134836946,24
357821097,9628804,227739908,2879918,229698503,2875901,3588572,26279276,704007190,528862,348776206,31880,11687,1127594397,3231,5.43,2.3,2.21,0.17,0.0,245249940,212859000,10992000,570927288,25
120465366,2921379,87391945,575532,89731596,488331,804048,7823714,223592256,50286,109733212,11850,4284,406699733,1879,1.52,0.76,0.74,0.04,0.0,60167181,52882000,6984000,74723112,25
127380062,4224572,90554553,692008,87558578,604762,2293141,10295193,283243462,181715,116327599,28816,7024,426280997,4214,1.97,0.96,0.92,0.07,0.0,76206389,70821000,5058000,90827430,25
131447616,3209013,89986339,612844,83843067,687301,1690655,9971227,260777985,62536,127953244,17600,4244,461498381,3527,1.77,0.84,0.82,0.06,0.0,71051030,64729000,5975000,85623516,25
113547472,3534540,76312327,773793,81935456,738686,1188792,8769521,242020214,52863,129949044,20809,5037,407377462,2728,1.66,0.81,0.8,0.05,0.0,65509756,61174000,4011000,80231578,25
115385608,3500279,75087030,763820,79884397,739664,1248701,8396971,246124541,46513,132567795,15007,5533,416725533,2440,1.7,0.83,0.79,0.05,0.0,66390680,60093000,6009000,80940658,25
111721900,2768393,81308131,668393,87533191,579635,851651,7594646,234312801,35909,124068400,9925,2848,400607090,1787,1.62,0.8,0.77,0.05,0.0,63218189,58920000,3994000,77626871,25
129658835,3526394,86774012,835051,82210722,909614,1744693,10129835,256751095,69913,131395383,17257,4634,450385737,2860,1.79,0.87,0.84,0.06,0.0,69110994,61722000,7082000,83913542,25
121923503,3277600,77533504,778635,82971792,720865,1092077,7760242,247645577,42640,137453015,16493,4148,431175699,2169,1.7,0.83,0.8,0.05,0.0,66588501,58118000,8016000,81147290,25
122812812,3185873,81510562,711795,79258516,747272,1403633,8821347,253395051,56450,132344733,13749,5438,443751236,2840,1.72,0.84,0.82,0.05,0.0,68194074,61899000,5990000,82847327,25
127561959,3173906,84893642,728161,80103747,762938,1422789,8894856,256388332,55443,130018171,22314,4085,453782326,3326,1.74,0.86,0.84,0.05,0.0,68855790,60408000,8054000,83253191,25
263044025,29553897,194501493,17625778,195611078,17538393,14356291,69094488,1811563846,2237263,264374307,36288,26407,836275041,5468,11.63,5.32,5.13,0.41,0.0,489561757,476195000,13005000,503957604,25
108967255,4082378,77080197,766099,84300074,719031,1150865,8789032,243364536,47026,129022258,17083,4754,396897338,2483,1.65,0.81,0.79,0.05,0.0,65115904,57903000,6988000,79331036,25
332482062,3150912,202390698,1038149,200397965,1159746,1669271,11208746,468928155,62620,340292189,28916,5972,1016721989,2655,3.29,1.66,1.6,0.09,0.0,127217051,118940000,7996000,141828475,25
158343725,14709483,107643097,5629258,113265001,5561472,7826380,33317237,858809965,1083779,177332395,33596,11024,549181672,4853,5.61,2.57,2.48,0.21,0.0,232194017,215894000,15992000,246865083,25
114925681,3961003,75832617,827266,79407496,763312,1658810,8809857,248167414,74192,134365446,15094,5776,412818242,2519,1.72,0.83,0.8,0.06,0.0,66987737,62713000,3981000,81623551,25
104566776,3067420,90114045,645748,86801978,752867,1367326,8846007,246174586,47601,108238213,16365,5200,447839046,2606,1.71,0.84,0.81,0.05,0.0,66348092,62036000,4002000,80813314,25
127692391,3398201,85781762,600438,80279487,690088,2303160,10874295,264724099,153907,131687167,20625,6460,443712166,3034,1.8,0.86,0.83,0.06,0.0,71732140,63399000,7924000,86549851,25
327207097,4661085,205559503,1320567,207181056,1268896,2078262,10609546,507627321,158813,328086552,26846,8080,988189605,3224,3.54,1.77,1.71,0.1,0.0,136767511,125381000,10945000,151522061,25
109122789,4160583,78178199,763893,85118183,714493,1124749,8762255,239883161,43734,126667366,17871,4606,392452002,2484,1.64,0.81,0.79,0.05,0.0,64563084,55222000,9036000,79427150,25
304257066,2237112,193356323,928884,194509219,938021,770248,8410331,414416685,38310,303331067,29356,8850,906308634,2067,3.49,1.41,1.34,0.1,0.0,161414569,133014000,7941000,495645337,26
304781749,2272222,190909923,890960,192775223,890308,630498,6996151,398426491,28596,306393564,20149,5759,914534426,1863,2.82,1.44,1.4,0.07,0.0,107407478,100146000,7010000,121962763,26
305654101,2275785,190846305,891550,191964669,893510,624761,6848769,398280549,27976,306516875,19434,4944,916445167,1844,2.81,1.46,1.42,0.07,0.0,107676487,104413000,3011000,122268028,26
304749850,2278529,190901184,974725,191565603,982293,593073,6666991,400087402,26847,305797110,21074,5717,913682234,1899,2.84,1.47,1.42,0.07,0.0,107962357,103705000,3988000,122647468,26
101481308,2133168,71861686,493258,71969127,479483,688623,6081946,188273653,22531,101570900,10162,3198,350015285,1947,1.3,0.64,0.63,0.04,0.0,50670998,48389000,2016000,65321914,26
102756493,2173500,72330806,491399,71950974,480381,648543,6175579,188185284,31217,101778262,8399,3841,350433826,1853,1.32,0.65,0.63,0.04,0.0,50896075,45469000,5052000,65225825,26
108822442,2425777,73997438,518686,71777592,496364,1543122,7384228,212197530,54338,104332630,16658,4642,370305861,2901,1.44,0.66,0.64,0.05,0.0,61037908,53773000,6970000,75679923,26
102214328,2168315,71716080,495484,70939188,487088,741350,5962594,191134261,23653,101976088,12464,3726,350666324,1894,1.31,0.65,0.64,0.04,0.0,51514594,48093000,3005000,66168566,26
306330938,2269900,190923906,1006089,190768096,1017148,729707,6674214,405245099,29073,307920128,27228,5655,913428871,2043,2.86,1.45,1.41,0.07,0.0,110073760,104767000,5036000,124688311,26
318692192,3360707,197579209,1077801,197281224,1211451,1612633,11105822,464439280,73253,327817334,27991,6119,973447407,2831,3.25,1.64,1.59,0.09,0.0,125564231,118223000,7013000,140208729,26
313459655,2447753,191573026,1136991,189079003,1128873,1486411,8374894,427683560,60427,313962889,23148,8194,945920977,2447,3.04,1.53,1.48,0.08,0.0,116285439,111981000,3999000,130810177,26
101058156,2520849,70218809,498322,70919154,484473,1138977,6431317,205720566,63020,106408139,13553,4425,349404739,2473,1.44,0.71,0.69,0.05,0.0,55693783,50361000,5036000,70284069,26
129386616,5335592,94589359,1075217,94408947,1054703,6767538,13794544,539307833,892038,131623069,31955,9833,462225614,6218,3.57,1.64,1.59,0.15,0.0,145236524,136828000,7989000,159908172,26
311487831,3140644,193747810,1134366,193578172,1219502,1385260,9982634,450624142,62687,312422014,32270,6755,941524844,3146,3.17,1.6,1.55,0.08,0.0,121734837,114377000,6962000,136367725,26
101698081,2544841,70830368,513963,70980840,495623,1145072,6458891,204001645,59542,104878085,15601,4481,348373222,2305,1.41,0.69,0.67,0.04,0.0,54999262,49614000,5062000,69582281,26
100507373,2160279,70996596,490614,71956667,482904,812951,6231956,192182227,24310,102767109,11580,3976,347939871,1902,1.31,0.64,0.63,0.04,0.0,51344184,48046000,3002000,65870303,26
305512657,2290079,190272868,924170,191253385,938447,759811,6756698,406907720,28020,307844424,28062,5490,912260574,2039,2.88,1.45,1.42,0.07,0.0,109608394,106263000,2979000,124271373,26
92965089,2192763,85084804,483339,85933524,495636,672307,5945753,199653804,23689,94011019,15383,4102,407316873,2040,1.38,0.68,0.67,0.04,0.0,53798329,46462000,7070000,68482167,26
109465438,2555618,75790071,521793,72367855,506305,1607303,7417472,220956628,62297,103993277,24757,5231,370609024,3619,1.55,0.75,0.73,0.05,0.0,59670100,51466000,7917000,74320822,26
101131678,2527542,70325752,500612,71076361,488937,1141160,6387946,205405020,61304,106039567,12971,4576,350146281,2472,1.44,0.7,0.68,0.05,0.0,55505204,47255000,7875000,70101848,26
186658179,2055610,130610536,1059511,125980832,1144265,1299353,6880783,321775957,41837,177556780,18434,14275,639562028,2239,2.73,1.06,1.01,0.08,0.0,127855032,93217000,10132000,462754388,27
537742923,1412146,329172576,1083513,326522804,1206709,921188,7060325,640396076,33129,526759776,27813,9487,1595959069,1823,4.48,2.3,2.24,0.1,0.0,172843377,163473000,8971000,187298366,27
162018438,1689108,117365846,875138,117894170,833602,1071339,5427183,283895759,33275,155377300,11542,4705,535733030,2241,1.97,0.95,0.92,0.05,0.0,77362501,72956000,4053000,92066568,27
183495751,1964093,127731187,1034066,124913771,1138289,1192792,6121983,316774064,37463,180142832,12169,6271,628011351,2240,2.16,1.06,1.03,0.06,0.0,85993421,78616000,6965000,100397271,27
39398921,1600814,33380123,961224,34552451,786245,800504,4922776,153992994,15915,39085602,15090,4535,193168884,1867,1.06,0.51,0.49,0.03,0.0,42437091,39145000,3011000,57183773,27
157968515,2013306,113692497,928780,116931119,891228,1105550,5108895,293360400,34511,163517549,10905,6623,544748703,2438,2.01,0.98,0.94,0.06,0.0,79379425,75061000,4003000,93863746,27
159144090,1785133,115117538,898186,117612865,858387,1041663,5459997,286821879,31552,158468823,11191,10199,530334826,2287,1.97,0.97,0.93,0.06,0.0,77889139,73663000,3981000,92227462,27
153376152,1968466,113081643,893547,118070403,850897,982661,5071872,295441217,33598,162894816,10239,7870,537139354,2244,2.02,0.99,0.95,0.06,0.0,79582476,74243000,5016000,94081789,27
157894118,1851381,114858662,880277,117459441,843662,1015278,5340289,289305101,34489,159046797,9269,5069,532988814,2437,1.98,0.97,0.94,0.06,0.0,78185525,76827000,1010000,92694391,27
157763322,2068117,112399644,948969,116425473,853472,902747,5056786,291904274,38589,165601510,13694,10501,549129611,2245,2.01,0.97,0.94,0.05,0.0,79239572,74989000,3999000,93641764,27
158996032,1943146,115303691,927620,117090838,884064,1021827,5287773,287682975,32924,159946520,9986,8783,540137104,2340,2.0,0.98,0.94,0.06,0.0,78193815,72863000,4990000,92864163,27
158463530,2001806,108843075,1110522,112896716,916411,938257,4582763,296201964,33741,172690800,10848,6511,566265579,2240,2.01,0.96,0.93,0.06,0.0,80933808,75650000,5043000,95623859,27
156334947,2022057,112766413,963097,116094673,899155,963900,5068406,291690719,33331,162832385,11915,8279,540617891,2438,1.99,0.96,0.94,0.06,0.0,79108248,73658000,5045000,93710471,27
170905519,1527849,117992469,661728,116771778,776144,771770,5312458,269981786,15900,154593716,6751,6752,580825453,1826,1.87,0.92,0.89,0.05,0.0,73284727,66983000,5998000,87995144,27
187699323,1974324,118936756,1253484,115496314,1149904,1032351,4745761,306164982,31486,196878174,10472,8233,638606876,2265,2.1,1.04,1.01,0.06,0.0,82925469,77655000,4977000,97580640,27
517871595,2148310,325094535,1785125,327423185,1747029,939058,6009607,667805781,43954,526619313,26786,13613,1555923726,2238,4.7,2.39,2.32,0.11,0.0,180383038,175077000,5002000,195163408,27
602221376,8287004,388176112,3138861,382242895,3132819,4212613,12567895,959362385,277555,600158852,39618,19686,1845763117,5095,6.6,3.25,3.15,0.18,0.0,259059339,250769000,7992000,273793196,27
159017070,2064894,104793494,830780,110341585,715440,938133,4625248,288451402,36788,176016069,11320,7364,565474940,2437,1.95,0.91,0.87,0.06,0.0,81309467,76924000,4048000,96016622,27
155714444,2095282,110035993,1037100,115082025,895102,934888,4798836,295758113,34132,167696251,15118,6206,548482853,2241,2.0,0.97,0.93,0.06,0.0,80207992,76874000,3034000,94694119,27
520493440,2103408,324541112,1911108,327002459,1800137,1226335,6679142,673900198,47253,533197950,35524,14377,1582684553,2238,4.71,2.38,2.31,0.11,0.0,181984078,175643000,6022000,196557931,27
454739662,16376080,304361641,790409,302835110,803885,189932,34783350,708193190,126433,442925583,11524,526600,1271877318,622,5.25,2.32,2.23,0.13,0.0,237621882,190004000,32000000,562452241,28
420763172,15669325,168813241,431663,167026804,430658,235433,34630106,414517349,12582,433128796,2792,3248,1479838358,640,2.93,1.52,1.47,0.06,0.0,111282037,107996000,2999000,125692627,28
347637086,6304679,343687792,658658,345171864,650566,180128,15553427,452474008,13090,345749573,3015,3808,1539815231,630,3.03,1.5,1.46,0.07,0.0,122089260,119783000,2013000,136279856,28
567658008,15977156,238251209,918823,238429112,916554,255937,34186922,942881724,227465,583839581,153243,205285,1759843961,616,6.3,3.14,3.04,0.14,0.0,253481279,188130000,65044000,267986641,28
563459034,16304186,158474002,427112,157966932,426682,204707,32814268,421881670,13465,569772200,2295,2811,1469342201,629,3.02,1.52,1.47,0.06,0.0,114589725,113329000,1002000,128887709,28
531117447,16327227,219875572,675693,220050361,671839,203984,35120131,708222227,121509,525373740,8515,108774,1608085519,626,4.91,2.45,2.38,0.11,0.0,191613676,162171000,29030000,206016908,28
433140060,16082967,159251064,419509,156975842,418229,274621,33814812,404122278,14149,431329082,4293,3257,1463408854,1128,2.88,1.49,1.45,0.06,0.0,108779616,103495000,4975000,123530174,28
561434819,16185154,158144365,423870,158016805,420750,216873,32674624,422219962,13245,571198547,2180,2972,1465801908,631,2.98,1.53,1.48,0.06,0.0,114325990,112038000,2000000,128900233,28
283267171,27586834,340470741,713469,341584631,721609,231497,24385985,517061788,19672,280996266,2853,3968,1521623005,625,3.44,1.67,1.61,0.08,0.0,140289722,136931000,2998000,154527466,28
432015924,16048655,158767463,417927,156896386,414478,187021,34626679,398872080,12665,430091110,2761,3097,1450712042,633,2.86,1.47,1.43,0.06,0.0,108358666,105986000,1999000,123064928,28
371927279,114973725,345787347,685583,341892750,681462,354101,33316269,568435847,16288,367025629,4495,4290,1376267642,1116,4.11,2.13,2.07,0.09,0.0,154727600,152418000,2005000,169151504,28
435472452,16627109,286909184,577075,282999136,583702,324852,34473755,533004869,22422,428677377,6615,4527,1071189556,1123,3.53,1.72,1.67,0.08,0.0,144060066,141806000,2011000,158573855,28
430922042,61053731,341101481,556249,342337533,567723,233535,25443586,641267778,18045,430448901,3260,4875,2048281787,630,4.47,2.29,2.22,0.1,0.0,172979717,170690000,1996000,187588097,28
304718058,8120081,278249262,790190,281648661,806798,220847,17750535,305712790,9500,316004944,5989,2819,1085412619,1038,2.06,1.02,0.99,0.05,0.0,82828202,77548000,4971000,97177137,28
342705524,9678709,220062924,787632,219565505,774718,227069,22903698,603730686,119364,339776116,10106,105598,992076790,624,4.01,1.98,1.91,0.09,0.0,162567686,137131000,25024000,176911101,28
534839485,16647325,216693927,701295,219428466,698700,355924,33568273,787352869,122417,544530280,56471,103709,1778348350,1563,5.38,2.7,2.61,0.12,0.0,212349956,175018000,37003000,227057267,28
427570147,16442263,165735028,425971,165287842,419148,193810,33707017,400486579,11850,422914351,3571,4050,1364217928,636,2.84,1.45,1.4,0.06,0.0,108308103,107012000,1000000,122707054,28
431015615,16662306,158234987,426571,157611637,428731,250017,35261717,396465902,13307,427281159,8856,4427,1321809060,649,2.82,1.4,1.36,0.06,0.0,106712053,104494000,2009000,121169354,28
432604158,16271270,158757914,422557,156736089,417329,276586,33633868,398117019,14625,429181991,3442,3430,1462766643,1121,2.81,1.44,1.39,0.06,0.0,107506378,102214000,4961000,122237297,28
536498299,16448297,342497466,785846,340325239,791316,283938,34948316,801180985,119670,540806132,8752,102202,1381412383,623,5.46,2.73,2.64,0.12,0.0,215330372,180945000,33989000,229907328,28
70854019,542526,40142776,80331,35813598,90834,446831,1809117,94619291,11157,76163293,10889,5742,244250550,1957,1.04,0.33,0.31,0.03,0.0,53200243,21590000,9253000,380646611,29
69253471,597617,39116742,70842,35874166,73572,416176,1332268,93494099,7113,71404618,9506,3178,233021161,2604,0.63,0.32,0.31,0.02,0.0,25297979,22857000,2077000,39914004,29
145880647,1157614,92921447,91445,88325496,93451,554854,1838845,197671502,19701,143612190,25099,5443,486454924,3482,1.37,0.69,0.67,0.04,0.0,53531068,46221000,7033000,67622100,29
124300661,653056,73770855,77271,71907954,76354,364563,1999579,162839678,17293,118064705,17462,4037,389386992,2605,1.06,0.47,0.46,0.03,0.0,49628896,43283000,6039000,64355423,29
130417837,447417,75864061,79144,71701813,80851,703280,2181975,162566201,17140,120445976,15132,3018,403122599,2604,1.14,0.57,0.55,0.03,0.0,44066240,40617000,3046000,58598865,29
145073011,1202049,92737358,101626,89796266,102061,544762,2068457,199950044,28733,143135998,24794,5005,483915404,3482,1.41,0.71,0.68,0.04,0.0,53822201,46605000,6941000,68374149,29
92607578,1051831,60866560,78201,62170291,75819,877053,2480989,133529130,24582,85946652,18762,4289,333094016,3553,0.92,0.45,0.44,0.03,0.0,36017671,30755000,4960000,50753535,29
67813586,689655,38639596,70918,36250481,71914,538494,1466500,95190698,6663,72666111,7547,4692,235682612,2545,0.65,0.32,0.31,0.02,0.0,25726692,18605000,6854000,39942649,29
71278754,557460,41812668,72705,38426056,74476,462876,1623169,95301449,16039,75892108,7144,2833,250819349,1957,0.65,0.32,0.31,0.02,0.0,25641485,20508000,4883000,40161770,29
71457357,612751,41183144,73335,37480306,75390,477949,1633553,95482478,18308,73628984,7434,2707,246649224,2150,0.65,0.31,0.3,0.02,0.0,25781946,20570000,4897000,40355333,29
124285032,532574,73463547,80122,70208748,84353,513555,1896467,156653562,9048,122670970,12104,2475,393458991,2048,1.07,0.53,0.52,0.03,0.0,41858501,38532000,3042000,56269174,29
87529801,1206435,56482785,76672,58753945,74821,745124,2225260,133916023,20814,82841178,20753,5506,320607537,4134,0.94,0.46,0.44,0.03,0.0,36261458,30011000,6002000,50604783,29
129947343,1869303,92415846,116506,95086836,111101,1651085,3939424,246259655,45031,120873791,68225,16141,435538206,12498,1.69,0.83,0.8,0.05,0.0,66738136,46593000,19827000,81071429,29
124509184,577669,72575326,81389,69205047,83181,576858,1987268,156699580,10209,123614955,11590,2098,399739079,2246,1.09,0.54,0.52,0.03,0.0,42502327,37163000,5022000,57076725,29
89029373,1382787,60474519,80998,57054482,78182,674526,2140464,142599088,20182,83937964,26116,6741,330922109,4819,0.98,0.48,0.47,0.03,0.0,37851948,31602000,5925000,52290935,29
126157108,419176,73936363,76909,70527918,78869,448474,1776950,153970067,8295,120958357,11982,2161,394094460,1951,1.09,0.54,0.52,0.03,0.0,42211943,38748000,3059000,56836109,29
70299982,638316,40432108,69457,36733262,72616,581933,1554731,94731134,8601,71092813,13309,3659,236745326,2604,0.65,0.32,0.31,0.02,0.0,25813513,17672000,7854000,40364096,29
87823426,866092,60799690,69526,61488379,67321,840625,2228872,127944342,19968,82934019,16015,5237,322133609,3488,0.9,0.44,0.42,0.03,0.0,34507349,26179000,8055000,48973647,29
68063614,594702,39786711,71948,36133348,68872,394853,1311993,91848193,6111,70221802,6487,5653,240389286,2151,0.64,0.31,0.3,0.02,0.0,24433138,19101000,5026000,39002506,29
125116672,648123,72167750,77281,69271315,79795,625787,2038952,157477625,10605,122630428,11791,3003,394451160,2596,1.1,0.55,0.53,0.03,0.0,42622077,35457000,6894000,56973916,29
301548530,7309722,185689361,3903867,185707252,3916837,4406537,15791187,621445596,255960,300972347,40390,35202,1062334940,6775,4.81,1.99,1.9,0.16,0.0,212401277,162887000,29979000,554348442,30
1073301663,11494238,615114228,9092115,616577663,9054111,1712439,24568892,1702554388,342268,1078836202,36616,127745,3598134445,1903,11.6,5.96,5.78,0.27,0.0,461077661,427653000,32973000,475735222,30
314426503,5481305,183088986,5572484,186425286,5399786,3146015,12674967,631009660,209470,319429004,35651,28906,1089959771,6775,4.25,2.04,1.97,0.13,0.0,173665739,161225000,12016000,188064183,30
850831961,8971628,387617072,7235474,387440146,7195394,4606745,22272964,1313562076,486781,849922901,27227,39194,2840611207,6777,9.06,4.47,4.33,0.24,0.0,354993810,341681000,13025000,369297888,30
884985549,14711002,475864547,5902427,474511366,5920563,3381495,29121439,1458676049,505160,899238985,126624,121588,2617987032,4035,10.03,5.01,4.86,0.25,0.0,393153965,355816000,36980000,407658919,30
887859912,14639130,477386009,5958485,473751827,5951487,3490021,29566230,1460318689,505474,898825495,53413,121702,2623452015,4037,10.02,5.03,4.88,0.26,0.0,395444895,362069000,33006000,410354877,30
371502161,5209547,197078834,3908971,198340193,3837742,3459044,13732472,676500970,219076,364563933,41796,26215,1158590742,5213,4.59,2.22,2.15,0.13,0.0,184963939,176555000,8025000,199787420,30
234560384,6523767,151433369,3386252,155417355,3408186,1401018,11951672,474164766,136461,240673479,18416,21389,836727362,2576,3.23,1.59,1.54,0.09,0.0,127739951,124382000,3009000,142514334,30
219806610,4082766,200306863,3733181,194541624,3686468,1931188,10066687,484786861,96650,210605078,16995,8179,1008893384,2374,3.31,1.64,1.59,0.09,0.0,131149155,125848000,4993000,145740899,30
729464281,5057153,442428774,4485501,443998225,4487603,1486686,12361617,1210213002,192384,738757356,45446,119130,2270954902,2571,8.28,4.11,3.99,0.2,0.0,327458934,291022000,36002000,342098418,30
248781405,4072108,168380670,3928447,165405997,3910370,1465704,9386155,502844557,81560,243081323,33842,19568,916424480,3262,3.44,1.69,1.64,0.09,0.0,135732099,131387000,4011000,150232448,30
254884880,7105271,179871305,6558789,184427160,6582082,2355824,13860430,623641114,167835,266406615,24105,21162,1010039796,4042,4.26,2.07,2.0,0.12,0.0,169593771,165374000,3984000,183795834,30
249325292,4304972,158310435,3530564,156409127,3550322,1517532,9750734,496002854,78777,253973842,18911,16380,920350130,4775,3.35,1.65,1.6,0.09,0.0,134151574,126803000,7044000,148886737,30
273665116,6975806,154788803,3498717,158002869,3501417,3908203,15749627,606930992,208743,286822978,23607,23719,972375355,5527,4.13,2.03,1.96,0.13,0.0,163582013,150156000,13013000,178370373,30
234609277,4086286,159893294,3801316,163695472,3815778,1200046,8764147,466690732,73273,242503085,20242,16628,881429844,2572,3.15,1.52,1.47,0.08,0.0,127206960,119788000,6987000,141695824,30
195015580,5784539,132828479,2164990,137122362,2164553,2304220,11820897,384936717,144698,205047057,29023,21475,705518889,3600,2.63,1.29,1.24,0.08,0.0,103618334,96282000,7020000,118364021,30
244111136,4041436,214801379,4254497,210826864,4200842,1820284,9928954,521880409,92973,238459195,20413,9379,1143285152,2375,3.58,1.76,1.71,0.1,0.0,141599282,138199000,3004000,156399100,30
404128364,12810533,195541648,3844303,197599093,3838134,13088210,35419553,896030233,1000990,411174037,34523,29723,1146979411,6776,6.16,3.01,2.9,0.21,0.0,242594074,233225000,9008000,257250825,30
302113185,4702790,196328000,4335944,194664474,4330872,2116702,10960658,562210734,112824,292549402,31290,17133,1104980781,3651,3.79,1.88,1.82,0.11,0.0,150665931,141323000,8957000,165489829,30
426275605,17803137,198963023,4931322,201523340,4949966,3417977,27484766,774912619,382621,436865765,20051,21993,1312854133,4048,5.39,2.7,2.62,0.15,0.0,209107918,198835000,9991000,223791858,30
12241376,225222,57253685,7010137,57889708,7022040,120931,2756958,499546353,20886,13312189,4050,5287,209234504,127,3.74,1.46,1.39,0.1,0.0,189574847,161767000,4931000,520684664,31
67833019,262152,248216546,7479965,247673328,7559612,126746,3221867,837268276,23414,67942328,2723,6094,1109278523,132,5.32,2.58,2.49,0.13,0.0,226268611,224969000,995000,240873304,31
12520569,232495,47374559,7108612,47504564,7136987,130986,2210470,523744860,14722,11577125,1694,4211,155280217,133,3.22,1.51,1.45,0.08,0.0,142842927,141648000,997000,157061734,31
23561103,165448,69516125,7096265,69680712,7088638,112135,1382980,302019948,7974,23581503,1184,2546,354736979,131,1.89,0.88,0.85,0.05,0.0,81379827,80106000,1001000,96132343,31
12391364,263382,58720030,7388893,58763829,7395081,137268,2462886,593513717,16646,12294833,3022,4899,277117987,134,3.85,1.83,1.75,0.09,0.0,159917748,158539000,997000,174476186,31
231177260,270410,198074171,918669,198808435,909267,122696,2443094,609814499,16593,232307640,2471,4720,940731207,134,4.07,2.03,1.97,0.09,0.0,164584409,162300000,1991000,179157435,31
47081845,54815164,103337133,6444431,103563023,6451014,117100,1791359,411927891,11635,47775837,1228,2967,486933408,89,2.77,1.36,1.32,0.06,0.0,111800240,110458000,1004000,126327792,31
6416305,718215,12618481,615436,14131449,605494,845845,3027056,368450876,18512,8948272,19381,11510,84938130,3202,2.33,1.09,1.05,0.06,0.0,98977971,93651000,5035000,113520212,31
12182950,177854,57623691,6770035,57945536,6821813,95595,1187200,243950921,7188,11578366,1229,2085,244672986,130,1.54,0.74,0.71,0.04,0.0,65890859,64662000,994000,80167811,31
11858311,205540,46882395,6566725,46877899,6580299,121769,2131661,511200519,13176,11505055,1648,3740,152477722,132,3.21,1.49,1.43,0.08,0.0,138876544,138601000,0,153547953,31
513307153,8032597,441303395,2255468,443012863,2250466,8541075,16431888,1008381619,132272,513254500,186139,48103,2145930715,35932,7.11,3.58,3.46,0.21,0.0,272421106,224024000,48005000,287029813,31
11718148,194920,57442943,6965505,57472345,6953726,115475,2073141,484997451,14152,11799773,2276,3948,211188442,132,3.07,1.42,1.37,0.07,0.0,131311240,130081000,1000000,145665966,31
12246069,233573,46793519,6631811,46894260,6639911,112752,2066804,522946293,12669,11610200,1633,3797,195320969,127,3.26,1.52,1.47,0.08,0.0,141114758,139787000,998000,155862637,31
15382971,235987,60204716,6566569,60390551,6597303,98976,1966605,501262748,13392,15146162,1594,3951,231251128,132,3.16,1.47,1.42,0.07,0.0,135149753,133823000,998000,149805140,31
11921574,243912,69322870,7107253,69428229,7112961,126394,2271735,544014002,15262,11959923,2414,4282,229076051,131,3.51,1.66,1.61,0.08,0.0,147036030,144780000,1996000,161266181,31
12777904,284975,58998068,6989600,59114730,6972387,155868,2835228,545417384,18822,12950867,6252,4199,213338906,133,3.59,1.61,1.55,0.08,0.0,144846744,143552000,996000,159398532,31
65858074,661588,38014216,254334,35494670,241491,756760,2177936,250418812,20343,64430912,20312,6363,308835305,4045,1.64,0.78,0.75,0.05,0.0,67627636,58248000,9038000,82253291,31
48062463,218348,72320237,7237218,72346412,7246032,109090,2378549,594116672,17035,48061227,2937,4992,359175642,135,3.85,1.85,1.78,0.09,0.0,160887140,159577000,1003000,175478952,31
11888472,208272,57833681,7413974,58045299,7457168,123685,2104192,502321602,13485,11909195,2003,4024,213041469,132,3.18,1.49,1.43,0.08,0.0,135959458,135704000,0,150333748,31
15638237,249734,46792628,6128356,46888118,6153140,123328,2125021,508485629,13393,14988333,2186,3995,167320720,135,3.15,1.45,1.4,0.08,0.0,137095973,135832000,998000,151710118,31
