@relation problema
@attribute 'L1-dcache-loads' real
@attribute 'L1-dcache-load-misses' real
@attribute 'branch-instructions' real
@attribute 'branch-load-misses' real
@attribute 'branch-loads' real
@attribute 'branch-misses' real
@attribute 'cache-misses' real
@attribute 'cache-references' real
@attribute 'cpu-cycles' real
@attribute 'dTLB-load-misses' real
@attribute 'dTLB-loads' real
@attribute 'iTLB-loads' real
@attribute 'iTLB-load-misses' real
@attribute 'instructions' real
@attribute 'page-faults' real
@attribute 'power/energy-psys/' real
@attribute 'power/energy-pkg/' real
@attribute 'power/energy-cores/' real
@attribute 'power/energy-ram/' real
@attribute 'power/energy-gpu/' real
@attribute 'duration_time' real
@attribute 'user_time' real
@attribute 'system_time' real
@attribute 'perf_time' real
@attribute 'class' {0,1,2,3,4,5,6,7,8,9,10,11,12,13,14,15,16,17,18,19,20,21,22,23,24,25,26,27,28,29,30,31}
@data
247942432,292538,154194969,632226,154119425,632464,139875,2078034,509285106,114433,249424668,309356,105380,766245745,127,3.36,1.68,1.63,0.08,0.0,137423010,101052000,36018000,151523502,0
93602411,302183,62347209,375858,62342202,366408,166583,1700671,335029731,111528,94007226,40650,205674,328045286,133,2.13,1.03,1.0,0.05,0.0,90391176,64006000,26002000,105226850,0
247777314,305503,153893607,699078,153851899,695303,157654,2194448,505176398,116107,249307731,10853,511709,767957099,128,3.33,1.65,1.6,0.08,0.0,136091035,100863000,34952000,150273005,0
248533932,267029,153957692,695656,153927067,695512,146881,2132907,503745921,115028,249690725,11255,105434,767804425,129,3.35,1.64,1.57,0.08,0.0,136235327,100017000,36006000,150638547,0
251209866,281803,154947929,652496,155031126,651872,182120,2200559,509574982,115314,252740166,227324,105568,768475634,128,3.38,1.66,1.6,0.08,0.0,137680754,96291000,41124000,152284364,0
247850410,303216,154429657,695342,154390715,690622,136647,2138748,503612555,115197,249136053,10475,105223,766524174,128,3.31,1.63,1.58,0.08,0.0,136557668,102208000,34069000,151087909,0
248780302,282025,154169487,647232,154084537,640016,164905,2139817,500958439,114761,248299132,10152,105529,767433649,126,3.34,1.66,1.6,0.08,0.0,135603034,99241000,36087000,150199134,0
248234340,282691,153917182,671586,153890632,672458,163830,2213102,509191243,115850,250360715,187193,242010,768215300,127,3.37,1.65,1.59,0.08,0.0,137627376,108268000,29072000,152046332,0
250640097,300353,154521406,671734,154763700,668508,167196,2201969,502993589,115713,251802444,15684,105375,768692417,127,3.34,1.64,1.59,0.08,0.0,135447061,104152000,31045000,149804959,0
249349152,293270,153914562,700533,153915369,702024,172347,2181488,505373152,115924,251108217,10530,106236,769965322,139,3.34,1.62,1.56,0.08,0.0,137209205,95677000,41292000,151901740,0
68215737,217430,45203740,229211,45239952,230262,139446,819797,98155460,3920,71210514,2178,1633,242254352,139,0.68,0.34,0.32,0.02,0.0,26408725,24117000,2009000,40598085,0
251457075,260623,154432900,636704,154620072,637232,151148,2244908,509690098,115025,252671192,307775,105402,769562724,127,3.37,1.62,1.56,0.08,0.0,141654404,114295000,27069000,156148351,0
97930511,436095,65215951,428808,64713839,421700,370227,1860238,351841868,113027,96413120,9240,108467,341464921,1890,2.3,1.09,1.05,0.05,0.0,94726636,69326000,25118000,109314514,0
248865695,262834,153869805,686129,153877851,684471,135924,2123026,502762956,114999,249678684,66263,105454,766700549,129,3.33,1.63,1.59,0.08,0.0,136448390,101387000,34789000,150946252,0
250536042,295982,154618479,664384,155146887,659801,149126,2131264,502325462,115012,251277748,23547,105382,767020142,127,3.36,1.65,1.59,0.08,0.0,135390105,108088000,27022000,149990627,0
99300195,273023,65659712,421082,65645607,421307,141811,1631384,354779270,111538,100104871,308549,104370,342009010,133,2.28,1.1,1.06,0.05,0.0,95733266,61646000,33806000,110388665,0
251194258,279984,154805914,633793,154812984,632770,144962,2137263,499509097,115139,252097643,6348,105352,770124534,129,3.26,1.58,1.54,0.08,0.0,135522580,107193000,28050000,149820259,0
248655041,301066,154126107,747969,154110187,751017,163176,2282159,520032952,115021,249305237,268460,206652,767724888,128,3.46,1.7,1.64,0.08,0.0,141350917,107057000,34018000,155534943,0
250964337,298246,154697114,667240,154619482,665945,137917,2155771,503832009,115729,252803153,16134,105570,770195333,128,3.32,1.61,1.55,0.08,0.0,136830041,109682000,26922000,151245754,0
241121744,343406,151959019,714052,157314190,724691,159670,2222775,508522567,113879,251917409,319909,109989,749504094,323,3.36,1.66,1.6,0.08,0.0,137661185,107277000,30077000,152340363,0
68942683,220384,45180230,185533,44937665,184413,136863,800137,96047224,3557,71251898,2390,1606,242511838,134,0.67,0.33,0.31,0.02,0.0,26167123,23888000,1990000,40552303,0
250756550,298573,154654781,721038,154557321,716899,171600,2201637,503245805,115075,251675174,8012,205881,768972734,128,3.33,1.65,1.6,0.08,0.0,135893426,104709000,30914000,150434118,0
69401362,202331,45033305,182436,45067116,182088,140137,821337,96635734,3906,71428044,2453,1594,242139711,134,0.66,0.33,0.32,0.01,0.0,25900581,25651000,0,40121453,0
68345730,213182,44661325,186329,44755259,185232,135189,815182,96161597,4029,70908949,2653,3172,240399369,134,0.64,0.32,0.31,0.01,0.0,26001066,22812000,2975000,40436130,0
248084889,306850,154474189,640925,154451605,641283,153757,2237419,510201909,115671,249958098,309663,105624,767625403,129,3.39,1.69,1.63,0.08,0.0,137674665,110302000,27074000,152460023,0
247915948,296124,154163080,637530,154297989,629439,135841,2114848,502007034,115108,248247586,124941,105302,765283199,129,3.32,1.64,1.6,0.07,0.0,135435222,111167000,24036000,149774727,0
69586151,201742,44929394,186823,44907472,184481,138436,800055,95921523,3691,71604711,2543,2438,242443701,134,0.65,0.33,0.32,0.02,0.0,25975607,25701000,0,40462545,0
251464231,299905,155060907,663295,155189568,660151,254907,2277953,507754990,114524,252315213,26441,105236,768975579,126,3.35,1.67,1.62,0.08,0.0,135712612,106525000,28871000,150484647,0
248122539,277563,153999399,697666,154032292,694422,149022,2164407,501615223,114731,248744395,10686,105205,765990576,126,3.32,1.63,1.57,0.08,0.0,135791410,106484000,29132000,150213734,0
91129330,2828336,61761826,540855,61272575,536532,471687,4134402,189528560,19166,93268700,38615,39398,330749118,866,0.84,0.46,0.46,0.02,0.0,26193151,24870000,994000,43166481,0
251018525,302252,154753265,676976,154800264,670061,145226,2191849,503814158,114689,251413993,38284,105810,767911556,138,3.35,1.66,1.61,0.08,0.0,135983848,108776000,26944000,150544185,0
93063756,258094,61769078,421140,61940514,422473,158751,1627169,338244192,111816,93347990,11317,104301,324371971,133,2.17,1.05,1.01,0.05,0.0,91506313,66074000,25028000,105849463,0
251002134,277993,154607911,670244,154769363,663594,138719,2098186,501905117,114615,251469217,37982,105340,767958178,129,3.33,1.64,1.59,0.07,0.0,135224208,95670000,39275000,149896446,0
68926445,202322,44860201,181666,44904152,182228,136560,876963,97285480,3775,71612711,2466,1329,243957004,132,0.67,0.32,0.31,0.02,0.0,26430888,24176000,1934000,40617630,0
68442731,218139,44862073,180225,44860981,181719,138056,812371,96255443,5457,71642035,2191,1610,243801076,135,0.64,0.31,0.31,0.01,0.0,26132353,24814000,992000,40555719,0
67966857,206590,44531922,179520,44616165,179773,143767,793847,97010137,3980,71182183,2526,1661,243406338,134,0.65,0.32,0.31,0.02,0.0,25985045,22793000,2973000,40313021,0
250463183,311944,154717586,647242,154732308,646876,160655,2179101,511145487,115144,252635263,247117,105544,768934476,129,3.4,1.68,1.63,0.08,0.0,137802984,102652000,34881000,152379475,0
251358879,328144,155106656,656004,154517453,648484,170873,2113324,504665994,114647,252517719,24758,294383,773126820,129,3.35,1.67,1.62,0.08,0.0,135921399,108481000,26871000,150454396,0
250886337,274120,154608811,643011,154519918,644161,157228,2241133,509191694,115677,252873176,171560,105500,770415299,128,3.36,1.66,1.61,0.08,0.0,136964214,106541000,30153000,151677976,0
250612085,299132,154608862,650441,154600451,649213,163181,2191068,510963079,115673,252559327,307442,105172,767700720,128,3.4,1.69,1.64,0.08,0.0,137880581,99711000,37890000,152562698,0
250978240,294639,154829566,724198,154733407,719868,148651,2137656,504796269,115178,251903071,41762,105463,770905577,127,3.34,1.63,1.59,0.08,0.0,136175946,101938000,33979000,150679624,0
250095216,298950,154311585,600065,154486307,601182,136324,2131015,504913734,114978,252518644,162581,105217,768797383,128,3.34,1.62,1.57,0.08,0.0,137569328,94219000,43100000,152107282,0
241818380,318089,150921095,703121,156309321,714626,184331,2270453,510268585,113622,253656989,317586,109591,752267451,324,3.39,1.65,1.59,0.08,0.0,137848393,106458000,31134000,152456854,0
68177208,202184,44503953,180869,44500891,182024,148802,824336,97131282,4444,71540835,2821,1668,245800994,135,0.66,0.33,0.32,0.02,0.0,25717963,24376000,1015000,40338999,0
251148774,301237,154694794,567457,155258176,569188,282706,2306957,505669270,115521,252828745,8707,105557,773612182,128,3.33,1.63,1.58,0.08,0.0,134903045,108563000,25895000,149562964,0
68503337,200756,44384754,141184,44391847,140892,139492,800652,95635017,4004,71211072,2566,1656,243207155,134,0.65,0.32,0.31,0.02,0.0,25896424,24618000,984000,40329148,0
226058729,236442,136218288,467792,137931016,486941,169674,1513299,261322852,10311,232968039,8544,2909,693673747,324,1.82,0.93,0.91,0.04,0.0,71202584,69859000,1012000,85553308,0
247024687,294364,153891768,632436,154544042,629892,133336,2092164,498318642,114981,248579390,18179,105030,765472255,127,3.32,1.64,1.58,0.08,0.0,134834040,102413000,32129000,149311699,0
245956604,296243,153594552,639778,153518816,637530,153837,2191739,502470864,115267,246426061,28895,105752,762130592,128,3.33,1.64,1.59,0.08,0.0,135682018,104540000,30864000,150289204,0
248524035,298972,153551560,653234,153888534,654766,241056,2427912,505950996,115932,251422997,9955,105872,768070199,128,3.32,1.61,1.55,0.08,0.0,138770952,108346000,29820000,153301975,0
223352682,256955,136183873,494014,138180679,512551,169687,1478672,262338452,8250,231697404,8845,2982,691879659,326,1.82,0.92,0.9,0.04,0.0,71358726,68057000,3002000,85962341,0
67978455,216378,44320193,184897,44376019,184143,145899,798486,97294994,4180,71558717,2663,1625,245048534,135,0.65,0.32,0.32,0.02,0.0,26073210,22807000,2974000,40495070,0
67767278,216457,44610882,180149,44632154,180034,137380,795915,96345515,3807,70899131,2844,2038,241087753,134,0.67,0.33,0.31,0.02,0.0,26151386,24935000,997000,40425623,0
247714562,284790,153830922,638655,154014915,641353,150720,2222601,511492344,115348,249704686,310315,105290,767178258,129,3.4,1.66,1.6,0.08,0.0,138460714,101152000,37055000,152648689,0
251260718,312321,154721552,643718,154773531,643081,152039,2255053,511922064,115172,253280098,306961,219554,768782165,127,3.42,1.68,1.62,0.08,0.0,138679317,113505000,24891000,153331760,0
245089237,297782,153546322,637204,154015997,636357,150089,2113487,500029489,114984,246601665,20991,105418,761447305,128,3.33,1.62,1.56,0.08,0.0,135413359,105091000,30026000,149898516,0
71370633,220726,46929968,139955,46931999,139469,134524,909054,100935536,6720,74223025,2383,1247,259409590,139,0.67,0.33,0.32,0.02,0.0,27227413,24987000,1999000,41240349,0
250439671,297427,154426287,665466,154827472,662994,138995,2055007,500986488,115018,251752586,7698,105625,768643280,128,3.35,1.63,1.58,0.08,0.0,135364485,100058000,35020000,149977715,0
67479962,224807,44742609,183785,44979748,183496,136443,817860,96918363,3659,71558324,2625,1642,241806555,135,0.68,0.33,0.32,0.02,0.0,26179508,23797000,1983000,40753594,0
68046630,216445,44946027,181346,44899651,181208,137983,802272,97408283,3754,71464453,2038,1621,243813749,135,0.68,0.34,0.32,0.02,0.0,26123145,24845000,993000,40783555,0
251217553,269757,154411381,632784,154880213,629122,129388,2085137,498134052,114825,251783672,68076,105253,767994057,129,3.31,1.64,1.59,0.07,0.0,134955652,97484000,37184000,149818295,0
92991063,264372,62078399,420795,62075235,417938,138855,1551809,349262806,110992,93745885,306208,104559,325842010,133,2.27,1.09,1.05,0.05,0.0,93971530,71682000,21902000,108518578,0
250873106,276751,154456823,673691,154469140,672884,135096,2139686,504977344,115099,252561483,7732,307050,767805121,128,3.35,1.64,1.58,0.08,0.0,136784896,112406000,24087000,151376369,0
247753655,306030,154228877,641371,154170978,639678,171347,2060907,503597161,114393,249596570,10058,105876,769746934,130,3.35,1.66,1.61,0.08,0.0,135832629,105607000,29888000,150555146,0
248565180,274773,153953893,685668,153775488,682839,149307,2195194,506222244,115541,249899184,111002,105851,768741240,128,3.39,1.67,1.62,0.08,0.0,136710521,103328000,33105000,151431872,0
247407216,310603,153786915,637973,153888909,631636,176139,2178635,505415371,114637,248966702,100635,105068,767585969,129,3.36,1.65,1.6,0.08,0.0,135873699,98698000,36887000,150621871,0
251100313,287048,154823454,662602,154786831,657357,148674,2133281,501917506,114802,251164964,15731,105489,767616280,128,3.35,1.63,1.58,0.08,0.0,135845490,111719000,23939000,150296356,0
252297547,289510,154622536,677240,154481656,669877,238575,2183436,502947264,115699,253580490,26506,106376,774360741,128,3.39,1.66,1.61,0.08,0.0,136475789,106836000,28955000,151019461,0
95072404,240055,62575481,424351,62748609,420303,140135,1566873,341353542,111042,95168122,122045,104726,328594175,134,2.21,1.05,1.02,0.05,0.0,92588288,57184000,35113000,107262319,0
250953839,320356,154588729,787125,154633300,788724,221951,2443499,517659397,116831,253535628,169837,223969,772461009,128,3.45,1.69,1.64,0.08,0.0,138853753,105665000,32895000,153630230,0
90797452,261351,61223909,429924,61347622,425192,158636,1657940,344059379,111429,91553336,223530,104591,319044699,134,2.23,1.06,1.01,0.05,0.0,92864173,68323000,24114000,107391794,0
250214558,300810,154579710,660218,154595605,655547,142816,2109593,504977634,114611,252071476,50273,105689,769931410,128,3.38,1.68,1.63,0.08,0.0,135859914,107666000,27913000,150581767,0
251133873,272239,154568834,665323,154602884,666871,143197,2089982,503118200,114095,252411192,7737,105454,768768185,128,3.41,1.62,1.56,0.08,0.0,137310370,112984000,23996000,152016197,0
93018302,263335,61961911,424581,62217782,424803,137536,1657428,335311690,111025,92979050,44115,104015,322933787,133,2.18,1.02,0.98,0.05,0.0,91499867,60138000,31071000,106140431,0
67916806,212274,44396468,183574,44204898,184812,140296,802118,96895749,3515,71635617,3212,1622,245482201,134,0.66,0.33,0.32,0.02,0.0,25826021,22533000,2939000,40343363,0
251358989,271480,154678432,669379,154588862,665779,149215,2125168,503075915,114229,251385547,11234,105054,767163302,126,3.39,1.66,1.59,0.08,0.0,135991383,104516000,31153000,150593148,0
248248505,286197,154268678,634981,154249744,633486,144867,2116109,508969244,114754,249939004,303022,105383,770080040,128,3.4,1.66,1.6,0.08,0.0,138124950,108818000,28951000,152646606,0
68754658,193260,44727479,140281,44776435,139795,143086,887480,98748771,3719,71702862,2961,1422,245802359,135,0.68,0.34,0.32,0.02,0.0,26444461,26158000,0,40964369,0
250830735,286926,154478785,664376,154453700,661752,145060,2159686,506496284,115216,252677513,67451,105494,769051830,128,3.4,1.67,1.61,0.08,0.0,136547380,102169000,34056000,151160909,0
250403861,300624,154494913,740280,154530296,735641,141501,2098662,505007787,114221,252257805,11831,105498,769095079,129,3.35,1.65,1.6,0.08,0.0,136249308,106950000,28986000,150613852,0
1759859,223102,6685423,164910,6698201,170444,113805,1921386,439470445,12572,1323075,1395,3493,76741811,134,2.74,1.28,1.23,0.07,0.0,118961939,117560000,996000,133541193,1
69947259,399360,129682259,233747,129634065,233332,175222,4298345,1192838584,29242,69595513,2965,7729,1636720598,128,7.09,3.2,3.07,0.18,0.0,322202076,320846000,999000,336521767,1
450942,116364,3531933,57466,3501341,59150,93921,806774,110466677,4366,351512,340,723,84599673,131,0.69,0.31,0.3,0.02,0.0,30010049,28796000,992000,44300500,1
4107745,501640,210916390,292723,210953164,299089,282051,5508355,1449927674,37901,2811321,4932,11132,1995663678,128,8.72,3.87,3.71,0.22,0.0,392515995,392023000,0,406741823,1
265418,112536,2333154,50794,2329870,52801,92903,638085,52667586,2019,252747,176,399,65582760,133,0.33,0.14,0.13,0.01,0.0,14661172,12513000,1925000,29066615,1
1056313,162243,6351746,107295,6243306,113716,82113,983367,182162462,5774,707301,880,1632,122237428,131,1.13,0.51,0.49,0.03,0.0,49554851,48241000,1005000,63917962,1
814159,143877,3359526,69501,3271870,67798,99187,1055198,178796180,6167,640662,1068,1715,145225164,128,1.13,0.53,0.5,0.03,0.0,48262846,45976000,1998000,62467615,1
1732557,222206,6816841,165161,6652105,168725,120995,1829578,431627063,12647,1202430,1570,3698,69780625,133,2.67,1.2,1.15,0.07,0.0,120206483,118960000,999000,134850824,1
3522588,444834,210373840,262036,210537512,267241,179289,5072831,1450832023,36346,2958524,4149,10301,1993101488,127,8.66,3.91,3.75,0.22,0.0,392550077,392247000,0,406948526,1
288055,69859,4599380,105952,4667075,117880,98423,861771,107420916,4890,213064,367,757,84231782,133,0.68,0.32,0.3,0.02,0.0,29649720,28358000,1012000,43900565,1
978008,154475,4359168,143557,4283636,109370,74352,653502,78630268,2982,544415,674,1116,61164845,132,0.51,0.23,0.22,0.01,0.0,21027802,18768000,1975000,35604891,1
1246615,154390,3351312,67613,3245493,65374,85387,1045768,179567079,5978,674177,1126,1796,110379970,128,1.08,0.49,0.47,0.03,0.0,48646045,47350000,1007000,63333124,1
4175947,259967,107340552,158872,107469838,161385,124741,2787912,714569487,19457,4056422,3167,5336,1102592263,129,4.16,1.86,1.78,0.11,0.0,192624031,192380000,0,207426215,1
1201747,158251,3379317,74329,3281528,78434,94350,1205927,225299044,7200,761306,1136,2030,48557341,131,1.42,0.66,0.63,0.03,0.0,61094767,59810000,996000,75380239,1
1161499,101105,4714797,91702,4773680,100030,56491,945335,179129474,5841,660344,974,1614,119032943,66,1.1,0.5,0.48,0.03,0.0,48625208,47297000,1006000,63053184,1
7015110,576040,84705709,4515262,84160544,4525246,386220,4862526,1220438394,34142,6981408,10239,10696,437357670,1807,7.75,3.69,3.56,0.18,0.0,329310599,325943000,2999000,344055530,1
8342334,464742,217538545,287611,217431145,285884,154596,5467239,1549683995,39918,7979784,5409,10957,2327433952,131,9.05,3.99,3.83,0.23,0.0,419043312,418783000,0,433491441,1
906756,158047,5395724,110185,5364822,117189,85602,1019221,182928088,5952,771407,1070,1740,122957890,133,1.11,0.5,0.49,0.03,0.0,49311495,47076000,2003000,63598144,1
723039,113221,3526134,67736,3295359,65448,85200,1006624,180196800,6697,639795,1044,1742,110667478,132,1.13,0.52,0.49,0.03,0.0,49107537,47884000,977000,63820706,1
874635,161404,3562567,79970,3343192,69240,86935,985413,187854137,6452,662422,1144,2117,125963169,127,1.16,0.53,0.51,0.03,0.0,50797047,48524000,1980000,65269624,1
1539125,282974,106844629,174504,106747139,175342,147557,3122637,788636163,21965,2017622,2789,5650,1124959273,132,4.68,2.07,1.99,0.12,0.0,212894237,210625000,1996000,227332950,1
812122,120254,3586730,58920,3452018,62700,105374,851380,110849647,4788,313853,494,1228,84742875,133,0.69,0.32,0.31,0.02,0.0,29947264,28689000,989000,44558070,1
1358990,119401,4828336,132339,4748444,141094,84982,654960,63005746,2846,299352,320,490,86826510,127,0.41,0.19,0.17,0.01,0.0,17129680,15021000,1877000,31464911,1
632101,146472,3462109,79570,3453768,81018,100627,1185112,210253566,6767,511874,737,1457,142705972,134,1.34,0.62,0.59,0.03,0.0,57632219,54382000,2966000,72188777,1
900244,132158,3548653,59098,3403091,59048,89987,803430,109726856,3547,287876,341,733,83632898,133,0.7,0.33,0.32,0.02,0.0,29683235,28384000,1013000,44083284,1
107248141,383556,156671095,231044,156379915,227678,125974,4311631,1146447654,31838,105265340,3987,8195,1934227337,131,7.11,3.33,3.21,0.17,0.0,310032566,307791000,1998000,324670636,1
30503407,1386121,33303531,663509,33351695,614625,366392,4558978,233584605,25555,28746932,62451,21554,227851176,511,0.99,0.52,0.5,0.02,0.0,33693807,28821000,1987000,49325616,1
741268,135143,3317129,68105,3307583,65723,87315,1002392,178645772,5732,814290,858,1639,110967063,126,1.09,0.49,0.47,0.03,0.0,48432965,48028000,0,62884318,1
796251,139408,4758366,133910,4832212,141079,106356,1305652,258440684,7145,600386,515,1569,48164612,126,1.61,0.74,0.72,0.04,0.0,69666185,69423000,0,84119052,1
2103844,148506,5652955,115732,5608034,86732,82673,703309,89551559,2933,1325705,781,1529,95024002,132,0.54,0.24,0.23,0.01,0.0,24091548,22730000,988000,38634901,1
3439638,253875,118940577,516441,118802564,526175,131881,3005707,796194769,20739,3404139,2352,5307,1161629616,131,4.76,2.13,2.04,0.12,0.0,215553989,215195000,0,230024122,1
1196264,147793,3246560,63343,3332176,56066,81220,663253,89886354,2260,559806,727,1096,99094873,127,0.55,0.25,0.24,0.01,0.0,24377010,23118000,1005000,38750534,1
1189177,174972,55526266,107247,55582715,110852,141433,1919617,433776139,12960,1323344,1469,3493,635417863,133,2.61,1.16,1.11,0.07,0.0,117506894,117195000,0,132019665,1
234071,90605,4421294,108378,4393317,118403,105046,694487,58951562,3152,143775,137,364,64927932,127,0.37,0.17,0.16,0.01,0.0,15755803,15383000,0,30321156,1
1129377,166047,3330001,67619,3243794,67379,88993,1030015,180390606,5403,739325,804,1654,142903932,132,1.1,0.49,0.48,0.03,0.0,48852645,46465000,1977000,63484762,1
644217,88598,5879864,706386,5910974,725148,112200,840735,86921436,3792,185903,336,961,70404802,133,0.57,0.22,0.2,0.02,0.0,26926679,24670000,1973000,41548578,1
1029561,182508,5439945,94202,5217540,92834,96067,1464627,338347564,9451,920543,1137,2572,237317629,133,2.11,0.98,0.94,0.05,0.0,91665263,91336000,0,106258996,1
68688402,403106,124507532,238251,124598705,225985,132364,4168059,1174918170,30409,67936679,4698,8823,1386033410,133,7.03,3.13,3.0,0.18,0.0,317322468,316040000,996000,331747523,1
1063398,130278,3181137,47080,3132292,48948,77464,632786,65541594,2710,617832,785,472,85084200,132,0.4,0.18,0.18,0.01,0.0,18242250,17953000,0,32418383,1
1162735,165125,3326767,68443,3228522,64246,81077,1005867,181862066,5653,764820,981,1892,111220011,137,1.13,0.52,0.51,0.03,0.0,48903172,46543000,1980000,63436870,1
240589,95887,4762584,52241,4786927,52580,93882,672840,58634397,3264,235135,228,436,75565801,127,0.38,0.18,0.17,0.01,0.0,15763781,15496000,0,30269410,1
232509,66183,2377979,51415,2378950,51981,94694,641676,50942156,2825,115356,163,377,61407799,132,0.33,0.15,0.16,0.01,0.0,14273185,13007000,1000000,28908013,1
564698,89295,3314596,61613,3353339,60831,99443,767023,93332092,3591,272794,309,897,93292513,132,0.58,0.26,0.25,0.02,0.0,26188994,24959000,998000,40660273,1
683298,131588,3377107,62325,3372271,63829,108303,836430,100423761,3077,193173,333,788,98903689,131,0.64,0.3,0.29,0.02,0.0,26602653,24360000,1948000,41304492,1
1184251,163409,3484096,77221,3480388,76999,120327,1068553,200355253,5215,524549,615,1687,181777027,130,1.25,0.58,0.56,0.03,0.0,53758815,52374000,988000,68144665,1
575722,129298,4370461,62538,4434556,62647,104101,732503,97003532,3088,186824,313,1071,68707028,132,0.62,0.29,0.28,0.01,0.0,25901040,23746000,1978000,40362791,1
843242,145832,3576420,79934,3374397,72615,88712,992039,189200333,6011,822540,825,1656,135910910,132,1.19,0.55,0.52,0.03,0.0,51136068,50793000,0,65402256,1
727843,139615,3237827,62282,3227189,55036,80360,660686,89093172,2685,510736,744,1057,80982640,131,0.54,0.24,0.23,0.01,0.0,23911829,21728000,1975000,38392109,1
956667,163010,3546413,74230,3320038,66675,87907,949915,189626108,5520,670425,916,1706,135360157,131,1.16,0.52,0.5,0.03,0.0,50725866,49477000,989000,65355513,1
9686245,546637,10026909,156165,9809067,149469,426996,2846442,658715794,28177,10728486,18949,9284,133072996,4038,4.13,1.9,1.83,0.1,0.0,177791594,170416000,6976000,192240832,1
1028797,121374,2381840,51141,2380209,51186,95631,637907,53268515,1680,147937,111,373,54153395,132,0.33,0.15,0.15,0.01,0.0,14106008,12906000,992000,28525626,1
843586,150993,3568366,77896,3406597,67943,80709,960117,189225368,5083,804942,847,1845,134603497,132,1.19,0.54,0.52,0.03,0.0,51315187,50946000,0,65920570,1
1085423,195403,53825732,103431,53804010,102759,105443,1671523,367572483,10390,779500,1226,2402,590361909,129,2.26,1.02,0.98,0.06,0.0,99554779,98226000,1002000,114005112,1
6204384,361701,112398968,208155,112417535,204759,149747,3661099,986440814,24207,5272154,2078,6563,1301824938,132,5.93,2.66,2.55,0.15,0.0,266602473,265259000,1000000,280941436,1
1013440,145609,7608835,149745,7572444,124270,93534,717914,93233853,2477,196532,729,1063,123121756,127,0.58,0.27,0.27,0.01,0.0,25260496,22968000,1997000,39621996,1
743709,128756,3504686,75279,3386943,69372,94217,982104,186911571,6180,798335,909,1754,129880051,133,1.19,0.55,0.52,0.03,0.0,50913464,50575000,0,65200950,1
1391213,164219,3343851,67663,3246768,64636,81413,1033347,181352646,5927,692976,1143,1638,143771132,131,1.13,0.52,0.5,0.03,0.0,49269040,47965000,999000,63960054,1
34745872,189551,55552694,101212,55696800,104725,111125,1724275,369587374,11008,35075107,1477,3287,311644772,133,2.33,1.04,1.0,0.06,0.0,103517137,101215000,2004000,118079573,1
850961,135884,3284099,61000,3301074,61105,93070,828892,94643125,2959,231971,212,720,93032454,127,0.59,0.23,0.22,0.02,0.0,28481954,26188000,2014000,42896794,1
3033198,453027,210634591,276833,210537412,281804,160464,5399199,1459802529,39422,3143531,5385,10753,2006461649,131,8.61,3.76,3.6,0.22,0.0,395794097,393405000,1996000,410289779,1
3503962,445153,210660661,273124,210678497,266321,201523,4882065,1435023446,37295,3053354,4401,10501,1976479216,131,8.64,3.89,3.73,0.21,0.0,386609110,386113000,0,401303296,1
694580,123353,3323147,71909,3298273,70404,99996,1073340,176780667,6270,736360,1086,1688,137371699,127,1.09,0.49,0.48,0.03,0.0,47953957,47734000,0,62263900,1
1429218,211519,3652511,111917,3764895,117344,122990,1902912,430990149,11858,1189920,1834,3128,59724708,132,2.63,1.22,1.18,0.06,0.0,116434613,115124000,1001000,130818441,1
2424483,141559,5972883,134652,5950885,143939,114123,1399245,274210952,9412,2843347,1478,2391,51054984,129,1.71,0.78,0.75,0.04,0.0,74479206,74139000,0,88872811,1
33436273,497224,123700608,339590,123735088,333485,155883,5596155,1573410846,41887,33475582,6228,12026,1217586517,131,9.44,4.24,4.07,0.24,0.0,426467260,423195000,2994000,440881005,1
1293230,166805,3316050,66570,3196436,65321,86700,1026918,180467133,5737,807186,1065,1719,111129193,131,1.11,0.51,0.49,0.03,0.0,48878493,46504000,1978000,63522597,1
1116532,140781,4924310,525813,4765943,526322,100448,707609,74165105,2999,460530,860,994,85473397,132,0.46,0.21,0.21,0.01,0.0,19861899,17684000,1964000,34381725,1
1267512,156187,3361796,69572,3283359,66701,87197,1036254,177979806,5482,735363,1052,1774,117016479,132,1.12,0.51,0.48,0.03,0.0,48624058,47293000,1006000,63041295,1
1077444,143567,3314315,65968,3231770,68432,92139,1012186,172737635,5607,683945,813,1668,103844602,127,1.02,0.45,0.43,0.03,0.0,47349615,46977000,0,61779870,1
9355572,143571,2286401,53355,2011400,54119,97710,677258,53179687,1867,9704716,206,373,55382778,131,0.32,0.15,0.14,0.01,0.0,13397536,11992000,999000,27750286,1
10247958,742611,7436692,70068,7717466,67133,580430,2097325,115736726,13903,10361824,16318,5002,116349963,3857,0.72,0.29,0.27,0.02,0.0,34652479,28330000,6070000,49203536,1
728217,131844,3431464,71094,3342438,67762,103699,1051855,173893564,6109,670828,1093,1640,132111940,133,1.1,0.51,0.48,0.03,0.0,47495986,47268000,0,61827651,1
2065951,290578,4166673,164537,4223454,164116,135198,3002480,738505661,20680,2589689,2436,5170,101798542,132,4.56,2.07,1.99,0.11,0.0,199149651,197720000,998000,213627703,1
1094847,162860,3508737,79097,3516416,79330,101450,1077578,189241862,5381,355046,872,1824,127663906,129,1.15,0.49,0.47,0.03,0.0,53746493,51477000,1979000,68359406,1
724006,140655,3294800,69175,3277227,66866,85784,1043967,178373980,6206,762334,998,1857,110308198,128,1.07,0.47,0.45,0.03,0.0,48396250,48170000,0,62505794,1
3799808,510583,210835279,303469,210867139,295967,172141,5435292,1537310620,40427,3220089,5564,11571,2222276380,326,9.03,3.98,3.81,0.23,0.0,414969961,412587000,1998000,429347640,1
2241914,302037,4461212,160801,4454812,160989,240026,2829869,666567760,17625,1238804,2058,5032,100205298,133,4.14,1.93,1.86,0.1,0.0,180166136,177893000,1998000,194679808,1
858177,150308,3304930,67634,3186007,69103,97145,1007839,174639180,6013,794830,1178,1942,133864408,132,1.09,0.51,0.49,0.03,0.0,47220919,45995000,999000,61695860,1
833486,140078,3594759,63647,3722185,63411,109151,865670,106497597,3140,230453,208,689,76639074,132,0.66,0.3,0.29,0.02,0.0,29011320,27726000,990000,43610949,1
893806,142359,6294039,153127,6139799,109082,107572,599700,88069715,3300,645669,1020,1214,111755001,126,0.6,0.25,0.24,0.01,0.0,23747227,23524000,0,37701406,1
63203879,454347,47055686,1744916,49175164,1509935,152448,1282784,124258977,5304,71177795,2417,2861,236477809,524,0.83,0.4,0.39,0.02,0.0,33906575,30707000,2971000,48324226,2
68886730,828147,45478134,1636047,44928143,1472098,226176,1617037,133027153,8536,71540355,1798,2161,251660520,916,0.88,0.42,0.41,0.02,0.0,36021558,35727000,0,50195080,2
78724485,638401,46729705,2006196,43443668,2115729,229451,1901649,126491882,8894,82414773,4399,2094,285754441,914,0.85,0.41,0.39,0.02,0.0,34187815,31883000,1992000,48952552,2
209172217,1004690,129246009,1427664,128343297,1413039,384200,2848864,263671685,14412,206843500,10537,2405,634138977,1300,1.82,0.92,0.89,0.04,0.0,72135227,69727000,2021000,86835060,2
199395866,686320,123300651,1406187,120565952,1366469,261475,2196082,245850864,15911,191131184,6461,2935,599170879,907,1.67,0.83,0.81,0.04,0.0,67332397,65003000,2000000,82099127,2
195063972,496993,121041451,1474737,120619063,1462540,216050,1954023,253119084,10176,194152112,11538,6002,590837851,1003,1.75,0.88,0.85,0.04,0.0,68476613,66127000,2003000,83170233,2
196225345,413492,119878898,1425558,119494032,1565088,169072,1624457,243126160,8911,192759109,13068,2803,588005284,518,1.69,0.85,0.83,0.04,0.0,66033928,65707000,0,80548680,2
194193779,439730,121344611,1422049,121159356,1631804,170620,1654319,245533781,11478,194750244,12389,4030,584708330,519,1.68,0.85,0.83,0.04,0.0,66205320,63888000,1996000,80815016,2
80721092,446418,52674173,1500703,52702755,1709549,161978,1243382,141940667,4626,88109230,1535,2026,277713382,525,0.93,0.46,0.45,0.02,0.0,38497542,36110000,2006000,53126321,2
193878374,461988,121952704,1416909,122223297,1575051,149475,1564203,243813852,7176,192015015,11297,3775,579517957,520,1.67,0.84,0.82,0.04,0.0,66162689,64795000,1012000,80934269,2
196714403,399064,122177516,1400074,121517039,1372946,183571,1660380,248147142,11804,191372209,14890,2619,591220717,517,1.7,0.86,0.84,0.04,0.0,67441966,64999000,1999000,82053997,2
208567079,455438,128260816,1518099,128516647,1587455,163590,1876601,261618850,9169,197884412,9784,3515,594646585,520,1.82,0.92,0.88,0.04,0.0,71517379,70110000,1001000,85886209,2
193599031,449466,119046677,1472436,119575206,1494362,169477,1668758,249794396,8017,196746386,8936,2875,587252437,518,1.73,0.87,0.84,0.04,0.0,67498769,65167000,2005000,81770188,2
66000545,469407,44554870,1718970,45405480,1539027,156533,1177083,130942037,6562,73307128,1726,1795,247829467,525,0.82,0.38,0.37,0.02,0.0,36365881,34052000,2003000,50802497,2
321523327,632193,227373832,2153379,228455085,2134674,157168,2520400,454799011,13968,333363273,10106,6468,1232810980,539,3.12,1.59,1.55,0.07,0.0,122806301,119427000,3010000,137337495,2
195174866,504430,121990455,1476772,121135205,1468936,301551,2217382,257545631,10631,193930668,16343,5533,595884958,1002,1.74,0.88,0.85,0.04,0.0,68817723,64331000,4020000,83471623,2
123454572,6888881,81714109,1742348,83535520,1730827,1168875,7532476,338473161,103162,140251707,12822,11547,418804700,2869,2.18,1.01,0.98,0.06,0.0,91773113,84431000,7035000,106406524,2
191475162,453264,120207349,1471862,120384846,1451732,189297,1788916,253365255,12181,198012174,14203,2670,582211680,516,1.74,0.87,0.84,0.04,0.0,68631958,67233000,1003000,83300280,2
72601002,713610,47558980,1829923,47177231,1645597,238326,1783282,124205743,13006,73391824,3216,2006,251989602,914,0.84,0.41,0.4,0.02,0.0,33839750,30512000,3051000,48258514,2
67754620,433236,46745552,1862091,48471277,1684559,152575,1279322,124599933,5846,72357181,2993,3016,238529419,525,0.79,0.37,0.36,0.02,0.0,34507999,33188000,1005000,49145582,2
73752643,778868,48698828,1875940,46462013,1658328,217078,1879199,125164308,13796,72912746,5586,1750,254013142,915,0.86,0.42,0.4,0.02,0.0,34421521,31155000,3015000,48813084,2
70542392,826127,44472306,1718575,43789420,1532712,219468,1837392,130106297,8383,72514561,2050,1788,255710569,917,0.86,0.42,0.41,0.02,0.0,35304961,31971000,2997000,49773815,2
192275749,430123,120592200,1471348,120454018,1459416,195764,1733023,253399412,12159,199237397,12878,2487,584929317,516,1.75,0.88,0.85,0.04,0.0,68337004,67970000,0,82711252,2
197735626,900897,131705943,1767001,132535058,1748303,252327,2576257,270058871,11598,207476178,11349,5888,622473944,949,1.83,0.93,0.91,0.04,0.0,72237059,68844000,2993000,86564765,2
191082398,447919,120083607,1475560,120785026,1472646,193411,1673631,253899895,11974,198577767,10641,2892,580630093,516,1.76,0.89,0.86,0.04,0.0,68129002,63832000,3989000,82770530,2
65609640,458690,48818513,1601903,49067493,1474474,153987,1196242,133729548,5825,71201690,3122,2870,236939757,523,0.87,0.4,0.39,0.02,0.0,36586888,36238000,0,51242335,2
191506483,752828,121300836,1413960,121308325,1399048,225567,2103802,250321170,8693,191696010,12872,5261,582116771,907,1.72,0.87,0.84,0.04,0.0,67730183,64431000,2973000,82568497,2
117155033,2249816,79381227,2151796,78873831,2126410,1365357,7017317,320200123,49209,127347353,101853,43951,436686119,2526,1.37,0.74,0.73,0.03,0.0,42936638,36949000,2995000,58675549,2
69318993,493091,47910090,1576646,46558321,1699090,167385,1368002,134545633,8485,73719879,5017,5473,250095039,1010,0.87,0.41,0.4,0.02,0.0,36798414,34431000,2025000,51306188,2
68901859,802280,43253810,1670761,44448590,1515648,228716,1781108,129753988,8115,72811246,1666,1947,252474557,914,0.84,0.4,0.39,0.02,0.0,35075574,31784000,2979000,49454882,2
195612325,499302,122387896,1415874,121790960,1381970,174530,1839891,248874228,9989,190634323,10074,5899,591355219,1003,1.7,0.86,0.84,0.04,0.0,67316917,63998000,2999000,81691756,2
195724075,909054,121798314,1495664,121898366,1485726,283650,2595183,263257499,13240,193788185,21973,10074,584626488,1904,1.84,0.93,0.9,0.04,0.0,71072885,67776000,2990000,85536274,2
68759432,418619,43551555,1743408,45668935,1583834,163680,1330242,127436411,7070,73135212,1649,1810,249613037,525,0.83,0.4,0.4,0.02,0.0,34548598,34292000,0,49019745,2
66028510,448375,45912896,1805188,48433470,1640759,154157,1284175,126349831,5531,72803625,3474,2892,240053999,523,0.86,0.4,0.4,0.02,0.0,34100715,31728000,1983000,48578553,2
65438152,539290,46095171,1751846,49350765,1528951,137691,1350106,133426028,5525,75116518,2288,3079,279745756,526,0.92,0.45,0.43,0.02,0.0,36190727,33976000,1941000,50872501,2
258303149,7835069,166285709,1261406,163437009,1528776,2624288,12120971,502939185,263550,252645090,21383,11792,781592105,2665,3.41,1.65,1.58,0.1,0.0,136055521,130632000,4985000,150953431,2
195503115,425723,121555788,1418176,121782986,1559494,185918,1673997,245609071,11906,194390530,14283,3868,589106907,517,1.7,0.85,0.82,0.04,0.0,66307202,62929000,2996000,80758000,2
195624013,412148,119558203,1409024,119144982,1362093,182618,1693946,248237104,8940,192008882,12699,2725,596763511,519,1.71,0.85,0.82,0.04,0.0,67428415,66186000,1002000,81984808,2
64607907,488927,48022571,1597789,49315228,1453242,160567,1173529,134316468,6397,71405249,3132,3271,236226043,522,0.88,0.43,0.42,0.02,0.0,35929576,34589000,1017000,50651180,2
65315489,496805,46652605,1587673,48744662,1447016,170704,1228700,134285793,6936,73406346,1683,2710,238430762,523,0.89,0.44,0.43,0.02,0.0,35917882,34640000,989000,50588292,2
195480079,452591,121239908,1468190,121250239,1597446,199370,1785171,250419932,11442,196150144,11158,2637,588948715,518,1.72,0.87,0.84,0.04,0.0,66571845,63216000,2963000,81204475,2
98083396,243402,61088729,1338786,54697183,1714868,143772,1170947,141852869,5104,94439525,1627,1871,302174257,333,0.95,0.47,0.45,0.02,0.0,38479352,37146000,977000,53056751,2
192832419,430427,118582065,1451192,118635454,1434189,197696,1759065,248383901,9498,194439220,9087,3138,592203748,521,1.68,0.83,0.81,0.04,0.0,68095041,66789000,1011000,82235597,2
191850525,757238,121278123,1417755,121387965,1406103,216189,2145128,251449596,8690,192254395,15506,5268,584239080,911,1.72,0.88,0.87,0.04,0.0,67423974,63102000,4006000,82172106,2
192599445,869144,122883234,1493081,122308006,1448108,331806,2587816,260611033,14272,193764809,17892,10284,581249548,1905,1.83,0.91,0.88,0.04,0.0,70632003,64436000,5947000,85125555,2
199247138,663185,125669722,1136903,125308005,1336565,192826,2189029,247361657,15879,185502989,8776,5952,580944870,908,1.71,0.86,0.84,0.04,0.0,66837253,66549000,0,81324879,2
68402242,423866,46500897,1861186,48047299,1675436,167293,1326854,124778305,5580,73086503,3159,3004,241664942,525,0.82,0.4,0.39,0.02,0.0,34190146,32813000,1025000,48626697,2
66562977,444792,49597464,1586591,49638486,1488360,254147,1316085,136683503,6080,70812546,2967,2853,236559776,523,0.9,0.43,0.4,0.02,0.0,36883329,35299000,1008000,51526045,2
67550809,424617,47797074,1499929,46918809,1704550,152332,1211928,127206584,7502,75790134,1639,1716,241859888,524,0.83,0.37,0.35,0.02,0.0,36887181,36598000,0,51356931,2
250268313,7870968,153111544,1498226,152302832,1790820,2516537,12000762,485349293,227483,252258883,24959,12218,769674215,2667,3.24,1.57,1.51,0.09,0.0,130945643,123640000,6979000,145653413,2
195209688,505928,121793041,1412748,121329479,1421022,173507,1879530,250816472,10228,191859930,11819,5926,593223583,1003,1.72,0.88,0.86,0.04,0.0,67180876,63904000,2995000,81777298,2
198685289,847539,119522444,1484279,117208309,1464284,329180,2589911,255639093,10572,196317422,12268,2973,605094717,912,1.81,0.9,0.87,0.04,0.0,69105648,65730000,2987000,83304829,2
194211052,444200,121438770,1473873,121524251,1618188,167714,1672507,246764533,11630,195408862,14896,2918,585366631,516,1.71,0.87,0.84,0.04,0.0,66471797,65091000,1001000,80964655,2
195471827,736087,119098105,1468723,117685519,1471403,291190,2173239,250666085,10034,195215654,5865,3084,592668364,910,1.72,0.87,0.85,0.04,0.0,67510808,64226000,2964000,81834043,2
197727387,379801,120229751,1429471,118363715,1583491,165406,1665913,241178760,10072,192391403,12525,2726,594012792,522,1.7,0.87,0.84,0.04,0.0,65561338,63255000,2008000,80116835,2
67938650,746903,50605717,2496136,51642037,2169825,248680,1938499,158901061,8143,83305679,1470,2124,277713957,915,1.06,0.52,0.51,0.03,0.0,43189234,40863000,1945000,57883770,2
66571569,469352,46959666,1839614,48704272,1653710,144877,1299326,126341427,5820,72514264,3628,4108,240458675,523,0.82,0.39,0.37,0.02,0.0,34799898,32504000,1969000,49180373,2
192929356,467867,118894191,1412787,119213770,1521358,164943,1686395,245554886,7872,194407324,12809,3156,590899428,519,1.67,0.83,0.81,0.04,0.0,66758050,64486000,1984000,81473020,2
194817295,426174,122084661,1459683,122573204,1559959,162510,1632972,246908648,11322,195400440,12114,2636,585591569,517,1.71,0.86,0.83,0.04,0.0,66719577,65431000,991000,81355552,2
80408579,421795,68651491,1483160,68369652,1441518,157689,1447447,160903799,6617,81633726,3696,2815,331194105,520,1.1,0.54,0.53,0.03,0.0,43543120,43254000,0,58135632,2
199126830,713690,122763423,1438798,120664724,1431545,283824,2172084,251631513,15971,190681679,11105,2447,591064732,910,1.76,0.89,0.86,0.04,0.0,68296598,64877000,2994000,83034173,2
65175598,504491,46680291,1554341,49557639,1428320,173398,1256847,134907624,7734,72146417,2169,1926,240428931,522,0.91,0.43,0.42,0.02,0.0,36252895,33999000,1999000,50474064,2
68933808,762722,43039363,1629495,44494792,1490183,222487,1844227,130283734,8001,73722094,1463,1863,252595233,914,0.87,0.42,0.41,0.02,0.0,35019869,30767000,3970000,49637576,2
192697275,946681,123126994,1485524,121912750,1445533,273689,2550347,258066175,14698,192310668,18574,10028,579389191,1905,1.81,0.91,0.88,0.04,0.0,70645901,67299000,3013000,85296002,2
66674969,461689,43151660,1657725,45793549,1531916,157355,1388089,129754399,6896,73383776,1768,1891,247231097,525,0.86,0.42,0.41,0.02,0.0,35046974,33756000,992000,49705916,2
188967363,497416,120265197,1479970,120439041,1441543,177929,1785735,255227366,7960,196715752,14688,3487,578871576,521,1.79,0.9,0.86,0.04,0.0,69227780,67932000,999000,83971361,2
193702683,443503,121264057,1397793,121521502,1384661,175585,1703942,250373082,10997,193239242,15957,3835,591857380,518,1.72,0.86,0.84,0.04,0.0,67528892,64269000,3012000,81978239,2
123211068,6768122,83529844,1746813,85295097,1557856,1263873,7914890,334271490,101337,136253051,14724,9711,419179318,2867,2.2,1.05,1.01,0.06,0.0,90202772,82907000,6992000,104761402,2
77791003,1001293,52477308,1429811,50188812,1412745,594537,2178958,148720844,12728,72630531,15675,10196,274831348,3087,1.01,0.49,0.47,0.03,0.0,40393762,34078000,6013000,55007581,2
133202832,6565399,92256141,2037908,92444172,2176512,1207551,7865226,362976746,77559,136180908,7945,9246,455946335,2869,2.36,1.11,1.08,0.07,0.0,98033212,90707000,7055000,112462064,2
194888673,424270,122083978,1459616,121824532,1441879,178234,1712149,246082217,11684,193934727,10297,2744,590282942,517,1.67,0.83,0.81,0.04,0.0,67088201,64841000,2026000,81571873,2
196515820,707911,119551155,1438351,117534581,1428316,291814,2228360,251276106,10490,193909439,8461,3147,597953114,910,1.73,0.88,0.85,0.04,0.0,68019519,66749000,1011000,82310634,2
118232183,6772784,79690914,1515773,79118535,1629040,1116260,7649708,328256227,90859,127737255,13161,12762,404799116,2673,2.11,1.0,0.97,0.06,0.0,87925455,81550000,6040000,102413010,2
69417607,915359,49622626,1549760,49420777,1540175,273357,1971304,147248382,10057,73822137,12096,8312,253570115,1912,0.99,0.49,0.47,0.02,0.0,39408893,33074000,6013000,53958364,2
68268678,429800,43177519,1757377,45824942,1604371,150390,1333824,126885241,6857,73419638,1800,1723,248272833,526,0.85,0.41,0.4,0.02,0.0,34596554,33331000,980000,49198873,2
187977186,475349,121621253,1478795,122146218,1491775,153868,1612973,251602197,8309,195545891,11696,4980,570632999,520,1.75,0.88,0.86,0.04,0.0,67998246,64768000,2944000,82715487,2
193488117,741116,122143630,1418595,122218330,1412578,209856,2100917,248240328,8573,191954631,13650,5039,580396957,909,1.71,0.86,0.84,0.04,0.0,67158849,66837000,0,81715307,2
66200830,495290,46517785,1585407,49601909,1452379,156713,1193872,132892431,8474,71949071,1715,1719,239729341,524,0.92,0.45,0.43,0.02,0.0,36111067,33771000,1986000,50569275,2
77322497,1380835,56376709,3174443,56431293,3175203,328462,4083864,211311694,9573,78279764,7319,5432,328705852,1008,1.43,0.71,0.68,0.03,0.0,57709430,54256000,2959000,72354655,2
119158651,422930,90535065,1198753,80681220,1596957,181558,1659062,166144120,7487,101900177,1100,1497,366783793,528,1.09,0.53,0.52,0.03,0.0,45090019,43870000,997000,59436800,2
147403308,5186968,100607986,2586157,103259258,2586772,2387728,11388885,449971254,304088,160552285,26946,18747,492590929,4166,2.99,1.39,1.35,0.09,0.0,121973064,116720000,5031000,136131390,3
131830047,4855736,92064699,810035,92385865,817775,1575101,10078097,360983594,190248,129782554,11908,10367,413216289,2870,2.4,1.11,1.06,0.07,0.0,97966496,95692000,2014000,112274175,3
145634373,4927682,100366319,856453,102124083,840289,1509684,10071550,389382191,158790,157538903,14735,10374,487753517,2481,2.58,1.2,1.16,0.08,0.0,105070253,101871000,3025000,119524370,3
142714051,4976999,102524126,831067,106928166,810126,1453374,9922329,381361905,170003,150515008,13687,10657,473623804,2479,2.55,1.19,1.14,0.08,0.0,103172075,99922000,2997000,117680404,3
146394626,5122757,100900129,859041,105595078,847898,1691366,10254927,395059924,164590,156326313,20303,10848,483685504,2480,2.63,1.2,1.16,0.08,0.0,103938681,101596000,2011000,118474521,3
190204864,5095657,126613737,1320779,129206732,1304865,1595827,11890037,893978733,373714,207078319,550104,214517,640163817,2673,5.77,2.7,2.61,0.15,0.0,242116394,205765000,36134000,256685750,3
406344880,5074119,256768480,1523380,257927493,1528034,1645114,13006070,1138856065,396605,410806785,256206,216209,1260996413,2472,7.5,3.59,3.47,0.19,0.0,306928238,240595000,66163000,321378657,3
332746768,5107761,209507036,1412571,213229310,1389058,1563417,11262545,587088951,169902,342669259,24465,12942,994844528,2669,4.02,1.97,1.91,0.11,0.0,158963079,153711000,4990000,173521247,3
407409847,5117709,257399115,1587082,257618213,1589857,1635122,13062529,1117007782,384163,409942262,28157,216492,1263452530,2472,7.38,3.53,3.4,0.19,0.0,301968952,249619000,52129000,316412782,3
247714983,9601376,175550909,3649498,173479619,3699278,6499453,26170193,1212624377,914419,237673117,29576,230840,830269626,5018,7.88,3.64,3.5,0.25,0.0,328128713,270905000,56980000,342936199,3
415108773,9205149,270114737,1963294,271655737,1962524,5489381,22917083,1354866389,867862,420924444,188627,227815,1299224825,4817,8.94,4.19,4.04,0.26,0.0,365352945,300188000,65040000,379975694,3
136300798,4844422,98699140,812984,102111996,823033,1474193,10039278,372397228,167547,140728827,18139,10464,432264160,2479,2.47,1.17,1.13,0.07,0.0,100385454,92110000,8009000,114835667,3
340773755,5151304,208389555,1066344,210441484,1047418,1647332,11253464,586389422,173440,352514310,25378,12662,1024362606,2863,3.99,1.95,1.89,0.11,0.0,159148222,156903000,2011000,173862708,3
403849998,5083057,254178276,1524621,254729284,1532302,1636871,13308231,1120153922,386362,407175890,598357,216920,1232266957,2474,7.36,3.54,3.42,0.19,0.0,303003059,231899000,70969000,317401645,3
413234630,5122188,258853189,1531238,259132061,1531523,1638426,12889494,1113203162,383453,416037508,31307,215701,1269462244,2471,7.4,3.54,3.42,0.18,0.0,300740414,244439000,56100000,315252554,3
332528997,4975147,212659847,1022825,214138865,1025895,1555054,10999338,576871299,183583,338502443,24711,12095,983705410,2667,3.95,1.91,1.85,0.11,0.0,155616592,146352000,9021000,170338150,3
142844511,5115446,101196213,835914,105437125,818727,1529799,10225352,382590416,166781,152873968,13157,11020,475923902,2869,2.55,1.19,1.15,0.08,0.0,103773230,94545000,8956000,118340007,3
149974064,5172869,98521312,846940,100025680,841544,1743417,10367268,388448683,159160,162606622,15292,11199,504793802,3260,2.6,1.22,1.18,0.08,0.0,105511851,96210000,9019000,120274101,3
423533383,11130762,294454084,4140327,302636034,4194750,5217438,24781358,1120545978,268628,436995962,246558,170987,1398995230,5321,5.54,2.82,2.74,0.15,0.0,186470856,179164000,7006000,202759641,3
143625720,4999903,100377435,830992,105017964,815876,1447139,9774889,380909000,168040,153458077,14999,11528,474416309,2478,2.55,1.19,1.14,0.08,0.0,103406691,96086000,7006000,117840690,3
413268546,5512365,267118143,3136001,271123963,3114561,1669521,14182709,1158179512,399141,411636769,26265,221255,1260218078,2669,7.67,3.66,3.54,0.19,0.0,312715035,245589000,66888000,327314645,3
148159744,5200312,98164030,852588,102624430,841609,1820418,10364214,386772838,165419,159704442,14109,12639,498899861,2871,2.59,1.21,1.17,0.08,0.0,104465154,100095000,4003000,119088771,3
410924913,5160943,252791650,1725111,251678201,1732995,1806041,13359417,1118963568,387815,424491908,30267,217646,1262855752,2863,7.37,3.45,3.33,0.19,0.0,302905945,235751000,66929000,317415739,3
202274312,4993193,134732368,1296356,135388056,1305910,1626041,11941146,896686857,386997,205549926,20429,210868,675038484,2477,5.79,2.72,2.61,0.15,0.0,239879840,175494000,63816000,254334855,3
183369819,5084984,128283646,850464,132689387,836006,1579017,10231948,436240805,173101,188242867,18409,13184,588163145,3259,2.89,1.36,1.32,0.08,0.0,118186004,113913000,3996000,132803802,3
412657014,5548860,257129133,1778990,258273652,1790943,1914821,13621554,1153137735,397305,417247346,286997,410990,1265160400,2861,7.59,3.64,3.52,0.19,0.0,309976446,242759000,66933000,324636431,3
143994421,4998015,98866367,847136,103380234,835337,1560273,10027809,386996936,161190,156483052,15287,10676,482485072,2479,2.56,1.21,1.17,0.08,0.0,104360696,97055000,7003000,118921347,3
446449568,5188488,283029958,1615611,283933927,1616166,1687838,13276361,1193467720,390537,450158695,454559,215778,1376821100,2471,7.92,3.78,3.65,0.2,0.0,323499621,247180000,76055000,338277793,3
404342303,5064041,268631277,3179944,268916355,3169355,1671319,13562847,1174039229,396587,410187120,31311,217011,1267994135,2472,7.76,3.73,3.62,0.19,0.0,316571243,253205000,63051000,331115912,3
172013117,5189400,118100842,811657,122032568,811176,1682342,10625442,424659828,170119,181462874,17415,11085,555967709,3263,2.82,1.34,1.29,0.08,0.0,114892369,108623000,5979000,129534525,3
384216951,5106440,241668397,1543975,242542043,1550891,1732983,13162785,1088662311,398123,388302896,26867,217183,1179133353,2473,7.19,3.45,3.33,0.18,0.0,293715875,231462000,61856000,308456759,3
143502089,4999691,99385699,852060,103779029,836082,1533081,9895523,386969980,165576,156076828,15970,12437,481723934,2478,2.63,1.21,1.17,0.08,0.0,104322695,99028000,5001000,118745254,3
143914231,4969931,100719751,824416,104910594,802129,1390164,9890673,380560845,166900,150967852,16869,10841,474563143,2479,2.58,1.19,1.14,0.08,0.0,103251522,99952000,2998000,117577395,3
408631940,5830399,252793926,1628689,253677185,1630424,1794332,13552444,1132256949,396727,426812620,427213,614658,1262805814,2864,7.56,3.58,3.45,0.19,0.0,306086594,238805000,66945000,320633147,3
412803694,5184881,258458939,1567279,259349160,1567762,1732163,12935964,1121930706,385782,414527682,25074,216997,1264503698,2472,7.4,3.55,3.43,0.19,0.0,302510573,233388000,68819000,317005622,3
126727614,4742444,102262708,2429150,103235017,2452800,1516663,10413666,401610155,194874,123220802,12814,11808,426990345,2480,2.65,1.22,1.18,0.08,0.0,110969441,103713000,6980000,125545317,3
126482410,4845092,91589930,1020839,93256417,1028653,1449479,9977494,365959132,174158,129060125,14004,7484,405692861,2479,2.41,1.11,1.08,0.07,0.0,100079494,95743000,3989000,114728679,3
142382539,4938507,102611279,829451,107235769,813359,1603979,9907322,379726321,174157,148789426,17997,11772,469864611,2478,2.53,1.19,1.15,0.08,0.0,102759454,95455000,7033000,117632493,3
469668944,10442237,307329555,4352177,309121345,4350345,6175437,25842447,1506010964,1006589,474675013,423511,224771,1471861141,5599,9.96,4.73,4.56,0.29,0.0,406299059,337940000,67988000,421081871,3
129186366,4826211,90584267,829255,91406268,837233,1658003,10555223,367962071,187981,130801282,13610,9447,415521840,2479,2.41,1.14,1.1,0.07,0.0,98107321,89849000,7986000,112806734,3
404484759,5127608,253562037,1531362,253793659,1531493,1591666,13238109,1116150890,387267,407421562,445969,217375,1232053973,2473,7.42,3.52,3.4,0.19,0.0,302522732,237210000,65057000,317217697,3
202125906,4965086,134915127,1295270,135698342,1307351,1544642,11711219,886566534,387239,205294298,19151,209013,674136443,2477,5.76,2.7,2.61,0.15,0.0,239485426,174082000,65030000,253920563,3
143060555,5017438,98653357,842166,103343598,829125,1526713,9881337,382948996,162782,157067559,15184,11236,482951648,2477,2.49,1.15,1.11,0.08,0.0,104400411,96102000,8008000,119018404,3
201404547,4983220,134471030,1318970,135075895,1323775,1572681,12137462,910420418,379716,204689981,401510,213119,671025856,2477,5.88,2.77,2.66,0.15,0.0,246428391,190121000,56035000,260867467,3
382879929,6621086,251679730,3027797,250541349,3075702,3010658,15385335,718424111,415645,385385362,34257,20910,1173625349,4035,4.89,2.31,2.24,0.14,0.0,196813551,188530000,8022000,211321526,3
161374991,5370428,115349971,841331,120253561,870333,1886922,10708271,411392689,187700,166624992,24462,17029,548002167,4434,2.75,1.3,1.26,0.08,0.0,111141190,100728000,9973000,125831899,3
142731115,5054797,98405301,848692,103138590,828692,1521120,10016116,384974458,158506,158227334,13539,9147,485739817,2479,2.58,1.22,1.17,0.08,0.0,104209876,98810000,4990000,119002520,3
151871325,4885655,99394680,844880,99012055,862812,1699627,10528082,391032540,176257,164048735,12366,11745,511232534,2478,2.55,1.16,1.11,0.08,0.0,107739030,101452000,5967000,122501886,3
411062526,5054009,258557634,1528631,260747342,1537938,1758517,13370224,1117613941,406036,415483290,32077,221987,1261994460,2667,7.37,3.48,3.36,0.19,0.0,305507254,230182000,75059000,320169421,3
196978059,5181578,134762065,3000434,135136823,3003403,2325317,12465546,916833594,517597,199533789,79718,320553,667242898,3257,5.95,2.76,2.66,0.16,0.0,246831888,179365000,67136000,261310858,3
414776079,5301464,257680184,1789107,257859729,1783507,1751373,13372824,1158718582,391109,418473508,202313,486371,1270855331,2861,7.68,3.68,3.55,0.19,0.0,312162708,243695000,68194000,326781494,3
202277057,5056848,134612388,1309360,135490408,1331387,1664492,11929770,912692741,391359,204740258,367734,214519,672881924,2478,5.9,2.76,2.66,0.16,0.0,247357592,171085000,76037000,261716198,3
145942195,4975383,100613017,845918,104874091,831729,1491762,10208669,385633865,163542,156048175,14784,11429,481555339,2479,2.56,1.21,1.17,0.08,0.0,104421232,95089000,9008000,119029467,3
131396222,4786037,91398551,822672,92190938,829811,1530947,10347144,359814878,186299,130409072,14178,7812,414189821,2478,2.37,1.11,1.07,0.07,0.0,97348491,94058000,3001000,111824507,3
128958920,4941139,92327688,803584,93732791,813986,1613013,10204241,364659137,169357,129483653,15518,10608,417686233,2676,2.47,1.14,1.09,0.07,0.0,99044838,93755000,4987000,113574782,3
157553208,4711429,107708098,838457,107826488,855808,1658005,10315829,378612846,181058,149131213,12638,14270,510493437,3260,2.52,1.16,1.11,0.08,0.0,103405523,97226000,5952000,117849629,3
195712619,5127776,129096816,1312949,132954693,1312652,1741773,11906327,903555867,377580,212011446,420981,215559,664865754,2869,5.85,2.69,2.59,0.16,0.0,244657977,186318000,58099000,259397034,3
406185416,5090685,257664769,1536397,258090017,1542896,1710141,12936628,1121644071,389984,409482577,27332,217258,1264451011,2474,7.41,3.52,3.4,0.19,0.0,303132787,253870000,48974000,317843181,3
143215875,5014455,100677190,835061,105296457,816297,1454928,9830260,383084117,166319,153671039,15016,12295,474236719,2479,2.54,1.19,1.15,0.07,0.0,103668105,95434000,7952000,118365262,3
190023453,5096526,131500289,2601280,136422906,2557355,2368466,11347280,495726958,308473,203531482,16303,14747,620507977,3260,3.35,1.57,1.51,0.1,0.0,134452183,125146000,9010000,149097174,3
143252074,4996060,101306246,835920,105554947,814004,1429404,9832108,382859695,167481,152454869,13324,11019,475010906,2478,2.56,1.2,1.16,0.08,0.0,103646416,99352000,4014000,118110621,3
203154269,5091953,134710655,1325550,135300832,1321312,1649061,11924565,897797678,377773,204845016,607164,213917,674597251,2476,5.87,2.77,2.67,0.15,0.0,244341058,187088000,57027000,259028971,3
411940407,5067675,258065755,1513367,259150634,1519036,1632345,12962981,1132227211,402475,415635320,487481,216904,1264433347,2472,7.47,3.55,3.43,0.19,0.0,306768882,245394000,61098000,321434408,3
407941797,5159077,257260808,1529281,258188237,1537624,1718660,13159544,1126083317,402810,410204532,577831,216275,1265910720,2472,7.46,3.6,3.48,0.19,0.0,303895868,245497000,58117000,318553777,3
141041073,4979284,99705384,829675,104366083,811206,1481506,10101054,383357600,166629,153495422,15927,11199,471344403,2479,2.55,1.18,1.14,0.08,0.0,103300148,100995000,1999000,117785168,3
413943538,5091317,258662521,1539307,259051811,1533629,1648454,12966839,1111278302,383481,416293047,31547,216579,1268079124,2472,7.42,3.51,3.38,0.19,0.0,301394264,242276000,58824000,316055161,3
145088689,5078359,99316377,846526,105063414,834639,1635860,10157152,386750965,164895,157102684,17371,12034,484764889,2870,2.58,1.19,1.15,0.08,0.0,104794042,98435000,6026000,119557069,3
135982414,4932672,111071959,843428,112169822,858110,1591532,10625404,395706367,161790,146935683,17725,11327,541033495,2475,2.64,1.25,1.21,0.08,0.0,107098413,103743000,3021000,121550073,3
201683301,5036036,135361948,1308182,135956091,1316054,1579916,11932944,891825210,381420,204843721,19477,211176,672746475,2478,5.74,2.7,2.61,0.15,0.0,240562865,186190000,54055000,255233854,3
190362630,4944600,127349665,1301661,128308185,1314438,1561850,11954012,872950346,397711,193233598,476191,215256,645260488,2478,5.68,2.68,2.58,0.15,0.0,235314113,180023000,55007000,249809091,3
360939531,5055236,226336572,1047724,227175017,1052959,1705006,11540906,611248964,185214,367785043,27332,14675,1098236530,2927,4.17,2.02,1.96,0.11,0.0,165709520,157360000,7967000,180355269,3
404312324,5137772,254937290,1533276,260335744,1532721,1641331,12977870,1119993017,385440,417482072,368193,221048,1249120831,2677,7.41,3.56,3.45,0.19,0.0,301897771,247617000,53916000,316412463,3
404217521,5051245,268238479,3162344,269237658,3176501,1720786,13615486,1189811459,414665,410872271,596605,218324,1267195930,2471,7.86,3.79,3.67,0.2,0.0,320214356,261919000,57982000,334932337,3
154488600,4977920,101661033,861866,100674605,875215,1794101,10984760,397341809,174728,166511628,20980,12532,520869289,2479,2.67,1.2,1.16,0.08,0.0,107156401,99894000,6992000,121602690,3
201714115,4968602,135225123,1307636,136073152,1312739,1534659,11786669,889848405,388722,204757486,17605,209608,672807679,2476,5.73,2.71,2.62,0.15,0.0,239943551,178745000,60913000,254711110,3
132391480,4785738,91393140,818903,92389661,827519,1467374,10149327,359401386,187420,130506642,14462,9751,416840042,2479,2.37,1.1,1.07,0.07,0.0,97082000,88693000,8063000,111725219,3
148681140,4271466,97166130,847181,95521405,855990,962454,9396282,366504200,103066,147846776,16168,448355,491202264,2478,2.47,1.17,1.12,0.07,0.0,99582918,95204000,4008000,114324214,3
406086962,5070650,257191758,1516537,258111146,1528779,1599212,13155246,1128445053,400397,409671111,27986,216741,1261608848,2473,7.44,3.56,3.44,0.19,0.0,303879881,240506000,63132000,318397421,3
142435082,5054137,100411473,837282,105085239,815094,1442683,9923018,381147733,163867,153601153,16371,8556,470510212,2481,2.53,1.18,1.14,0.07,0.0,103242466,92845000,9983000,117645354,3
201415260,5111362,135487401,1307815,136487880,1300675,1540184,11779245,899349052,378373,205672139,424945,601066,676443681,2477,5.84,2.75,2.64,0.15,0.0,242189750,179679000,62235000,256984393,3
128425720,5427930,92532138,982305,91281810,842957,5940291,13175055,484693009,613994,128793162,31821,127990,453711636,5991,3.19,1.46,1.41,0.13,0.0,130525010,120281000,10023000,144965581,4
129314609,5526159,91952463,1009289,90788558,975555,6672106,14352790,490534401,606615,130654116,36815,89089,457995470,6773,3.22,1.45,1.39,0.14,0.0,132606248,121362000,11032000,147161005,4
149569556,6904243,109265861,887147,108207657,920389,8559165,18188358,582401781,895544,148597625,36566,33544,534156454,8587,3.82,1.71,1.64,0.17,0.0,157320696,143085000,14008000,171770705,4
170074287,6362748,126720674,694930,122045064,681095,6808557,16250374,562915695,620980,163732757,40459,30823,616438383,9499,3.71,1.68,1.61,0.16,0.0,151574029,142338000,9021000,166113026,4
346217687,5290302,218439347,1012567,219468343,1001426,5465411,15078676,659726817,516479,345038743,50065,22501,1059186147,7161,4.48,2.11,2.04,0.15,0.0,177740284,171536000,6018000,192245462,4
125881492,6485403,88909432,1002231,88217484,982463,6572182,16907046,494510147,664442,129508143,24125,16651,445655586,5454,3.22,1.43,1.38,0.13,0.0,133183969,125797000,7044000,147961635,4
368088463,8727327,241992843,1278868,244402588,1431514,11345692,24492024,1021686381,1200608,377867275,57023,89332,1143116438,8474,6.75,3.08,2.97,0.25,0.0,276566719,266413000,10015000,291287253,4
154207579,6085430,109400941,851646,105864679,893862,7563054,17160502,555385820,689726,143653800,34121,26256,543583502,7970,3.63,1.59,1.52,0.16,0.0,150302882,142061000,8003000,165140472,4
354533664,5555678,224693371,1177298,221954351,1138813,5521091,14419575,696856287,624448,344716842,41700,73784,1085560512,6780,4.72,2.24,2.17,0.16,0.0,187702745,178462000,9023000,202253959,4
370674010,8706479,236099137,1399482,233377396,1371001,10485197,23042725,856807068,1016750,364462397,45105,69291,1154869189,7799,5.81,2.66,2.55,0.23,0.0,231874644,218583000,12975000,246462220,4
145250464,4652822,100908058,654333,96985716,636632,4918988,12438583,444369216,420292,147481787,27324,13501,543626668,6965,2.96,1.33,1.28,0.12,0.0,120274593,102025000,18004000,134690744,4
131922268,6040236,88039066,917259,85787124,958099,7058005,16136076,510762456,723565,137303870,33055,31140,464911720,6505,3.31,1.48,1.43,0.15,0.0,137414610,122167000,15020000,152003793,4
119629930,4541098,84323189,692586,84247450,680033,4840991,13976333,440006415,598630,127448834,13274,9143,423077687,3261,2.89,1.32,1.27,0.12,0.0,118756704,111522000,6970000,133366578,4
352575175,6041167,227544664,1480332,225259489,1513503,5794202,14319029,737183359,633385,342317290,43179,70203,1069156223,9024,5.01,2.4,2.31,0.17,0.0,199671490,184399000,15032000,214469162,4
124373506,4457843,88544314,661109,87856271,652742,5072175,14366565,444285759,621122,129065691,17416,8229,440767390,3063,2.86,1.27,1.23,0.11,0.0,118333991,111836000,5991000,133310714,4
140165481,4426148,99291380,631367,99611359,629545,4815882,12275792,440922111,443080,150141729,25848,9653,520003344,7576,2.95,1.34,1.29,0.12,0.0,118918855,103701000,14956000,133578600,4
127362378,5240139,93369297,879956,91188478,814572,5341414,12273908,470717692,616405,122133983,31626,58804,447196570,5213,3.08,1.35,1.3,0.13,0.0,128732697,124337000,4010000,143319058,4
140463573,4303125,99222518,623126,102653278,622504,4667564,11299267,433385612,425812,153957936,28317,21393,505869892,7187,2.86,1.3,1.25,0.12,0.0,117022974,98784000,17960000,131674800,4
133824675,6218187,94853777,666688,92962245,705673,7170443,15786952,514232735,705124,130663233,29578,79851,468402342,7165,3.36,1.45,1.38,0.15,0.0,142336771,129081000,13008000,156722227,4
129042919,5528505,91428113,716896,87175936,714800,6595242,15457849,498035004,820579,123447784,13715,8531,446636835,4433,3.23,1.38,1.33,0.14,0.0,137906305,132636000,5024000,152406857,4
344116942,5062981,220446721,932970,219277828,929663,5737196,15288996,695019871,736940,334687619,28929,14357,1031767819,3255,4.78,2.17,2.1,0.16,0.0,186376962,176106000,10006000,201046555,4
349887156,4686919,218507023,885529,212670195,901684,4853807,13579811,672138426,657054,345252995,57672,9453,1066874503,3252,4.56,2.17,2.09,0.15,0.0,180775201,173533000,6981000,195425438,4
199902097,22087022,149796740,7176928,148518282,7229761,17827105,51421234,1411439859,2593751,207517189,60271,65053,697758442,10538,9.18,4.13,3.98,0.37,0.0,379761353,360485000,18972000,394485024,4
145595480,5090951,103782815,667033,102774698,683049,5457718,12900358,470013711,501486,150278070,34917,11851,531651624,9234,3.11,1.42,1.37,0.13,0.0,125896511,102692000,22931000,140919322,4
128883919,6224894,90620137,1003442,89894972,985197,6837799,15460039,503369327,579499,134069643,30277,12813,468659679,6784,3.32,1.48,1.42,0.14,0.0,135045564,119785000,14973000,149444182,4
347619468,5380208,221785200,1121466,220514809,1035072,4787544,12236796,643523992,477934,339326251,42418,79349,1045546706,6729,4.45,2.13,2.05,0.15,0.0,173913974,158641000,14966000,188736875,4
135657392,6512684,96422894,729567,94561488,697072,7098471,16082222,520246107,707480,127830700,42811,90414,463377559,7164,3.41,1.5,1.44,0.15,0.0,142794620,123333000,19051000,157549695,4
162694670,5844561,117932260,668472,118715047,680411,7689154,15444102,530654274,612323,166140406,60404,17352,603577118,10537,3.57,1.61,1.55,0.15,0.0,142894781,120592000,21925000,157681378,4
345078820,4846458,219427352,1092010,214538680,1093086,4668723,13759698,670288928,641144,336608231,23226,11562,1043556508,3057,4.54,2.17,2.1,0.15,0.0,179836414,176542000,3009000,194393465,4
145075827,4578002,103658735,673846,101544306,665636,5083599,11771247,456959062,442914,149168615,36027,27092,532480220,9036,3.1,1.42,1.36,0.12,0.0,123263710,100984000,21996000,137914122,4
124599471,4045921,87977091,689706,83069731,695887,4231039,10956075,405105171,511346,126385774,13304,5762,442793273,2867,2.7,1.2,1.16,0.11,0.0,110065972,102710000,6980000,124650084,4
351348151,4376921,222545252,833030,216791561,857013,4391108,12077715,623361395,496016,341943168,38823,62755,1061973897,6336,4.42,2.06,1.98,0.14,0.0,168312647,154085000,13917000,183040570,4
151498770,9316223,108949627,998767,109839124,1079232,11653940,24917571,814046532,1222988,173784297,38722,37406,557052449,7891,5.27,2.33,2.24,0.23,0.0,219577730,199183000,20018000,234338469,4
183404905,12712790,142692879,741263,139671857,724075,12060794,30148691,760586801,1042776,188775629,107151,103205,765795802,23565,5.03,2.24,2.15,0.23,0.0,205381417,161115000,44031000,219685354,4
139839903,5642535,101455361,766004,98299872,867186,6335501,14689778,517880715,634868,137094940,29499,18736,506213115,8395,3.43,1.54,1.49,0.14,0.0,139832646,126496000,13051000,154252668,4
354533842,5457889,222165917,833288,218799846,800289,4541731,12358318,637564925,516745,347055971,37673,79889,1076592608,6953,4.33,2.11,2.04,0.14,0.0,171321201,158853000,11988000,185880664,4
343134644,4203701,218371028,1062733,216345016,1057015,4688125,13536308,646685439,585130,338556173,26549,13804,1046622188,2870,4.37,2.08,2.02,0.14,0.0,174770459,170490000,3988000,189482913,4
132436236,6147084,95883969,2354534,93076699,2745509,6230562,14803300,522221361,695263,127919187,24260,38156,463242803,4560,3.46,1.54,1.48,0.14,0.0,141864001,132551000,9037000,156635466,4
125015272,4372630,88170528,695990,85216264,765688,4641155,12719296,406726427,488345,129865367,31056,32308,450403471,6214,2.7,1.23,1.19,0.11,0.0,109910214,102588000,7040000,124471238,4
132706858,6011433,92516887,751221,88299928,736807,7077805,14811513,461422138,711778,133780262,31712,40693,481314863,7516,3.09,1.38,1.34,0.13,0.0,124399769,110063000,14008000,138912665,4
149140263,6468665,103989164,874638,99970662,859413,7461013,17720429,540097575,659488,154124803,33383,20165,540357707,7579,3.54,1.58,1.52,0.15,0.0,145853669,130518000,14944000,160315122,4
342976303,4333108,216404524,1269017,216299385,1251456,4502415,12896326,660268092,563437,341646650,20806,13112,1051684295,2868,4.49,2.15,2.08,0.15,0.0,177620570,172343000,5009000,191874640,4
130722347,5529597,92860906,883460,90644366,987733,7279535,15801980,510140004,695275,126749053,38051,19933,456720556,6003,3.48,1.49,1.42,0.15,0.0,137412958,128121000,9008000,151852797,4
188804573,12866832,139454163,1337309,136830832,1350758,14133377,28688666,844344181,1187897,186082132,54596,46262,719622534,11090,5.57,2.46,2.36,0.26,0.0,226538509,203069000,23007000,241221313,4
125459172,4022527,87085709,741380,86542529,726963,4924276,11802395,399118822,414993,130349160,29086,10143,451517659,6570,2.67,1.22,1.18,0.11,0.0,107449742,88122000,19026000,122005866,4
127807218,4881109,88513212,912977,83277917,907972,5278823,12447103,459799093,597165,129133782,22039,46954,446239187,4344,3.01,1.36,1.31,0.13,0.0,125224067,115760000,9059000,139945607,4
125163937,5854944,91736259,1000985,91243437,897167,6039639,14410456,485696383,665484,126366110,27143,86321,446298300,5602,3.2,1.44,1.38,0.13,0.0,131396593,119045000,12004000,145883917,4
351644412,4060219,220146081,856606,214623781,932501,4460154,12035313,615684869,444260,344511480,38546,41217,1078701849,5946,4.22,2.01,1.93,0.14,0.0,166039403,155811000,9987000,180679445,4
350581210,5163147,220559136,1223332,219159229,1202631,6493527,15646023,704496422,615083,343638703,41904,18821,1066179390,5986,4.82,2.28,2.2,0.17,0.0,190293726,175883000,13990000,204702454,4
123419615,4499687,84199442,833520,82382410,836082,4859945,12602714,455031150,587707,131852330,16922,26526,438744580,4169,3.0,1.35,1.3,0.12,0.0,123254185,114944000,7927000,137756755,4
185410608,4850590,136709717,714739,130628405,696892,5314472,12527106,508689471,442702,184076845,37124,15138,697395224,9655,3.47,1.59,1.53,0.14,0.0,137242228,119901000,16986000,151696663,4
129035197,6882492,91281259,877453,90490562,840032,8113733,17788440,542180018,882017,127191670,34864,105189,447138702,5992,3.55,1.56,1.5,0.16,0.0,146412630,134102000,12009000,160834244,4
129063631,6856393,91380358,863063,91299926,822182,8018497,17743644,539401559,888897,126134202,32889,90921,446519646,5993,3.56,1.58,1.51,0.16,0.0,145810000,129435000,16053000,160504603,4
175888828,7848820,136988519,942330,137866247,917351,9518241,18994892,610797729,699092,176221166,61244,30727,647509672,11461,4.14,1.86,1.8,0.18,0.0,165181522,141705000,23115000,179858748,4
353498299,5155945,222908928,1207748,219280249,1185115,6551560,15927311,697756200,612100,340332380,45944,32459,1071676170,5988,4.76,2.23,2.15,0.17,0.0,189531195,181213000,8009000,204154443,4
416150148,28054873,279321396,9935976,280343179,9913331,23601678,68364080,1971579557,3571381,417317498,73445,118788,1271982324,9502,12.89,5.82,5.61,0.5,0.0,533405283,512099000,21004000,548176962,4
148899678,5313436,106383038,668835,102491773,671472,5282066,13113629,467170325,513979,146401900,43370,16530,531156145,7967,3.11,1.42,1.37,0.13,0.0,126323269,114990000,10999000,140810393,4
150851535,7114468,108402229,883939,105757765,798007,7195992,15773266,575426034,964336,146514244,33224,62222,530803136,7125,3.82,1.69,1.62,0.16,0.0,156767802,147420000,9025000,171479066,4
407037515,14562757,262605114,5687445,256905251,5741682,8409379,33414168,1132170179,1113267,398095166,52024,27166,1250837992,8291,7.56,3.52,3.4,0.26,0.0,306343382,291884000,13994000,321318753,4
132172434,5521368,94895736,680365,90243561,682698,6031607,15364980,469071540,681327,123676139,20414,18528,457792267,4487,3.12,1.41,1.36,0.13,0.0,126181503,115885000,9990000,140766704,4
149949441,4922617,106329896,671384,103816292,684632,5327047,11853451,464705556,492033,149354132,42178,25671,530106883,9036,3.12,1.41,1.36,0.13,0.0,124845300,110524000,13940000,139380062,4
356881239,6290170,226555196,1288472,223117016,1059020,5969916,14255004,738383400,670662,349460270,43225,158261,1074872351,7549,5.05,2.37,2.28,0.18,0.0,199944039,182570000,17053000,214403365,4
124283265,3907914,87896792,731901,86607616,710008,4755188,11710772,396997170,395952,129193353,25566,19351,448195235,5953,2.66,1.22,1.18,0.1,0.0,106745710,96501000,9948000,121539659,4
127189114,5744659,90849806,986845,89240823,999778,7055538,16130627,506527961,667816,127596813,27725,11482,454640639,5602,3.34,1.48,1.42,0.14,0.0,136433315,126054000,10004000,150795953,4
123715003,6145879,85763260,1031221,84362811,1053381,8051321,17713054,504728082,735134,130251228,20409,22071,441113575,5124,3.35,1.5,1.44,0.15,0.0,135799049,124427000,11037000,150443200,4
138883253,4226166,98036180,612154,97911216,616105,4509359,11138299,426674807,392738,148946540,25840,14195,510474104,6569,2.87,1.3,1.25,0.11,0.0,116264553,105748000,10071000,131010050,4
123581805,3876060,88504769,725713,87588521,706023,4688749,11478339,394106407,408380,128206131,27181,14533,444439999,5953,2.64,1.2,1.15,0.11,0.0,106645103,95378000,10928000,121371587,4
369368822,5361122,233970969,867933,231180011,878726,5380582,14387439,676561231,508709,362296735,67962,12841,1135381230,8189,4.68,2.24,2.16,0.16,0.0,183515647,168184000,15016000,197985538,4
147869955,5273977,104631742,649704,104193399,644617,6068037,13829281,490290995,654128,154650445,30425,23169,528870739,7998,3.28,1.48,1.43,0.14,0.0,132274922,117964000,13995000,146799897,4
125175216,4407362,88648278,712567,85893138,762549,4661324,12795120,407779443,467306,130200149,24274,16952,450107292,6195,2.72,1.24,1.2,0.11,0.0,110077598,93756000,15958000,124578765,4
173584398,8867794,124677190,806702,125361685,821382,10339528,22245005,760307258,941680,190528953,69977,49869,642892730,13185,5.01,2.25,2.16,0.21,0.0,204924069,183712000,20967000,219521281,4
118597943,4440499,86356793,693085,87379692,691207,4906747,13478557,440155998,614029,125827495,17422,12222,420412563,3257,2.91,1.3,1.25,0.12,0.0,118411804,112098000,6005000,132860050,4
351161817,5719477,223373885,921236,217799442,1136074,6580394,16142071,717901666,684416,342997013,39573,91488,1064730465,6182,4.87,2.25,2.18,0.17,0.0,194989058,182646000,12042000,209411099,4
346503223,3982620,217470115,1142992,214186839,1060410,4287235,11478536,616207520,432907,341997469,33609,17051,1054245178,5330,4.25,2.01,1.93,0.14,0.0,167313347,158973000,7998000,182002437,4
348750280,4190006,218867520,860821,216212050,863815,4656193,13487646,641300571,585098,342416114,25507,8387,1067607704,2870,4.35,2.08,2.02,0.14,0.0,173408618,167049000,6001000,187927458,4
125427217,5752035,88296835,978622,88039508,988945,6799982,15300562,488099684,683836,127205317,23617,37257,436170899,4994,3.25,1.46,1.4,0.14,0.0,132092193,114748000,16962000,146703203,4
131984434,6453323,94710571,744397,94525377,772576,7166786,16215138,529454021,702882,133029877,32932,88483,465173155,7555,3.51,1.56,1.49,0.15,0.0,144312100,127960000,15995000,158653000,4
122538706,5051517,88380001,656166,88035584,645778,5189303,15098276,439697295,615008,125802729,20839,9769,445295693,3070,2.9,1.3,1.25,0.12,0.0,118480668,110198000,8014000,132884052,4
403365876,4297850,264429890,932756,257810984,907136,5403750,13370268,701837978,460835,382941147,55583,21956,1270158881,7376,4.83,2.31,2.23,0.16,0.0,188175115,172759000,14979000,202699581,4
133666847,6309615,92766117,1013831,91503340,1005046,6934299,16543141,507002066,679216,133811969,24887,23998,469227886,6579,3.33,1.5,1.45,0.14,0.0,137205693,123837000,12982000,151731151,4
188493041,10126611,137521032,978751,136582664,928851,11389308,22984056,684477892,1275444,188279008,58874,43516,666295159,10139,4.52,2.02,1.94,0.21,0.0,185455092,168065000,17006000,199801296,5
255322059,9215166,188368733,1043197,191754699,946618,9611325,20569268,783420944,1005367,263223612,46175,106347,939762727,10427,5.21,2.4,2.31,0.22,0.0,211321444,189805000,21089000,225916700,5
402684875,8492815,254815726,1217597,249805056,1206888,8773015,25235059,922017724,1178988,388771161,29635,72982,1261750233,3455,6.2,2.89,2.78,0.22,0.0,248602039,241202000,7005000,263044538,5
389571649,6849772,247592762,1231588,240623803,1235461,6754812,19324066,828795939,980775,376872771,85672,12137,1208962363,3451,5.52,2.6,2.51,0.19,0.0,222599660,214308000,7974000,237211687,5
162946154,6774831,118537457,776829,116196028,902379,7536563,20573719,562810141,835839,160477653,28489,64365,573072872,6623,3.71,1.65,1.59,0.16,0.0,152119644,139815000,11984000,166592259,5
389746423,6796369,245197982,1040792,238311295,1043393,6631511,19360514,822471684,973695,379851307,29327,13520,1216492215,3452,5.52,2.62,2.53,0.19,0.0,221784327,216476000,5011000,236357955,5
209212349,8134107,157433269,968710,158187821,966342,8663061,19286410,688217592,739539,208206767,70535,40510,788632026,12769,4.8,2.06,1.98,0.19,0.0,183882516,159708000,23956000,198393671,5
150706386,6636491,107057742,820129,106456313,826182,6660156,18641249,586089492,925005,172645317,13805,9370,555644099,3459,3.84,1.72,1.65,0.16,0.0,158463263,152232000,5969000,173169415,5
161771564,7882367,115407559,1259632,114696246,1248091,10086595,21859470,644778511,873040,175270002,34463,27108,608845143,7163,4.24,1.89,1.82,0.18,0.0,174167334,160877000,12990000,188672097,5
456136830,11128457,306052787,1242857,312087819,1149930,14475342,28772976,1168725901,1412465,456761588,92422,130852,1475566881,14724,7.85,3.62,3.48,0.32,0.0,316981213,289712000,26973000,331672743,5
166292869,7278343,117617476,1052589,115444709,945500,7253176,17631682,616151660,900166,162786886,29841,107660,572176234,5407,3.99,1.78,1.71,0.17,0.0,166568046,160197000,6007000,181224238,5
188006830,9071646,138071703,781445,134161862,767437,10313047,23662630,703119102,1053543,202572391,42281,69079,730296961,7465,4.62,2.05,1.97,0.21,0.0,191181705,173856000,16985000,205823585,5
180523974,8008522,122809438,1288313,112548975,1307664,10156515,21398241,709869320,1057168,164318391,29030,209835,625648925,6387,4.64,2.06,1.98,0.2,0.0,192263697,184763000,7029000,207041531,5
363804835,5850176,232606904,1193744,226251717,1196876,5933931,16645489,819985228,821687,366797110,22810,12287,1171204812,3254,5.44,2.54,2.44,0.19,0.0,222259578,213960000,7998000,236858261,5
396769041,6991911,250433125,1108680,244512515,1113310,6890290,18657468,872064646,998391,389442257,27069,12804,1274048188,3458,5.79,2.69,2.6,0.2,0.0,235949038,227516000,7983000,250359724,5
392054691,9798181,249802936,1739053,248234781,1720746,10993830,24036883,929791797,989677,387189703,52923,64772,1226418914,8333,6.21,2.85,2.74,0.24,0.0,251448510,235170000,16011000,265870347,5
433421829,13711165,286699428,1658861,288381778,1605441,19444106,37105002,1330643866,1876777,422893581,81489,373410,1374463171,11856,8.75,3.91,3.76,0.36,0.0,355799862,332407000,22959000,370490618,5
395504697,8431812,247374185,1129230,242043743,1192533,9059018,20816769,833186427,1110294,391504885,61771,96507,1243029608,8179,5.62,2.65,2.56,0.21,0.0,225135932,210760000,13984000,239990920,5
156414660,9651352,139271297,1287219,136999267,1193105,8381031,21489915,728126249,1096048,151197174,22268,54206,672062886,5686,4.82,2.11,2.03,0.2,0.0,197062282,183694000,12978000,211669295,5
207968487,7230358,147474513,982171,145376554,954652,8417217,19254628,645601697,710366,218358121,44498,31472,779882976,9600,4.31,1.98,1.91,0.18,0.0,174681233,157346000,17037000,189458476,5
241493602,10241724,170235477,867418,164353677,888739,13004029,26917260,815959630,942535,229638770,62965,67311,899927765,13169,5.5,2.43,2.33,0.25,0.0,220463589,198096000,22010000,235310168,5
187334095,11267212,116058211,1476764,116011222,1392077,14120894,27919226,804948790,1195945,198621350,46391,132139,659544316,9120,5.28,2.32,2.22,0.25,0.0,217013308,198711000,17973000,231534433,5
194694759,7353848,134971813,903313,134859700,797239,8576275,17659651,635751588,885598,195219722,46200,102596,689935610,9553,4.23,1.91,1.84,0.18,0.0,171658213,150436000,20921000,186377500,5
156623184,5791215,114730262,793978,116074770,809173,5818982,16198710,566087272,845614,156436985,11764,14153,553596636,3458,3.68,1.68,1.63,0.15,0.0,153148414,148844000,3995000,167852874,5
440038636,7960232,294690811,1194075,291015593,1218180,8697947,20824159,924547598,754178,434009475,76167,69776,1429268709,12760,6.29,2.99,2.88,0.23,0.0,250453578,223082000,27010000,265453194,5
161536489,8899027,117263050,932151,118506842,827611,10854877,20646640,674882658,1035023,162167521,37872,165314,584615974,7946,4.44,1.95,1.86,0.21,0.0,182350234,167047000,15004000,196990014,5
393703835,9889748,252108570,1718711,250204984,1667022,9920521,25428147,952303276,1098500,379131348,32623,71024,1220653554,5692,6.32,2.93,2.82,0.24,0.0,257814492,245427000,12020000,272562126,5
167186649,6172616,111718809,951483,108929775,959703,7538314,18084783,545547179,722658,171032268,30625,23326,617687966,5990,3.63,1.64,1.57,0.15,0.0,147531718,140075000,7003000,162157341,5
174660697,7904420,121332021,1010170,119562088,1139341,9204004,22068394,670795454,1026117,171109418,28316,151793,590132481,6582,4.41,1.98,1.9,0.19,0.0,180828589,165475000,14952000,195456124,5
215450947,7795251,152322644,788457,147556551,890893,9093783,22493500,666259574,816965,207650253,51286,104508,743135753,10867,4.43,1.98,1.89,0.19,0.0,180165015,159888000,19986000,194765166,5
163069206,7032956,116281923,928827,116107033,943668,7854423,17353948,577269969,849706,169582122,29189,83148,579209294,8088,3.88,1.75,1.67,0.16,0.0,156994415,139573000,17070000,171616439,5
163035824,6090648,111098461,991396,110008227,971920,7460073,18273691,546633260,749938,171936688,22249,19026,609887571,7012,3.64,1.61,1.55,0.15,0.0,147571870,132199000,15022000,162380738,5
158519221,7244278,109834437,798590,108855217,800941,8853066,20552835,636385267,1033437,176522910,17809,25032,579197137,4824,4.23,1.86,1.78,0.18,0.0,172232474,162828000,8990000,186693423,5
215131222,8200923,154575217,810153,146504430,904205,10104482,22083270,686340563,1011497,197834147,57601,71927,775465063,10432,4.57,2.07,1.99,0.2,0.0,185603583,167094000,18010000,200289541,5
188427297,12360907,135903663,1103420,142704398,1126384,14691752,31798231,1028100988,1797303,206149053,49449,31938,688105667,8090,6.7,2.95,2.82,0.3,0.0,277305079,262843000,13991000,292028217,5
389514070,6990898,251013212,1039311,244473986,1040700,6845118,19462701,827902772,973818,373515732,33093,13864,1200764472,4039,5.58,2.64,2.55,0.19,0.0,223709713,213263000,10012000,238094356,5
160378053,7621667,110634349,855120,109790788,850782,9223301,21042003,644410242,1098200,171247139,21905,14841,581963590,4434,4.2,1.88,1.79,0.18,0.0,172947657,164639000,7982000,187552547,5
172954819,6073443,121972924,804081,115401630,848931,7911090,19913433,554516219,859083,158801701,23319,32161,599458597,5552,3.68,1.66,1.59,0.16,0.0,149750385,142362000,7017000,164348129,5
209691677,8920464,156063574,857810,154377613,946238,11181379,22841798,745880533,931884,222365242,81989,49649,794621866,14426,4.99,2.26,2.17,0.22,0.0,201623664,172412000,28901000,216261973,5
301314857,14892549,200076431,1699670,185855485,1660441,11888934,30124479,1100976065,1359406,309820838,40995,22536,1060316342,6950,7.28,3.35,3.23,0.3,0.0,296843318,287513000,8984000,311318476,5
173856679,9617619,118066213,1416404,113705995,1605750,12420714,27958958,758228201,1169171,169504720,22455,25104,630292943,6674,4.99,2.23,2.13,0.22,0.0,205071900,192714000,11982000,219564900,5
160989273,7655181,113972534,1230133,112992807,1244695,9031279,18961129,629671140,928787,158464569,30738,39916,546362886,5560,4.17,1.89,1.82,0.18,0.0,170482756,154112000,16011000,185087611,5
159331659,8149482,114604860,1244654,113036734,1248782,9363735,20267088,637798685,902804,172497907,28599,25183,577740491,7164,4.18,1.86,1.78,0.18,0.0,172387352,159075000,13006000,186961542,5
297691253,31840462,218263919,11813465,218907093,11837575,26852772,74780339,2044291867,3636657,305154895,95624,65684,1069886054,16136,13.2,5.92,5.69,0.54,0.0,551462789,525112000,26005000,565980737,5
168804365,6857970,114292285,842861,113138551,835857,9034648,21015658,644463945,1115292,160854762,25448,57837,597431519,5218,4.25,1.89,1.81,0.19,0.0,176333568,168952000,6998000,190771647,5
389513918,8321703,249639231,1670406,248858667,1810584,11537356,25434207,969467048,1050905,387565319,44414,65992,1229288451,7160,6.53,3.03,2.92,0.25,0.0,262196647,249895000,11995000,276894957,5
191488498,6368722,132832129,786388,127404029,838754,7972837,18832030,599305930,770519,180604647,49906,41453,678615121,9160,3.98,1.76,1.68,0.17,0.0,165244458,143914000,20987000,179998034,5
390877115,5876908,249808705,1239902,250298919,1210928,7064660,18134584,850292792,986433,380798661,30416,20738,1196664422,4428,5.76,2.7,2.61,0.2,0.0,229608331,220166000,9006000,244283192,5
161880247,7281554,109776476,1257287,110036608,1255943,9545026,20548740,645488815,933995,173759024,31037,17173,604402378,6398,4.24,1.9,1.84,0.18,0.0,174175443,158812000,15077000,189020331,5
159787647,6144003,109906378,993147,109431471,959036,7257738,17885187,540330332,644031,176802431,29951,12139,598572580,6430,3.62,1.64,1.57,0.15,0.0,145968333,137619000,7977000,160283451,5
323972692,8398323,220467778,1967239,219102589,1992791,9077606,23452708,1710069883,1369848,320184175,1156454,542936,1141079864,7846,11.06,5.08,4.88,0.35,0.0,461255663,331912000,128965000,475821798,5
188274498,10005188,141520177,877222,145585930,871455,13596377,26430059,903902397,1751237,192319835,58385,33518,689074803,8339,5.93,2.67,2.56,0.27,0.0,243657507,232404000,10971000,258039552,5
480188334,17409767,330455755,1060627,329738334,1065282,22130437,41801990,1356052856,2703319,483424923,121675,74374,1623389591,20774,9.21,4.3,4.14,0.4,0.0,364883303,325567000,39068000,379516796,5
162569401,7019426,109227918,1183229,109947011,1183859,9482153,20780209,645262164,948400,175060593,20128,26841,605285678,5994,4.26,1.92,1.84,0.18,0.0,174663233,164221000,10013000,189126424,5
386209130,7138797,245263485,1335966,244419773,1472464,9159529,21438752,873406660,887502,389239161,37007,28088,1223865087,6378,5.91,2.77,2.67,0.22,0.0,235636962,218334000,17026000,250113028,5
491010184,14889822,314298466,1912970,318318494,1848736,14528454,37511923,1359199487,1491140,499735085,73642,56463,1609024787,11634,9.23,4.31,4.16,0.36,0.0,365732331,347433000,17970000,380351262,5
396325700,7155562,250023796,931584,244892670,937940,7089908,19188087,787195686,746454,386714905,44606,102008,1232909848,6620,5.41,2.55,2.47,0.19,0.0,212731806,197219000,15016000,227058189,5
169668760,6586675,120997503,857022,113791369,923496,7739294,17598189,558961619,830660,160045453,25560,92058,602057961,7209,3.76,1.7,1.62,0.16,0.0,151088506,135815000,14979000,165617844,5
175747595,7739455,120106789,1250613,111289970,1191838,9501837,20480220,714372968,1143795,163352345,34686,64433,600534651,5863,4.72,2.09,2.0,0.2,0.0,192475782,177166000,15014000,206915027,5
389482427,7189027,243476097,1534433,243263881,1580879,8377358,21423210,912479038,1004508,387714629,38771,58779,1204574780,4990,6.13,2.88,2.77,0.22,0.0,246211781,234797000,10990000,260766955,5
159900160,7685231,109459486,1276204,109099842,1263820,8804519,18425834,628617784,941349,165298538,26050,60917,547249261,5779,4.13,1.84,1.77,0.18,0.0,170752712,156372000,14033000,185359928,5
394376709,6865111,250333205,964782,245164765,1017600,7169463,18764154,789990193,766191,383732407,35633,104762,1223399744,6423,5.39,2.57,2.47,0.19,0.0,213204708,198887000,13992000,227920908,5
395102179,10097437,250357872,1394432,251183414,1381368,8846877,28117742,955049542,1072329,393974696,45005,46733,1245914894,6491,6.41,3.01,2.91,0.23,0.0,258292353,250951000,6998000,272793448,5
176840119,7813138,124102771,823197,122428543,1016353,9369835,21799349,670604533,927188,174896283,30182,255234,609138933,8148,4.4,1.97,1.89,0.19,0.0,181203309,160917000,19989000,195823197,5
401310946,10396802,251171517,1424637,245926705,1414638,10372295,24528585,938651158,1043950,391813823,50178,128220,1243370687,7161,6.28,2.91,2.81,0.24,0.0,252763187,235343000,17024000,267189847,5
391954976,8230429,247333698,1092821,244448318,983732,7330056,20562882,796963785,837232,383533778,42086,115733,1221072542,6617,5.42,2.57,2.48,0.19,0.0,214770445,202520000,12030000,229274347,5
173393157,6445146,118136353,878262,111173871,1007152,7696452,19379877,555657817,722018,164928003,28534,48723,618385074,7062,3.69,1.66,1.6,0.15,0.0,149924650,136714000,12972000,164388239,5
165954340,6870519,119682393,791643,120841411,795658,7250651,18181864,569604962,838789,164870414,31236,133356,588142838,7653,3.77,1.7,1.64,0.16,0.0,153705407,132228000,21036000,168339347,5
161389654,8153204,114296145,1210059,112278463,1209838,8931455,19998746,632600531,887451,169052563,25869,45941,567364993,6580,4.18,1.87,1.8,0.18,0.0,170981243,160687000,10042000,185539574,5
156690575,7399715,141515861,858773,139956538,910004,7111321,18086123,589193293,765086,156606151,33756,119824,699863832,7643,3.91,1.77,1.71,0.16,0.0,157993412,145611000,12050000,172430955,5
183929696,7859710,135804148,906050,135555101,922567,8262761,20229580,618146436,859926,179421065,39702,25390,664345956,8963,4.16,1.89,1.81,0.17,0.0,167196612,149933000,16992000,181726561,5
159538016,7525994,119979711,1097713,114044816,986072,6926318,18901062,624619004,909558,160360280,23521,37941,592943130,4157,4.1,1.85,1.78,0.17,0.0,167731767,158462000,8969000,182465830,5
390311560,6410187,251463883,1099125,247000559,1172640,6803907,17690016,789114004,722181,380179046,41990,138230,1212672921,6424,5.37,2.55,2.46,0.19,0.0,212603097,199147000,13009000,227234036,5
387619211,7286843,246887557,1393485,246666982,1328254,8176093,18960660,813973758,767574,382083592,49994,79604,1208312497,7447,5.52,2.6,2.51,0.2,0.0,219139961,202862000,15989000,233560500,5
178557862,10288931,123444126,1252028,115689267,1179234,13873476,27453455,757087647,1387597,163304575,38108,112963,626954139,8144,4.99,2.16,2.06,0.24,0.0,205591097,185283000,20030000,220223651,5
493321852,12979697,331877296,4034573,329666702,4350058,11319097,31848127,1249145979,1092892,493384897,83426,47316,1631563843,13035,8.46,3.92,3.78,0.31,0.0,337057897,308657000,27968000,351638325,5
267476240,10599405,195805210,839096,185346582,758661,10368915,21411110,794084654,861872,268974008,101970,94607,1014538266,18230,5.37,2.44,2.34,0.23,0.0,215920643,179697000,35939000,230482488,5
170493620,7180953,114680891,1282266,111776392,1310315,9952163,21689650,653968831,871104,177125723,29101,25526,638877356,7364,4.31,1.9,1.83,0.18,0.0,176392491,162088000,14007000,191075675,5
224926877,7784988,169939529,835477,163194658,926116,9699513,21558414,722749684,776338,203926989,71565,90994,823500585,15647,4.9,2.22,2.13,0.2,0.0,195068050,160803000,33958000,209564405,5
178976391,6076984,122093683,796756,114126686,864464,7940665,18776310,558094700,790650,161914057,30788,16405,636100992,6583,3.72,1.66,1.6,0.15,0.0,150141432,137836000,11985000,164654277,5
172228434,1037402,124101281,1709496,124653632,1649375,362993,3109088,285575273,14443,167257366,15564,14393,565474583,2364,1.97,0.94,0.9,0.05,0.0,77439611,71083000,6007000,92001007,6
281005938,16592323,210165631,9373889,209959655,9385391,14311636,40976373,1330197476,1609604,284159529,38813,31540,942162895,10095,8.61,3.91,3.76,0.33,0.0,358717005,336306000,22020000,373354109,6
185523293,5987741,141897200,2583844,145204238,2398795,3971530,12384617,420938488,150321,183195161,26797,16299,640554644,3652,2.89,1.37,1.32,0.1,0.0,112938589,106433000,6024000,127385082,6
168669322,2251218,122270112,1583663,121160841,1622654,567890,4108779,268411471,10979,173589250,9360,7081,555100751,1695,1.83,0.9,0.87,0.04,0.0,72758489,70321000,2009000,87554977,6
751594208,15638478,487027630,9928349,485268877,9891506,14586132,40830529,1798527286,1637846,749755131,63438,45336,2258331399,10092,11.99,5.63,5.44,0.4,0.0,484004807,463559000,19980000,498544537,6
252712227,14416129,179374252,1937572,174329241,1936727,1229624,8061839,577540808,34507,241460860,24022,15757,802723364,4430,3.7,1.76,1.7,0.1,0.0,156644325,148215000,8011000,171141961,6
698201362,8120250,431000708,3206675,429824214,3160742,1255060,6160038,987949613,39479,707134253,37145,17806,2061665225,4229,6.71,3.36,3.26,0.16,0.0,267286682,261004000,6023000,281793339,6
677058081,11284872,428557755,2755720,433077135,2528524,5659717,23642366,996007115,218686,700569082,73482,47881,2077763611,10936,6.97,3.51,3.4,0.2,0.0,268891744,246552000,21960000,283508924,6
744868395,16324446,483130768,10204233,483673338,10217223,13946759,41223514,1799428488,1638504,747855751,56929,38083,2239381891,9699,11.98,5.71,5.51,0.4,0.0,485412921,470016000,15000000,499960282,6
205506407,2389689,131730900,1658236,124284125,1789498,659270,3549263,307583583,23839,208100605,8146,5322,641577391,1695,2.09,1.04,1.02,0.05,0.0,82937479,77630000,4976000,97381471,6
750590210,15608115,487341185,9981398,486055834,9941011,14414262,40939666,1794997627,1644852,748409252,70021,43597,2253237031,10089,11.95,5.62,5.43,0.4,0.0,484930867,462643000,21983000,499772171,6
752659383,15687286,485700070,9914307,483957296,9869202,14388165,41152717,1787390137,1625398,750564745,64415,48044,2260876245,10090,11.91,5.63,5.44,0.4,0.0,482865172,460577000,21979000,497551210,6
262859546,13522540,194286313,10947322,194245571,11039171,10479781,32860332,1186920589,1266545,270436218,33143,25987,878098651,5912,7.7,3.49,3.36,0.28,0.0,320090731,307825000,11993000,334773362,6
171077308,1118169,125945640,2274965,124903074,2441918,410479,2935489,295191687,11127,165566236,4652,3463,590797737,1307,1.95,0.96,0.94,0.05,0.0,79664225,70493000,8935000,94177024,6
398484127,23392074,304461853,11652863,302434669,11577882,20231426,57564976,1962544133,2036994,387009701,268427,175995,1427767874,15221,10.53,4.95,4.79,0.39,0.0,391080007,370787000,20042000,407320787,6
280858699,15940535,208310689,9510554,208179585,9513938,16531443,40992292,1388925262,1892684,289243882,54056,39055,951995401,11773,8.97,4.07,3.9,0.36,0.0,374890671,358539000,15979000,389511678,6
1170365560,6906012,836537119,3259673,837854922,3232299,4969939,19390496,1460622865,179902,1166237201,53930,28261,3802296241,3644,10.37,5.28,5.13,0.27,0.0,393701725,383351000,9983000,408441078,6
163290858,2517262,115490337,1539921,115450308,1766946,500099,3479569,260733046,9078,172302759,13282,9561,550803752,2085,1.79,0.89,0.86,0.04,0.0,70714028,66440000,3966000,85324781,6
254346422,26169726,196323091,4360067,195686984,4381938,1411892,7979298,715674769,38899,263198566,33051,30795,839379889,6317,4.59,2.18,2.1,0.12,0.0,192718285,180449000,11963000,207465087,6
195579421,3260774,133389087,1602564,135553457,1540922,1306753,5209316,332564823,25724,203500151,16634,66807,651057842,5578,2.25,1.1,1.07,0.06,0.0,90305008,79853000,10108000,104910482,6
741026277,14383353,485597422,12961143,483125493,12770959,10825758,36679822,1729019041,1298759,739770320,68937,41586,2257480527,7400,11.5,5.53,5.33,0.36,0.0,468346779,453837000,14025000,483244679,6
179851317,1605892,139044338,3616440,142824613,3422272,791726,4624454,367666174,15636,188700608,4522,5385,651086873,2605,2.46,1.22,1.18,0.06,0.0,99625362,91288000,8025000,114043217,6
303884101,23717159,226000883,7687576,228824785,7308967,20448576,41896835,1367653323,936580,311920276,85395,53832,1035044545,14489,8.82,4.05,3.89,0.33,0.0,369290181,346938000,21996000,384040917,6
663338061,2422107,406017997,2151534,406214870,2214685,705128,5993354,774059611,23541,671150193,27308,19141,1915524217,1691,5.44,2.75,2.67,0.12,0.0,211740307,208415000,3005000,226521170,6
208834227,1850019,126802494,2886010,122084599,2931129,729651,3869157,331250149,21298,209620696,9835,8300,637647563,2089,2.27,1.14,1.1,0.06,0.0,89555071,84294000,4958000,104579933,6
170439308,1969714,112826266,1622506,107779335,1658975,581487,3898806,289351068,13866,172993619,5775,5413,570789943,1696,1.94,0.95,0.92,0.05,0.0,77959868,74656000,2986000,92848439,6
176183220,1576192,120270465,1570574,118792146,1562491,397321,3635535,275546743,11634,174924298,10715,6190,565368638,1306,1.87,0.93,0.91,0.04,0.0,74827336,70493000,4028000,89631309,6
278878775,16381932,209702990,9555075,211293584,9531124,16504552,41500304,1418155873,1887300,285937803,95378,60647,942463834,12515,9.11,4.08,3.93,0.36,0.0,381112868,354778000,25983000,395667141,6
352743791,27069931,258674899,7469077,257898184,7519234,17708482,46250673,1499250346,1132513,362387101,60262,39613,1204196788,10368,9.77,4.5,4.32,0.36,0.0,405196235,381920000,22995000,419729231,6
751982794,15699242,485544761,9861183,482494277,9774285,14450341,41121023,1782875523,1580646,751932346,74262,42769,2260153529,10091,11.91,5.71,5.51,0.4,0.0,482707590,464313000,18012000,497337940,6
174181250,1812843,133699718,2428803,132017882,2519144,1035132,4699953,337093596,23168,174987237,24508,36718,608846192,4797,2.25,1.1,1.07,0.06,0.0,90387738,79893000,9986000,104811067,6
170107742,1258233,118317006,1563442,118625602,1586708,346413,2586180,262091629,8474,173342014,7320,4642,571203169,1110,1.8,0.89,0.86,0.04,0.0,71420459,66032000,5002000,85924640,6
751493632,15682257,487652805,9962453,486188519,9936176,14374074,41085715,1797914811,1647677,747805965,68987,46116,2258672675,10090,12.0,5.68,5.48,0.4,0.0,485397866,467146000,17967000,499877765,6
277646808,16209138,203928791,8251012,207861399,8168191,17144878,41665353,1418708565,2032138,289278984,55741,42663,934197435,11773,9.16,4.11,3.96,0.37,0.0,383372024,367057000,16002000,398071295,6
645128595,1331453,398081773,2405857,397209548,2272768,439335,3953503,730113951,23843,657264823,21044,6764,1911414839,1107,5.28,2.58,2.51,0.11,0.0,197591404,193245000,4005000,212063513,6
171217209,1615840,133276110,2164942,132958834,2175699,507532,3842713,309712373,13134,171312641,17781,15688,625685694,2848,2.09,1.04,1.0,0.05,0.0,83569228,78234000,5015000,98076572,6
674289123,4642465,432010244,3892826,427331515,3843117,4409246,13041419,946053667,428569,661424599,58243,34762,2007080142,9330,6.71,3.29,3.19,0.18,0.0,254967657,235600000,18967000,269850301,6
672615400,5237597,432534155,4315011,431523977,4327304,4766213,16700291,907600732,130897,656363979,35085,18793,2020167852,3449,6.36,3.2,3.11,0.17,0.0,244361424,235995000,7999000,258819949,6
688070596,8658945,440439601,2690667,438262935,2709851,5561195,21211261,961220678,185468,699771471,51499,32227,2104474815,7989,6.78,3.41,3.3,0.19,0.0,259098937,239787000,18983000,273704736,6
570059804,21632465,407695847,8282163,412499800,8080094,7605635,22874670,1427235870,256687,576544985,98149,61756,2071162543,15748,9.43,4.52,4.36,0.28,0.0,384589761,365317000,19016000,399421953,6
209501563,2386989,133786342,1541087,125806066,1696621,744463,3624680,307930410,24747,207099310,13186,5970,648299174,2281,2.14,1.07,1.03,0.05,0.0,83226696,78886000,3994000,97852351,6
303559451,16641960,226520658,10807699,228447128,10923857,15204335,39373292,1416700720,1626381,308131069,99027,69577,1026536904,20353,9.28,4.24,4.08,0.35,0.0,382491142,351143000,31012000,397228746,6
698170194,11944347,440017624,2695965,441262024,2708712,1112755,7487864,984806697,44133,689994848,53632,33099,2027581621,5934,6.87,3.35,3.24,0.16,0.0,265502834,253114000,12005000,280139586,6
207578618,1852144,127885108,1461754,129764287,1465603,937707,4868874,332214581,16888,209104028,19144,16368,619773669,4106,2.27,1.13,1.09,0.06,0.0,89872791,82610000,6967000,104490121,6
676911622,2073964,406600269,2259154,407897142,2357916,849844,6265063,788291898,31291,671443457,37178,20205,1922517188,4102,5.68,2.81,2.73,0.12,0.0,213182073,204895000,7995000,227873009,6
240018038,8437338,179434149,1669263,177687382,1573864,3577246,15326528,465189202,163365,241881005,17222,11216,882880228,3258,3.19,1.56,1.51,0.1,0.0,124877755,116604000,7972000,139677693,6
639458278,1835412,401293947,2869001,404554322,2868296,579624,5416654,764900586,29034,622184363,44312,17826,1874306845,3200,5.4,2.71,2.63,0.12,0.0,207489026,203260000,3985000,222038633,6
671370079,8507322,556068362,1770896,553763963,1745337,4591079,20207270,965475114,184135,658552037,19871,18255,2411131788,3258,6.82,3.38,3.28,0.19,0.0,260463602,255103000,5002000,275144871,6
218170638,1758135,140703966,3716941,136162047,4032293,984783,4876517,377776544,22507,203536355,17940,12643,650035018,2870,2.55,1.21,1.17,0.07,0.0,105262536,101009000,4000000,119929393,6
644300842,2730187,404953825,2054028,406899551,2229169,1075353,6457671,783740730,35395,644408177,48672,25426,1923559448,5785,5.5,2.81,2.72,0.12,0.0,211423638,197120000,14008000,225978565,6
654747784,1830046,399095859,2327249,402814751,2258552,638193,4528750,769507855,27885,660247563,31222,15090,1915435366,3442,5.42,2.78,2.7,0.12,0.0,207492404,200178000,7006000,222099260,6
241715080,9638415,176905733,3380415,182002563,3239066,3718961,15775047,505380028,148217,252091022,25620,22295,856412298,4752,3.49,1.68,1.62,0.11,0.0,136658830,125151000,11013000,151093183,6
750898837,15673113,485142815,9919247,484580053,9881443,14375039,41405185,1789056507,1625934,750640578,53099,53686,2256680483,10091,11.97,5.63,5.43,0.4,0.0,483090124,468751000,13992000,497845833,6
279538900,16507176,211331675,9357536,211327216,9380276,13971907,40828002,1331182673,1611615,281884952,39504,32119,936711715,10094,8.68,3.97,3.81,0.33,0.0,360016343,339604000,19976000,374661948,6
387218028,9987261,289049531,11847025,289457066,11871601,7959176,25218611,1248757159,839545,383764284,34825,34872,1414997891,8158,8.24,3.88,3.75,0.27,0.0,336161495,322827000,12993000,350763749,6
215429515,9314590,172177506,2031354,172497768,2037925,887586,4303520,510370892,23505,219167971,23325,13573,740866384,3844,3.32,1.6,1.55,0.08,0.0,136649631,127155000,9011000,151422362,6
214327783,5834808,175736581,2447234,177984659,2351052,3212215,12708126,453066082,115567,212790692,28274,17357,812949959,3258,3.07,1.46,1.42,0.1,0.0,123326092,120074000,3001000,138056362,6
207388530,11414247,165174318,6991367,163990056,7135091,4050308,27391332,639903612,254317,202571133,66378,45816,772102098,11289,4.25,2.04,1.97,0.13,0.0,172196867,150658000,21092000,187043705,6
194910616,6559695,138314126,2548479,138304318,2503805,2926778,11777614,417886530,134651,194064482,35744,16828,651093326,3943,2.84,1.38,1.33,0.1,0.0,110369767,100007000,10000000,124899190,6
699688728,9611208,437999026,2628123,437471810,2498322,661643,5302602,968772041,37364,707010880,38679,18044,2058682440,3839,6.58,3.29,3.18,0.15,0.0,262828984,255463000,7012000,277555387,6
682674621,8678684,441988595,2520450,445410674,2318671,4908102,19652733,916395103,204811,672849705,53082,31658,2072523944,5597,6.46,3.26,3.17,0.18,0.0,246474917,237049000,9001000,260951623,6
638723149,1821612,406105698,3085478,403698743,2906644,1023317,5984302,786728855,34691,636480191,43655,19939,1896066260,4794,5.52,2.82,2.74,0.13,0.0,212979068,199612000,12974000,227457224,6
328578362,19874443,233068752,2245546,231215075,2250454,21705621,48326781,1608828002,2678231,329401317,100296,66761,1175252976,18073,10.54,4.74,4.55,0.45,0.0,434153602,396851000,36986000,448996021,6
202588178,6273986,148291973,2610235,147384419,2520165,3085947,10946922,414723495,111636,205885088,19564,13010,722400357,3257,2.86,1.38,1.34,0.1,0.0,111701963,104351000,7023000,126494801,6
168859147,970076,121683242,2315686,121727241,2487233,441756,2583030,295684994,12509,165185099,12392,7563,570225812,1499,1.95,0.96,0.94,0.05,0.0,78537122,73029000,5002000,93050076,6
657707303,1084140,399769867,2341422,397026023,2313446,400950,4556431,750549168,27849,654674255,28181,11981,1922898428,1876,5.31,2.71,2.64,0.11,0.0,203189170,197784000,4994000,217846480,6
288504413,16042654,214792297,9200916,211927040,9226099,16182918,40615913,1402086590,1883451,289226430,57352,48792,970875570,11662,9.14,4.14,3.99,0.36,0.0,379469759,354131000,25009000,394275648,6
170287562,1345233,125758918,2271216,123959550,2268401,608442,3366462,308057837,10986,168404587,5357,6995,590321638,1891,2.1,1.04,1.01,0.05,0.0,83309849,80010000,3000000,97954976,6
203598200,7085253,170113485,10705050,169791106,11141407,1120955,17899999,624486650,25554,202980101,28283,23769,828609336,4809,4.14,1.98,1.91,0.1,0.0,168753984,161427000,7018000,183476086,6
650245250,1539443,405673114,2472552,403911395,2439773,524342,5153803,756983489,32039,651305529,33663,12879,1935554084,2719,5.36,2.72,2.64,0.12,0.0,204749966,199443000,5011000,219458011,6
182080648,1688965,130761989,1715953,126956465,1710065,608381,4556654,289234391,13729,174230707,9187,5362,631069767,1696,1.97,0.98,0.95,0.05,0.0,78146431,75754000,2020000,92908642,6
360384779,16224170,264716728,12228099,264799950,12224094,19724240,41757739,1458299182,2133390,360652111,53573,62038,1163546700,9546,9.73,4.51,4.35,0.39,0.0,393339195,379837000,13028000,408213032,6
168913238,1532201,124898280,2409400,121660860,2405709,680042,3763582,299353340,12123,164727960,5337,3689,590109678,1696,2.01,0.96,0.92,0.05,0.0,82465782,77145000,5009000,97011441,6
210611265,2948324,136701224,1523640,136613280,1570258,1369099,5667352,362320006,23672,213635556,28711,32441,663085517,6357,2.48,1.22,1.18,0.06,0.0,97639118,86316000,10913000,112231380,6
691630509,9358166,466757789,2986256,465217881,2998036,739763,5989067,972998186,37939,696856177,50647,19541,2155228129,3839,6.66,3.33,3.22,0.15,0.0,262913798,253414000,8979000,277563472,6
344580219,22994753,251424425,6476449,246617606,6656026,2278343,11361444,997390475,51947,334773673,40259,31437,1100168203,7373,6.37,2.96,2.86,0.17,0.0,269301011,256980000,11999000,283966653,6
169690735,999690,122625819,2402894,121521726,2405991,490478,2875276,305825888,10566,169002783,4087,3278,593272993,1502,2.07,1.01,0.97,0.05,0.0,82600871,77339000,4957000,97395165,6
645006898,1356087,402678174,3250175,397455911,3242143,824270,5130795,769783227,26226,618843022,34239,12639,1879774020,1691,5.48,2.73,2.65,0.12,0.0,206985274,203620000,2994000,221834110,6
173555951,2000120,128104827,1544235,126964738,1703187,645270,4023156,300387523,17302,178447771,22573,21552,597975097,4110,2.04,1.0,0.96,0.05,0.0,81804434,72509000,8939000,96486813,6
233041624,10336865,194083151,2278359,189667890,2294013,1071073,5534938,515212058,36517,230629084,22054,16173,872409547,4430,3.39,1.62,1.57,0.09,0.0,137621102,131273000,6012000,152199661,6
543858609,15991140,501863016,499735,502334293,494149,8291126,28846832,1434361139,135573,545621108,425926,108495,3000482196,97883,9.71,4.79,4.62,0.28,0.0,387554307,237921000,148950000,401797982,7
381733732,6434248,290524855,1255085,286634188,1326158,136702,13300895,375084546,11099,370108506,1462,2604,1300637128,233,2.55,1.29,1.25,0.06,0.0,101000893,100681000,0,115414393,7
651069233,27660559,302105623,474870,301193335,475306,18650474,54705027,1208286637,282632,654900728,638675,122901,2225111735,98337,8.36,4.03,3.87,0.33,0.0,326524430,149517000,176430000,340969743,7
518186375,20956121,362696808,543889,357088839,542399,18335531,39230527,1177157949,630456,502838497,462474,107981,2085269326,97885,8.13,3.95,3.8,0.32,0.0,316816422,112725000,203504000,331381379,7
303793476,6506479,201585511,139183,201648755,138784,139047,13903667,524519841,15040,304554410,1817,3683,1220812052,227,3.52,1.77,1.72,0.08,0.0,141992853,141611000,0,156369681,7
405232107,12874631,402123004,179948,402266633,190130,260449,29529127,841462746,22765,405225566,2554,5017,1925091926,329,5.58,2.79,2.7,0.13,0.0,226082137,225213000,0,240418023,7
838522117,27632179,499729256,493605,504467700,488480,18880548,53908022,1363159491,291539,857538030,585728,124563,3004049873,98332,9.44,4.53,4.36,0.36,0.0,367930095,197062000,170053000,382229217,7
603428185,16670839,446103884,678193,446289148,679075,8382554,30582783,1718612276,547503,600752770,1619312,208113,3048038069,195548,11.43,5.55,5.35,0.32,0.0,463986529,214755000,248716000,478547742,7
529537158,28054038,367347459,579200,367939350,589844,26379539,49403071,1428378373,709481,533185206,488766,119057,2341507167,107662,9.85,4.79,4.6,0.4,0.0,382045804,166751000,214680000,396609350,7
193151669,5996306,388692228,1295946,391052287,1335921,125105,12119569,483578315,14549,192016798,3830,3941,1257439322,330,3.22,1.61,1.55,0.07,0.0,130766052,128348000,1989000,145263676,7
645592908,27716078,300217783,459077,300871042,461664,18812710,53438362,1223339780,285539,664803728,586021,122257,2117585835,98331,8.5,4.12,3.96,0.33,0.0,328517925,158939000,168935000,343117396,7
305751298,24268108,200046981,108260,199703387,108178,128620,38498514,371354462,13021,306710785,1244,2309,1432630939,330,2.57,1.32,1.29,0.06,0.0,100377532,98055000,2001000,115050621,7
529508533,27687859,367426970,597019,368081803,591749,25799703,49412337,1692317849,690060,522389456,599066,120769,2649005690,107655,11.77,5.7,5.49,0.45,0.0,455656239,249105000,206087000,470331644,7
286716125,12848240,200882964,89569,200286352,101793,125270,24472413,275659079,9054,277758316,1222,2173,965253148,335,1.96,1.02,1.0,0.04,0.0,75314241,73994000,999000,89985394,7
440741946,20390241,300510424,433272,300172888,429836,18745881,41170024,1158250701,230649,446468840,319986,108148,2074385162,98774,7.93,3.82,3.68,0.32,0.0,311175771,146876000,163861000,325886845,7
613053196,27305786,451579024,530435,451593107,535197,24871070,46917270,1392598221,666609,616538568,492618,183626,2589868795,97885,9.7,4.66,4.48,0.39,0.0,374832833,184707000,189699000,389658177,7
857511153,28903673,403577475,484652,402253349,483990,18925128,53366961,1340712001,298221,855185419,566225,121974,2855263564,98333,9.26,4.47,4.31,0.35,0.0,361035099,187652000,172680000,375577203,7
444030304,15751075,301145750,372878,301259582,370994,8549713,27347895,979782570,128354,445406663,526084,103997,1796525963,98381,6.71,3.29,3.17,0.21,0.0,264757044,100143000,164234000,279499811,7
305319042,6483152,200554816,96756,200261147,94942,124392,12250321,322260139,10971,307850865,4315,1933,1337360168,226,2.26,1.08,1.04,0.05,0.0,87163326,86835000,0,101450036,7
547030032,22634351,379455963,2152402,377722463,2140358,11317266,41963615,1688686453,235988,551662344,675071,216165,2931160327,100723,9.15,4.68,4.53,0.27,0.0,319806144,191619000,127746000,336697187,7
558228482,28336526,307921627,464925,303150117,469779,18972705,53206412,1240189305,300361,542937962,644520,137985,2339852657,98335,8.56,4.08,3.91,0.34,0.0,335928647,160638000,174606000,350696371,7
644681638,27812200,499123686,495033,503531852,489006,19193028,54384779,1361105252,288744,654370166,583133,123696,2909374072,98330,9.58,4.58,4.4,0.36,0.0,366958726,197133000,169114000,381515677,7
755987827,28175558,303326674,497476,303031651,493640,18674543,53329987,1342333298,355567,751986310,589489,127268,2634016431,98331,9.26,4.43,4.26,0.36,0.0,362893091,195014000,167012000,377495323,7
652114640,28128085,301142024,455399,301290351,448138,18889892,52829140,1233357580,296940,657703493,591051,121245,2236077098,98337,8.66,4.14,3.97,0.33,0.0,331927668,160780000,170766000,346993849,7
403666088,31362835,201062746,132299,202073097,127619,140694,49430529,451043307,13882,406966216,2009,3500,1630538684,423,3.19,1.64,1.6,0.07,0.0,121614076,119305000,2005000,136084748,7
815595796,20635915,656713972,608733,653110279,598574,18859786,42688847,1817922551,717726,811653701,370989,110281,3593656385,97885,12.63,6.09,5.87,0.44,0.0,491177864,303757000,186850000,505797826,7
509395669,27846319,350081790,561120,351775057,562005,25056283,48178260,1508491465,676022,517500095,315739,107589,2378789200,97895,10.56,5.1,4.91,0.41,0.0,405200179,215350000,189429000,419786020,7
201773714,6309457,100432562,85236,101035155,82562,211446,11242793,222038334,8210,205599809,1331,1920,920614642,329,1.48,0.7,0.67,0.04,0.0,62974802,60571000,1985000,77540827,7
648065554,27685716,302527254,448452,302797266,454685,19084378,54217988,1265208584,285715,656246394,480705,424290,2430401070,98331,8.75,4.22,4.06,0.34,0.0,340225923,166789000,172782000,354914663,7
543315024,20736886,507699986,443457,508261314,434503,19093663,41560509,1280591052,232146,535975893,496625,107687,2777893796,97885,8.86,4.26,4.09,0.34,0.0,345459109,171536000,173530000,360287185,7
654431899,27996951,303978803,477182,302400391,492068,19249990,55039072,1369414192,291961,653045459,604969,137533,2231879026,98337,9.67,4.56,4.39,0.36,0.0,369485710,199827000,168854000,384061453,7
443119333,16007860,300474318,451712,304264326,506190,8879534,29702353,1131632983,140121,449554472,359604,109095,2305179399,97895,7.61,3.66,3.53,0.24,0.0,302492371,165047000,137039000,316994311,7
307507353,12767904,200764223,103607,199354343,104249,123814,27682723,320853844,10555,305430813,1248,2057,1440799894,427,2.33,1.16,1.12,0.05,0.0,87169243,85758000,1008000,101684693,7
204464140,6391205,100641280,81393,100140309,80191,110065,12503655,218960832,7590,206984534,767,1388,939089988,324,1.49,0.75,0.73,0.03,0.0,59281996,58914000,0,73773846,7
657810601,28099250,303672036,461433,301501561,460741,19001296,54398370,1239310178,299890,654641750,604928,123513,2353916433,98333,8.61,4.17,4.01,0.33,0.0,333241203,161248000,171263000,348334473,7
650106328,28177428,302387241,498141,302833686,490893,19254866,54289652,1449053502,301364,652757032,588920,124842,2317995589,98339,10.15,4.9,4.71,0.38,0.0,391045218,210565000,179629000,405760148,7
509070193,31783243,202556740,134010,201906435,137783,133756,51528434,534829125,16614,506001227,2281,5134,1934308547,421,3.75,1.93,1.88,0.08,0.0,144966766,143598000,997000,159828071,7
715169511,20925977,556779284,557299,553544497,561467,18955083,43294769,1620414577,677961,710651346,463131,163415,3086207920,97890,11.34,5.54,5.34,0.41,0.0,437444180,247437000,189569000,452162264,7
443655136,16399869,300086231,453941,300800422,449424,8923207,29584657,1122107865,132394,445123099,365539,301381,2297314791,97887,7.67,3.75,3.62,0.24,0.0,302526847,141058000,161067000,317284716,7
648649508,27510308,303515854,479063,303603212,478828,18943577,55549082,1369424019,292836,654695737,582135,124479,2225465256,98331,9.6,4.66,4.48,0.36,0.0,368464708,194897000,172908000,383194066,7
508071500,25319009,202430422,154705,201294007,154681,135710,45220327,424118771,12653,507354556,1547,2755,1636312264,325,3.01,1.55,1.5,0.06,0.0,115021600,113728000,997000,129465590,7
405366934,31658749,202254053,176013,202177025,170285,223477,52449022,707174015,20937,404847188,3206,5107,1625255612,431,4.85,2.45,2.38,0.11,0.0,190720228,188251000,2002000,205619208,7
515535368,27337405,350775046,572100,347988158,571409,25132893,48323225,1361015149,621798,518475023,499515,108917,2511823206,97883,9.54,4.57,4.38,0.38,0.0,365213160,176378000,188404000,379947305,7
507555172,12698881,200213177,115374,200427584,112148,122551,27556601,351544365,9514,514128336,1651,2868,1530848646,327,2.49,1.28,1.25,0.05,0.0,95026521,92662000,1992000,109829422,7
190747642,15922457,106879757,358495,108843506,370119,8685204,26182333,794993601,125385,190294448,430297,106415,826243459,97898,5.41,2.58,2.48,0.19,0.0,215251971,62972000,151933000,229781291,7
660532254,28015532,303408553,467503,298631912,463211,18852840,52848899,1222000344,298208,656418388,585540,135457,2154493552,98339,8.57,4.1,3.93,0.33,0.0,331085317,158776000,171758000,345897509,7
513050535,21120764,356331390,633880,356612673,635404,19200585,44294952,1932091870,640077,509193507,501361,113755,2679648099,97884,13.29,6.34,6.11,0.46,0.0,521462088,329050000,192029000,536557216,7
645582318,41119985,301273873,474980,304665948,481775,25511900,69962052,1371002790,397622,649659069,580271,124987,2010431868,98436,9.75,4.71,4.54,0.4,0.0,371228770,202869000,167891000,385838952,7
660331425,28038777,305570977,459741,301756618,453809,18864848,54147057,1237003551,296897,647818638,614037,122085,2346622444,98331,8.64,4.11,3.95,0.34,0.0,334652033,165993000,167992000,349505683,7
441602527,20807918,301316908,442499,301712749,435678,19278441,42211483,1338981511,232883,444799846,512535,114111,2178614357,98131,9.29,4.43,4.27,0.35,0.0,361229527,189935000,170942000,376018541,7
441624528,20699269,301505485,458346,301274609,459401,19077040,42818202,1433143404,234698,444443733,444059,151307,2082815129,97884,9.91,4.68,4.49,0.37,0.0,388822607,222255000,166190000,403564740,7
203698332,6380337,100543010,84539,99853926,84677,148350,12470189,220771709,6944,205832364,749,1358,935896435,232,1.5,0.76,0.74,0.03,0.0,59164516,57741000,995000,73792393,7
214220157,13312082,105221155,93520,101400090,95495,434987,24162503,255410850,13872,204868101,10373,2719,954712676,2092,1.78,0.9,0.87,0.04,0.0,68586684,64296000,4018000,83081114,7
303061797,6492567,201342782,134739,200856620,134810,128195,13274451,526023115,15849,303978426,1968,3530,1424332480,328,3.64,1.83,1.77,0.08,0.0,142493004,141139000,1000000,156955903,7
646993995,27463465,304182351,499124,304228436,494757,18929378,55287263,1466384493,292166,653340295,628251,123772,2116724925,98336,10.24,4.92,4.74,0.38,0.0,394868219,215494000,178581000,409368994,7
844250759,27777245,403244764,521889,404824800,526888,19476676,55029368,1573600679,297343,854592274,493181,124869,2612058023,98330,11.02,5.33,5.14,0.4,0.0,424017112,243722000,179795000,438780396,7
513487515,20860340,355013274,530231,354634927,533188,18798809,42098091,1410494629,619086,509667115,524645,108627,2278724588,97889,9.87,4.72,4.55,0.36,0.0,382484820,197114000,185107000,396740702,7
305167983,12688032,199577690,87272,199730529,87187,127501,25253463,280445628,9022,307784273,1339,2319,1131909560,332,1.98,1.02,0.99,0.04,0.0,75848950,75579000,0,90178572,7
653608640,28353086,303687948,480006,302106229,487140,18671635,55694425,1368504252,293285,652831574,582583,126421,2333634310,98331,9.6,4.62,4.45,0.36,0.0,369290812,190889000,177896000,383742240,7
743115009,27863657,400532520,504007,403176160,504700,19226836,54841775,1370649462,291001,757281428,678529,124331,2910318820,98332,9.58,4.56,4.39,0.36,0.0,367879884,197629000,169681000,382535560,7
650507127,28163691,299914011,453027,300070728,464299,19114888,53738911,1221506482,284958,666208434,615979,120909,2128922439,98331,8.57,4.12,3.97,0.33,0.0,329135725,164698000,163700000,343720359,7
404097690,6480610,101502114,100090,101938889,101259,142193,13123446,326706259,11401,408013194,1910,2640,1321938813,325,2.18,1.07,1.03,0.05,0.0,90001638,88641000,995000,104662467,7
205139112,12630050,14530841,82424,14527856,81114,114041,24456371,232541493,8087,205741381,1039,1993,682790210,336,1.68,0.85,0.83,0.04,0.0,63210841,60856000,1995000,77906724,7
646587503,28223721,299976077,460919,300346987,464203,19038833,53684094,1223510824,285200,665271893,584158,123293,2122020768,98331,8.63,4.13,3.96,0.33,0.0,329995073,160163000,169173000,344523644,7
303994896,25352612,200369810,114693,201182846,118602,132318,45384703,370497601,12632,306013827,1760,3269,1325047854,328,2.59,1.29,1.25,0.06,0.0,102909127,100636000,1992000,117398473,7
443161564,15768820,301280752,395721,301370344,396282,8820646,27747571,1110165705,133115,443399848,447262,108218,2299495648,97883,7.59,3.71,3.57,0.23,0.0,299752240,149247000,150248000,314312633,7
508997928,12747405,200194521,119236,200349863,116665,150826,27840084,400850883,12296,510121370,2082,3433,1734739355,424,2.79,1.42,1.38,0.06,0.0,108138101,107798000,0,122269312,7
305844765,50464618,200670105,113416,201036062,111836,165601,87776194,388328618,13027,304699356,1799,3085,1227562551,529,2.82,1.47,1.44,0.06,0.0,105253708,103968000,1009000,119542259,7
444334554,16365786,301211212,402709,300541194,398965,9136574,28386661,1064835814,128436,443883602,448552,107180,2102098683,97884,7.25,3.5,3.38,0.23,0.0,289270667,138005000,151005000,304037389,7
656300469,28206903,302294424,450181,301152122,445254,19180114,53465302,1231740301,292818,654780521,604697,121998,2343757943,98337,8.68,4.18,4.02,0.33,0.0,332781176,148145000,184180000,347354479,7
518031203,27228535,353812328,535438,349966776,533042,25477708,48157489,1386660215,708794,514642505,403715,111943,2621720932,97884,9.7,4.62,4.43,0.39,0.0,372574182,184113000,188115000,387328601,7
405743303,12652067,100369434,101906,100438837,101898,154864,25471061,304512169,8708,410683722,1061,2222,1229144653,332,2.14,1.08,1.06,0.05,0.0,82227141,81972000,0,96555097,7
377962846,6351101,195651043,118664,197499271,119851,118044,12552043,336112885,10517,372867784,1716,3060,1440722710,228,2.31,1.12,1.08,0.05,0.0,93411490,91122000,2002000,107881412,7
304643333,50673890,200805129,111184,200771924,110484,167509,89952363,384347919,12544,305665381,1879,2974,1230921474,528,2.8,1.46,1.42,0.06,0.0,103620955,102204000,1002000,118254017,7
442638257,16091426,300343196,480974,300563666,470623,8725209,29028768,1434408633,134239,445921449,409278,108240,2597247198,97894,9.85,4.88,4.71,0.28,0.0,387997715,230808000,156869000,402689986,7
443197898,15652123,299989874,452883,300384232,447625,8729044,28565680,1039352794,134713,443884738,431660,104985,1994449668,97901,7.13,3.44,3.31,0.22,0.0,281278758,143027000,138026000,295837532,7
303221219,6347740,295351609,257656,296174302,249463,106629,12086718,243238589,7094,305986005,1243,2122,1069754315,233,1.72,0.87,0.84,0.04,0.0,65675408,63424000,1982000,80176671,7
344890487,16905742,300331775,423097,300280853,421955,9048610,29459748,1141282147,135328,344821601,431424,419651,2385763238,97902,7.81,3.74,3.6,0.24,0.0,307230554,156966000,149967000,321724542,7
652565454,28693081,302958780,469483,301566728,476779,19390266,54635570,1267805434,293101,656967320,556025,123611,2438056321,98331,8.92,4.22,4.06,0.34,0.0,342006403,174201000,167192000,356402421,7
640239409,20513158,298868687,446628,302078883,450347,18832618,42766073,1213627644,278812,658672353,592457,124342,2101181823,98239,8.52,4.01,3.85,0.33,0.0,327437533,160921000,165919000,341964160,7
786357820,22101754,455182831,4425450,455410418,4422138,6830167,33527149,1613759106,407307,787945531,82515,232633,2474259557,6623,11.01,5.36,5.19,0.31,0.0,436346820,359033000,77007000,450949448,8
210216084,7588276,123298352,453025,126262518,469652,4086978,17165186,416031842,44193,223265436,23651,20089,779009053,4625,2.88,1.39,1.34,0.1,0.0,112183408,104846000,7056000,126993020,8
727678320,6555298,427331804,3866151,430027932,3866944,3156775,17180292,1462246223,273558,738385325,286758,218088,2249559045,4418,9.85,4.87,4.72,0.25,0.0,395508802,331158000,64030000,410035280,8
343697220,9817448,201744264,3361321,198193312,3315806,5957278,21029920,1106834764,280776,333579014,140353,225414,1191307848,16909,7.34,3.48,3.36,0.22,0.0,299766849,206294000,93133000,314385901,8
269283879,8376101,158112488,3434099,158099302,3415446,4590260,17589223,563294873,91257,272721731,71982,14745,1018922448,6788,3.87,1.87,1.8,0.13,0.0,152357364,142046000,10003000,167173069,8
549569961,5964618,214098891,3323033,214129382,3322164,3192107,15968924,823276780,51319,553988906,34380,11519,1557882732,4231,5.59,2.74,2.65,0.15,0.0,222322433,211083000,10952000,236927985,8
242795197,8066165,140704190,2451661,135642752,2433895,4387654,17176735,517394717,89069,245845487,29905,11297,856671699,7356,3.54,1.72,1.67,0.12,0.0,139915492,123656000,15955000,154454501,8
353750839,7434959,149844349,541097,152665326,557455,3534530,16096891,589875996,54401,360304721,25074,11698,1013020377,4824,4.02,1.96,1.91,0.12,0.0,159193221,146940000,11995000,173866403,8
370913992,8378626,209440895,3222777,209335943,3208001,4076430,18792414,1072419410,268736,364851818,46494,215748,1250456241,4425,7.12,3.43,3.31,0.2,0.0,289659063,214275000,75096000,304290579,8
220270479,7836295,132351127,490285,131816995,483453,4459579,18298675,416299048,99526,207923821,34459,19212,793977070,4230,2.86,1.37,1.33,0.1,0.0,112380604,102027000,10002000,127109212,8
345394519,10821524,209320921,3292579,211922280,3269959,4778225,19011300,663535340,59545,349123891,41333,14834,1319672699,6774,4.56,2.22,2.15,0.14,0.0,179321500,164034000,15003000,193808456,8
743620346,16590980,419613382,1490866,418982264,1491658,5832387,28458321,1420326656,372761,752398914,43345,378735,2247511495,3286,9.71,4.78,4.61,0.27,0.0,383306967,330916000,51986000,398020700,8
722760069,6634463,426742145,3901310,431771864,3914779,3194056,17011149,1451681894,268786,737501636,472765,216545,2242246234,4421,9.78,4.83,4.67,0.25,0.0,391350612,319892000,70976000,405920355,8
769156260,8953264,448640950,4383110,448514215,4381082,4748255,21232509,1550963030,275516,769956186,48456,218985,2483925393,6377,10.45,5.09,4.93,0.28,0.0,419076830,354823000,63968000,433681741,8
282734634,10867167,158487324,2577947,161896915,2644225,9029206,27254354,643762618,3387193,291711285,61804,19663,1007691609,7196,4.41,2.07,2.0,0.16,0.0,164517120,151205000,13017000,179153857,8
715269593,7065779,422358822,1482600,426140223,1496781,3930825,19290668,1439888542,281177,732621700,42418,218778,2242244773,4619,9.68,4.71,4.56,0.25,0.0,389684792,338352000,51053000,404083372,8
232034178,17481067,131134556,496435,133385435,497280,6309114,26220803,465135282,229783,223847976,31963,11396,759383522,4235,3.26,1.51,1.45,0.14,0.0,129306514,121992000,6999000,144225066,8
243858875,8430679,142395365,2443897,146417662,2449617,4421392,18287085,509415006,40094,251042228,33486,14692,822816556,7951,3.54,1.7,1.64,0.12,0.0,137199081,125796000,10982000,151779026,8
239012136,5863577,135757362,2533996,139119667,2528138,3095746,13353198,480478108,59443,246395568,30264,10689,847287424,4621,3.31,1.62,1.55,0.1,0.0,130029619,122759000,6986000,144685804,8
277593217,8241113,154540876,2807041,157390289,2743456,4809620,17768466,541589966,63563,287367742,22729,13549,970149151,6778,3.75,1.81,1.75,0.12,0.0,146212358,134784000,10982000,160830921,8
272171031,11963829,152207739,2556987,148274562,2539897,10370181,28146341,597871483,3389785,270137289,43728,15498,908359583,9902,4.2,2.02,1.95,0.17,0.0,160927139,145666000,14965000,175773445,8
289214078,6274404,167624585,2896204,167458603,2895830,3864270,15958817,660458862,91556,291078839,40131,15973,1066777649,6774,4.51,2.18,2.1,0.14,0.0,179404683,167005000,12000000,194102871,8
283696137,27988920,179287543,2856169,183381116,2853045,20043742,48618631,1056209767,1199421,293033840,48717,18753,956238592,7749,7.07,3.21,3.08,0.31,0.0,284056232,271682000,12030000,298760849,8
272180404,8205296,146812648,554092,146188533,555109,4410610,17099006,479426875,54314,272977055,43509,34829,995928984,7947,3.29,1.59,1.54,0.11,0.0,128875494,115467000,12940000,143484120,8
270992097,17977784,170129718,2889726,175614676,2903003,6831223,28144051,632307635,232390,274527897,35753,21697,1061258950,6567,4.43,2.13,2.05,0.17,0.0,171021818,159618000,10973000,185802726,8
249999543,8270138,147959314,2745542,151461623,2765258,3935792,18027139,545163977,82285,257462422,29001,9647,881554932,4620,3.85,1.81,1.75,0.12,0.0,147835722,138550000,8970000,162475716,8
298926746,8775327,192304169,9063611,195986586,8941076,6839343,22539694,771772091,51240,306969279,55097,14321,1046542875,6667,5.45,2.68,2.58,0.17,0.0,208277297,189898000,17990000,222618425,8
234126351,7949714,153039650,3251228,152142273,3238179,4561466,17794100,523385382,54606,226130271,37928,11687,864419042,5018,3.59,1.73,1.67,0.12,0.0,140790116,133495000,6973000,155317951,8
355879517,7437910,177352509,2775322,176888199,2746354,4135808,18211528,621653713,69196,346300511,39502,20533,1103330061,4622,4.3,2.1,2.03,0.13,0.0,168024375,159697000,8035000,182586826,8
346410841,10490860,225532807,2914835,223338996,2942509,8706968,21708248,959860978,147975,340172807,326059,72154,1333684190,63026,6.58,3.09,2.97,0.21,0.0,259569190,152113000,107079000,274212015,8
811477627,12617454,459317679,3834422,457632130,3768392,11905975,33358344,1765390366,1094087,825630085,108676,637317,2404672557,9896,12.02,5.81,5.62,0.34,0.0,473153769,402797000,69964000,487594192,8
250314418,8366910,184749713,3221047,186010023,3215839,4132261,18839856,575780801,55819,257108760,17747,8457,1114950411,4423,4.01,1.94,1.87,0.12,0.0,155403784,147046000,8002000,170034529,8
282721194,5747879,192798314,5050152,196373813,5087085,4144204,15518508,610530703,35672,292283458,41660,12104,1004200646,4621,4.23,2.08,2.02,0.13,0.0,164104323,152807000,10986000,178645661,8
421103841,9447055,194172744,491312,187915395,483981,4860846,19751668,660526778,57270,420895461,22589,15822,1494239673,5800,4.57,2.23,2.17,0.14,0.0,178553199,169238000,9012000,193374863,8
296109480,5989656,148288573,2764499,150251620,2757067,3249228,14821436,564994187,63692,304277849,25471,8742,927562587,4621,3.84,1.84,1.78,0.12,0.0,153905758,147628000,5984000,168642897,8
267271796,16173254,150588444,2812091,154620990,2826181,7523778,26891880,565478707,244565,276836177,21531,12316,929569973,4624,3.98,1.9,1.83,0.16,0.0,152606254,140350000,11944000,167070512,8
759053803,28723058,432466480,4070642,432545421,4103097,12235281,45950937,1624558872,791693,761500668,87506,390242,2270813164,6785,11.35,5.56,5.37,0.36,0.0,437395361,365074000,72014000,451938371,8
224924641,6014339,136681274,2746590,140182896,2760558,3422449,13931088,482345363,53755,234406016,24079,11275,826684291,4621,3.3,1.6,1.55,0.1,0.0,129550472,119287000,9940000,144339723,8
330189126,7972046,167012701,493254,166895604,492438,3551981,17002344,522968288,66134,330860108,62182,12648,1167782541,6383,3.66,1.79,1.73,0.11,0.0,141201530,131811000,9055000,155833324,8
227954981,16559432,125007715,460336,126845513,473328,6560494,26362121,473051850,261412,239276113,16790,17248,766060281,4883,3.37,1.61,1.55,0.14,0.0,127746530,116275000,11026000,142311501,8
225280649,15332292,135781627,2750929,140013214,2762088,7227262,25106285,522595923,245177,236122925,34081,11463,797490683,4626,3.73,1.79,1.71,0.15,0.0,140805355,134383000,6017000,155331696,8
495270218,8395149,212570220,3341372,215658791,3307360,4347561,20391737,794816374,94812,495340700,75345,14324,1529584039,6661,5.5,2.71,2.62,0.16,0.0,214750414,199466000,14959000,229098772,8
342295067,8363917,189149047,3330387,189505993,3300900,4602607,17661175,638168093,55092,340577524,44533,32211,1245657270,6385,4.42,2.17,2.09,0.14,0.0,172026461,161725000,9983000,186559095,8
242390058,8127109,142478958,4138654,146433532,4093923,4266508,17585407,540410872,50350,251291324,15426,11794,856335097,4627,3.74,1.82,1.77,0.12,0.0,146324547,137067000,8939000,160869368,8
237968124,5848491,139764410,2726718,143728294,2743072,3121566,13254309,471137413,71718,248424927,32003,10679,882092644,4621,3.23,1.57,1.52,0.1,0.0,128440280,122196000,5960000,142890085,8
237565611,6402148,136692323,2713877,140976969,2766929,3531101,14530535,500841060,277162,244498874,29925,10747,840339805,4621,3.42,1.65,1.6,0.11,0.0,134841610,128491000,6023000,149420214,8
1017408266,37223184,447394154,1942054,451250358,1958999,4068595,58246680,1580308580,80947,1020299874,22223,17251,4559456763,1705,11.15,5.52,5.35,0.28,0.0,426897189,420483000,5992000,441548603,8
313590023,8490078,168597125,2969569,169367601,2972066,5086617,18740217,628047011,154840,311090095,40900,13947,1183941744,5645,4.38,2.13,2.05,0.14,0.0,169311082,155999000,12999000,183606497,8
949702010,17764812,516269775,5958852,517866829,5960241,6159016,35175492,1918639231,1191937,959425214,52968,229017,3086500858,5010,13.08,6.46,6.25,0.35,0.0,516873180,450632000,65946000,531751114,8
283152974,8163084,156383607,3346025,156567948,3347980,3940889,17189621,568875484,74142,289519661,65689,15313,1012289663,6657,3.88,1.87,1.81,0.12,0.0,154720339,145379000,9023000,169368550,8
273769319,18563620,153794914,942128,158015764,957950,6834340,29702310,973947648,362658,286321661,610820,215072,908912163,4627,6.55,3.1,2.99,0.21,0.0,262589881,196195000,66065000,277098579,8
339232470,6064649,167359133,2784529,170852535,2789503,3173974,14755229,588556080,68270,344834023,32116,11225,1071206423,4623,4.06,1.97,1.9,0.12,0.0,160041151,147761000,11980000,174492772,8
366053720,10111949,226843187,3541218,228322549,3537585,7057636,25353670,827891144,2703673,369422338,34516,14708,1312718612,5375,5.65,2.7,2.6,0.18,0.0,224032857,212739000,10986000,238327907,8
241224215,6125935,148573662,2795375,147047546,2774466,4106302,15343985,482366862,64155,228635233,28585,21691,861529703,4424,3.33,1.6,1.55,0.11,0.0,129782092,117527000,11951000,144389591,8
262094014,8117115,151294087,3033974,155414644,3050167,4173801,17288203,567062647,53196,272950622,30331,350972,952166100,4424,4.03,1.89,1.82,0.12,0.0,153466421,143120000,10008000,168176820,8
749701906,17198893,417433613,1489927,417283910,1489498,6392331,29756434,1432992237,421407,759705993,45157,216858,2234621910,3290,9.87,4.87,4.71,0.28,0.0,385784788,323529000,61910000,400500585,8
231934940,17845496,130560233,2438000,133654917,2446527,6873235,27328346,473876092,203572,237853818,19098,10374,771575832,4748,3.39,1.62,1.57,0.14,0.0,128881176,117629000,11059000,143506268,8
696732801,8685229,418954503,3798409,421609880,3822836,4112571,20044571,1434228408,283770,709139230,41702,219262,2189305884,4615,9.77,4.8,4.64,0.25,0.0,387181042,323860000,62972000,401860463,8
789026790,19120936,472258826,6242902,473942407,6201440,6535584,36537504,1684735495,1197175,799973444,46797,219462,2474383381,5033,11.57,5.69,5.51,0.32,0.0,455357428,390833000,64136000,470157169,8
244811446,8006636,138008477,478278,137761785,467292,4202685,18096864,407350898,39400,235596865,28391,9489,789388102,4235,2.87,1.39,1.35,0.1,0.0,109749853,99395000,9939000,124449683,8
475965578,34853415,228993744,2779082,228001986,2744414,19085125,61048895,953978493,2485150,479566730,40046,18963,1483858052,8733,6.82,3.21,3.09,0.3,0.0,258217413,235933000,21993000,272501560,8
407346879,20365483,264371848,2186898,272775394,2233263,14632678,44910160,1611667066,1069292,405636113,242159,650367,1450964948,12232,9.43,4.53,4.37,0.32,0.0,355486414,276965000,76990000,369747700,8
330315706,8213014,168444227,3048016,171839835,3057459,4828339,18907204,606561536,92637,326246732,46721,27277,1126397150,6582,4.2,2.04,1.97,0.13,0.0,164083893,156765000,7034000,178466271,8
708035036,6585647,424174313,3934420,426172621,3943461,3256907,17340866,1450538625,275563,722491540,45768,217351,2223017199,4614,9.84,4.82,4.65,0.25,0.0,391014970,315430000,75102000,405527039,8
236896558,7912442,140483217,2649346,143914093,2622261,4682269,17335377,500487525,54009,248474654,25544,12754,860310771,6777,3.47,1.66,1.6,0.12,0.0,134623939,122275000,12027000,149193379,8
398115132,5923754,179382670,3399508,179033985,3397047,3542166,16143748,720877159,67278,402187039,37039,11861,1264554656,4232,4.93,2.43,2.35,0.14,0.0,194168399,186848000,6994000,208779482,8
287806964,8039041,157650787,3269397,157413631,3235782,3840286,17112490,578894464,58662,282120891,32504,20433,1103841945,4232,4.0,1.94,1.87,0.13,0.0,156514915,147151000,9009000,171074542,8
438225852,11413473,187349876,2958267,186446915,2916871,8789442,27216930,846453305,129543,426660930,66831,51520,1402021006,11073,5.88,2.84,2.74,0.2,0.0,228476454,209169000,19015000,243214352,8
245823327,6242299,135291458,2624541,137982769,2643684,3978182,14756989,476135396,62212,254091367,26872,11610,828834951,5137,3.28,1.58,1.52,0.11,0.0,128614168,118387000,9948000,143143038,8
741433341,8323610,436719841,3945156,440253269,3963294,6878582,23487044,1494453882,425491,758857790,37930,216384,2332340610,4037,10.23,5.03,4.87,0.27,0.0,404043901,342755000,60956000,418844992,8
751017472,7238273,446920997,3942173,450989195,3928925,4130559,18717987,1506697983,287912,757861969,154808,236413,2353753244,6767,10.43,5.05,4.88,0.27,0.0,408818798,332385000,76088000,423355570,8
475190422,15183602,251039775,8159679,253880576,8158032,12800580,41031288,1132348286,846794,480927227,37895,14822,1674245860,4043,7.72,3.67,3.55,0.26,0.0,304682922,295380000,8981000,319449359,8
786925168,7112698,444386973,4474069,444036804,4472030,4092825,20115576,1662501360,408616,794116164,60815,222923,2475264718,4616,11.3,5.55,5.37,0.29,0.0,450642872,376265000,74052000,465422443,8
796580205,18360433,455461347,5904676,455061226,5900678,7242656,33466316,1648087390,393451,798844699,47428,225543,2460649162,4618,11.44,5.56,5.38,0.32,0.0,445672151,376127000,69023000,460328143,8
722148538,8422312,434628309,4028764,438339127,4014276,4262810,20777157,1477611616,271629,728061713,61664,219120,2253438489,6770,10.11,4.96,4.79,0.26,0.0,399344671,312019000,87005000,414009958,8
845960930,13006979,492513053,4323748,492484573,4305544,13300677,36016847,1783871980,782238,847084185,96535,623527,2514901551,7941,12.3,5.89,5.7,0.35,0.0,481243130,395673000,85144000,495918369,8
399081342,7420143,177436628,670362,177380182,675473,3831531,17646497,671353312,197990,410509595,10915,9298,1343802029,3652,4.57,2.17,2.1,0.14,0.0,184049940,174783000,9040000,198541279,8
716085010,6599104,426620972,3937863,429745310,3951061,3267518,16784575,1432083375,272708,727751813,41095,216870,2206700578,4613,9.82,4.83,4.68,0.25,0.0,386742715,317545000,68901000,401456290,8
249398588,6183421,144505252,511077,144413625,511413,3432231,13964165,466610488,45808,242539649,33948,9909,978524182,4427,3.21,1.54,1.49,0.11,0.0,126110931,118744000,7044000,140584863,8
242757466,7884217,139647726,2555140,142671112,2527043,4093617,17617212,510161994,59564,251503066,19196,11134,858189426,6583,3.5,1.69,1.64,0.12,0.0,137515656,126180000,10929000,152218003,8
144752860,173812,75166319,72149,75164433,72032,143395,1084886,148211301,5373,144831888,1356,1515,368136373,374,1.04,0.52,0.51,0.02,0.0,40610545,38400000,1969000,55236650,9
143245374,230270,74893063,78071,74944412,73848,161681,1153058,152850802,4793,149110970,1237,1226,371337911,381,1.07,0.53,0.51,0.02,0.0,41377527,40023000,1000000,55829859,9
43437675,150950,20613818,61189,21201973,62553,146589,810193,51604468,3377,60628181,855,1515,132465002,2338,0.37,0.16,0.15,0.01,0.0,15090091,14837000,0,29889976,9
161392250,1858031,104071197,113626,99643903,114464,2405128,4775243,215429482,53720,164178124,35656,8152,551798341,6233,1.54,0.77,0.73,0.05,0.0,58065591,46833000,10960000,72633675,9
46602933,502574,24241381,63759,24181979,62424,407211,1238235,58421015,5479,49113016,10387,3212,133400383,2086,0.4,0.19,0.19,0.01,0.0,15751791,9662000,5797000,30280087,9
64768503,287463,30293196,62880,26433239,65559,619158,1493899,65599301,12360,39039342,12602,4014,154472230,3122,0.48,0.23,0.22,0.01,0.0,18169578,12908000,4964000,32787945,9
39035703,216159,20931745,70104,20885009,67269,141026,604457,40327907,2159,45264675,2669,1124,118794641,382,0.28,0.14,0.13,0.01,0.0,10565218,8469000,1882000,24995761,9
2143194,155512,4143206,35353,5791006,35811,117262,507315,14566549,2667,6664353,1703,?,?,453,0.1,0.05,0.05,0.0,0.0,3762599,888000,2664000,18338563,9
142905899,202928,75855534,78544,75833289,78927,162364,1145347,154781803,5648,144061491,1857,1505,370488409,370,1.08,0.54,0.54,0.02,0.0,42293940,40912000,997000,57023362,9
148254615,328607,77958674,75277,75825819,75242,342928,1430181,158304144,8189,146368782,2858,1593,387032454,1373,1.11,0.55,0.53,0.03,0.0,43068014,38825000,3982000,57738821,9
2233761,183839,5020195,41333,7003746,36722,117274,531244,18687178,2499,11566001,1135,3036,14275433,450,0.16,0.07,0.06,0.0,0.0,4747481,1808000,2713000,19045400,9
38943306,413273,19405632,62978,19328771,62280,249602,801688,48351166,3394,56467484,7387,2206,119134118,1353,0.36,0.18,0.16,0.01,0.0,13117539,8854000,3935000,27482623,9
39821666,222765,21321086,64255,21957160,63619,171187,780188,44934737,2035,51702353,1271,1028,119483588,431,0.32,0.14,0.13,0.01,0.0,12998902,8819000,3919000,27755749,9
940216,124205,4464776,40804,7277687,37084,80190,377328,14861971,3837,7347278,3757,?,?,381,0.1,0.05,0.04,0.0,0.0,3889824,3674000,0,18261958,9
139338051,231158,75891265,78953,75911814,79466,145291,1160564,160587664,5799,151073464,2517,2187,374603985,2348,1.11,0.55,0.54,0.02,0.0,43782565,42482000,1011000,58235224,9
143116941,217958,74991177,74843,75047417,75073,161749,1135996,153556162,5263,146945546,1708,1237,373634897,381,1.05,0.53,0.52,0.02,0.0,40915962,38651000,1982000,55435846,9
66708026,234201,36402526,69923,36299918,72597,168115,902195,64922176,4349,68214132,5374,3807,190268129,610,0.47,0.24,0.23,0.01,0.0,17252998,14974000,1996000,31683288,9
139610851,450746,76189390,76625,76127673,79977,331934,1487933,160735273,5072,150922683,2522,2171,369804408,1359,1.13,0.56,0.54,0.03,0.0,43200107,40914000,1995000,57816586,9
960190,157083,3851428,33690,5508109,33674,102389,460364,13899699,2160,8517044,1841,?,?,405,0.1,0.05,0.04,0.0,0.0,3718408,2578000,859000,18411128,9
144242711,300192,77157775,80020,77163271,79034,168546,1233815,156041713,5103,148157648,4870,1890,376534172,625,1.09,0.54,0.53,0.02,0.0,41827170,38574000,2967000,56727996,9
137563085,267930,75878144,77565,76063172,79192,177674,1215397,152404091,5211,142115212,3413,1775,365044763,622,1.05,0.52,0.51,0.02,0.0,41251804,38012000,3001000,55676222,9
71684353,214208,36518454,70619,36124440,71217,161243,919201,64707129,4596,67579590,4942,1524,195013019,653,0.47,0.24,0.23,0.01,0.0,17633060,17345000,0,32254773,9
73512069,234749,40259459,78219,35916897,73242,362881,1253979,71801222,8197,64600347,10888,2211,203030511,1597,0.49,0.23,0.23,0.01,0.0,19842974,16556000,3104000,34426838,9
141093009,209626,75606712,76016,75484063,75925,188696,1193151,152898489,6110,143883407,3021,2385,371794152,619,1.08,0.54,0.52,0.02,0.0,41471455,40159000,1003000,55922506,9
139791332,619184,100453820,82504,99943212,81363,422556,1474320,168070187,8300,162814672,8043,4168,499427187,2331,1.21,0.62,0.59,0.03,0.0,45452974,40120000,5015000,60118196,9
76010361,260506,38535273,73110,37353331,71706,362154,1256078,71469965,7967,69413773,6498,2362,201398617,1598,0.5,0.25,0.25,0.01,0.0,19330760,15022000,4005000,33969625,9
140577407,226331,75741982,81494,75755891,83316,168096,1165811,150158031,5446,143741887,1830,1641,369852346,373,1.05,0.52,0.51,0.02,0.0,40965477,39613000,990000,55310888,9
71794242,144496,37079225,66636,36486771,70311,108846,723769,66472897,3446,72620727,1832,2015,207544196,173,0.47,0.24,0.24,0.01,0.0,17782405,15556000,1944000,32545375,9
2197823,166840,4363151,33615,5759548,34534,110461,484388,14561585,2245,8698519,2218,?,?,451,0.1,0.05,0.05,0.0,0.0,3877670,2740000,913000,18354943,9
44170920,515178,24026358,60414,23867818,63684,422403,1258244,55419137,4669,49386058,11190,2974,133505599,2087,0.4,0.19,0.18,0.01,0.0,14931775,11743000,2935000,30052286,9
136600387,245445,75906542,73585,75814848,73701,152424,1145530,152403038,4553,142513958,2390,1632,365759819,416,1.09,0.53,0.52,0.02,0.0,41340671,38997000,1999000,55811140,9
67603473,182059,30591701,60412,24718436,63665,464223,1238495,57410637,7676,44128477,15575,2376,158999381,2349,0.41,0.2,0.2,0.01,0.0,15714441,11261000,4095000,30217455,9
52339601,694762,32706149,62029,34766241,59128,843873,1909623,74049058,17079,32778896,40183,6699,127838805,4066,0.51,0.25,0.24,0.02,0.0,19922172,12747000,6864000,35028456,9
41340914,182663,21380261,59354,21381218,59116,140210,744310,48509468,2440,55724490,2105,2017,117523802,1361,0.34,0.17,0.16,0.01,0.0,12916966,10536000,2107000,27504906,9
49574739,145044,22825699,59630,18698857,60706,278721,966829,49131225,3876,46719670,2355,494,137568640,1123,0.33,0.16,0.16,0.01,0.0,13216562,10700000,2140000,27737210,9
47460265,188835,20177714,60381,20105182,59259,154047,684646,45396739,2109,53778730,646,821,123499203,387,0.3,0.15,0.15,0.01,0.0,12129658,11890000,0,26656580,9
63952987,442986,39871703,88408,43535009,82404,345085,1032145,85177844,24412,66580973,10006,7376,189446886,4045,0.6,0.3,0.29,0.02,0.0,22882805,18451000,4100000,37619226,9
2982157,193253,4694837,51019,6874601,37669,113155,513737,18553165,9254,10518987,789,3478,28949749,1392,0.14,0.06,0.05,0.0,0.0,5365330,3074000,2049000,19999652,9
8603773,245777,9363171,46314,12863600,33444,180704,553981,27972977,5670,11691211,9467,4959,44656208,1284,0.2,0.09,0.09,0.01,0.0,7784977,5279000,2111000,22089729,9
138461363,234209,75635537,72405,75698383,75305,145482,1137997,151523013,4419,142216467,3120,1559,364844984,372,1.12,0.51,0.49,0.02,0.0,41722056,38442000,2957000,56452867,9
142009155,244249,75898827,77045,76031034,76821,186852,1247153,157521119,5720,142606910,3450,1818,366171679,620,1.1,0.56,0.54,0.02,0.0,42874223,38636000,3962000,57337353,9
2779982,178894,5050421,33684,6368816,33936,100029,435751,14322157,2089,8945768,2380,?,?,380,0.1,0.05,0.05,0.0,0.0,3954641,2803000,934000,18433067,9
1774633,158510,4292506,35718,5599768,36092,105624,483754,15977026,2105,11220324,1661,?,?,400,0.13,0.06,0.05,0.0,0.0,4050124,941000,2823000,18669711,9
38902782,206783,22258215,62055,22256848,62571,144960,710538,47839066,2178,51227055,2211,2400,114894544,1356,0.33,0.16,0.16,0.01,0.0,12797532,11481000,1043000,27253762,9
992904,161493,3889589,35165,5758106,34792,110028,485674,14301310,2259,11642278,1957,?,?,451,0.1,0.05,0.05,0.0,0.0,3765152,2614000,871000,18342460,9
65853024,230688,36090748,71782,34977469,72173,156544,881961,62794835,4166,66427380,4848,1289,187914875,610,0.45,0.23,0.23,0.01,0.0,16875625,10734000,5855000,31499942,9
69845050,210871,36183216,58741,35054916,60095,163573,851216,64370854,5283,70312066,2639,1278,199329164,880,0.45,0.23,0.23,0.01,0.0,17238365,14951000,1993000,31805407,9
42378714,202883,21638379,63121,21612612,61906,146840,608640,42918369,2193,45963833,2808,1060,116256588,376,0.3,0.15,0.14,0.01,0.0,11457623,10198000,1019000,25869974,9
40287183,168140,22299809,59081,21863597,59297,131749,612360,44396774,1651,54035132,691,770,135095294,178,0.31,0.15,0.15,0.01,0.0,12155915,10883000,989000,26659008,9
69206867,421529,30852139,60514,24739715,62831,633983,1627680,57657112,7670,47865461,17552,2018,166092260,2350,0.41,0.2,0.19,0.01,0.0,15670627,11575000,3858000,30179958,9
10974978,887913,16245683,71469,16636466,71259,868808,1820859,62478003,10476,12594186,17791,9616,58085311,6278,0.42,0.19,0.19,0.02,0.0,17101123,6913000,9876000,31929358,9
65209459,261832,38495962,79585,39803583,71809,153497,896155,68812708,13721,60928242,4538,3379,180172301,1588,0.48,0.22,0.2,0.01,0.0,20425104,16142000,4035000,35169382,9
2404672,173915,4345061,36305,5634226,36898,110316,488271,13910387,2390,5519317,1190,?,?,401,0.1,0.04,0.04,0.0,0.0,3832001,1765000,1765000,18394579,9
153837209,147097,81479056,75770,76374506,77772,395329,1641522,164172644,10294,141961397,7791,1339,393681445,1367,1.14,0.58,0.56,0.03,0.0,44694213,41388000,2956000,59433014,9
70421497,179923,35984261,62817,35655335,66683,282325,1038067,66822359,6223,66677029,2958,1075,190318453,633,0.45,0.21,0.2,0.01,0.0,17469857,16108000,947000,31926106,9
137417267,237800,75379723,75776,75448745,76907,191977,1170237,154761680,5221,144214328,2718,1776,364719204,616,1.06,0.54,0.53,0.02,0.0,41814558,40570000,1014000,56302095,9
1284970,152056,4174503,33691,5579464,33251,101022,438321,15219425,4182,7904398,1699,?,?,622,0.13,0.06,0.05,0.0,0.0,3913811,922000,2767000,18386766,9
1233611,160783,3617127,40534,5766157,35810,110245,495008,13909332,2489,10574873,3134,?,?,451,0.1,0.04,0.05,0.0,0.0,3886164,2402000,1201000,18249151,9
134418548,235491,76424260,78616,76600644,77816,145861,1108324,155784880,5020,145142150,2831,1783,360269453,621,1.09,0.54,0.53,0.02,0.0,41887363,41637000,0,56335217,9
49576062,182985,22000133,62470,21734261,62151,167573,755277,45857767,2550,54998229,815,737,133990092,432,0.34,0.17,0.16,0.01,0.0,12402075,11015000,1001000,26867212,9
37670173,424705,21280757,63771,21045039,63090,246094,809086,49672710,2246,54111112,8623,2395,126136322,1365,0.33,0.17,0.17,0.01,0.0,13439432,11127000,2023000,28161989,9
48506173,172452,19818457,58040,20009139,60416,162940,681111,44697751,2465,54213440,706,935,121686460,391,0.34,0.17,0.16,0.01,0.0,11997286,10613000,1061000,26243667,9
42646443,171246,22807451,60718,22755602,62614,144182,701158,44815573,2511,48280964,2578,1263,121441138,620,0.33,0.17,0.15,0.01,0.0,12204374,11942000,0,26429068,9
140218918,226268,75990348,80980,75978665,79463,159588,1206168,159866883,7198,141461668,2851,2263,363456390,374,1.08,0.53,0.51,0.02,0.0,43914867,42616000,991000,58548338,9
140369456,264617,75000987,92917,75145671,92470,191800,1402220,157334963,5098,148632438,1332,1274,378952976,442,1.08,0.54,0.53,0.02,0.0,42352789,39032000,3029000,56971800,9
67581187,169157,34809894,71273,34785141,71461,136748,836336,61038406,4344,66447979,2835,1005,187116699,390,0.44,0.22,0.22,0.01,0.0,16491119,15248000,1016000,30980938,9
47276745,438960,21118509,61521,21502337,59957,300358,1055987,50743342,2582,62963995,3847,2227,134001834,1374,0.36,0.18,0.17,0.01,0.0,13794782,11528000,1921000,28324867,9
118152556,183989,73063324,79230,73105591,79807,147185,1199215,158982440,6020,118084698,2450,2261,417449730,377,1.13,0.57,0.55,0.02,0.0,43679092,42330000,1007000,58280792,9
142243878,341957,76459712,79680,76448905,79009,249174,1296037,158396092,6346,144297827,6408,2616,372494979,1361,1.12,0.56,0.54,0.03,0.0,43069480,40789000,1989000,57329576,9
3855260,259335,6274413,43927,7300666,36888,108572,526591,18487042,2182,16525899,1168,1971,6626281,446,0.12,0.06,0.07,0.0,0.0,5113152,1903000,2855000,19735429,9
149581440,622373,85543950,95494,87053611,95991,1167557,2818210,218911472,24530,143862978,15430,9073,404205786,6291,1.48,0.7,0.66,0.04,0.0,61936405,50511000,11112000,76303754,9
864566,120649,3984767,35374,6240254,33566,77258,374992,12357647,2231,12991522,1867,?,?,149,0.1,0.05,0.04,0.0,0.0,3413045,2419000,806000,17968868,9
139874993,234467,75643475,73641,75679002,73206,142598,1142941,158597364,5025,142151651,2709,1590,364959272,371,1.09,0.55,0.54,0.02,0.0,42911165,41621000,990000,57474392,9
43586032,349372,22943618,64231,22855906,63431,239407,929940,49401836,3252,47556460,5082,1916,125271303,1116,0.34,0.17,0.17,0.01,0.0,13214628,10893000,1980000,27415970,9
56991095,184423,25512414,56908,21013145,59159,323979,991664,51461155,5243,48293379,4430,541,149743780,1372,0.35,0.15,0.15,0.01,0.0,14929964,12579000,2096000,29549624,9
17268529,631054,10386133,70013,5162934,53387,388336,898080,35565239,19761,14569077,12687,7720,50171471,2362,0.23,0.11,0.11,0.01,0.0,9139162,1962000,6869000,23809842,9
1026694,157312,4046019,36583,6632210,35594,110020,481498,16281596,4436,10832900,1942,?,?,653,0.13,0.05,0.05,0.0,0.0,4046432,1889000,1889000,18438654,9
41630996,158709,21809001,59694,21763777,58330,121537,578669,45121617,1511,55248838,685,852,137148859,179,0.33,0.16,0.15,0.01,0.0,12044963,10795000,981000,26584625,9
137150517,252075,75934138,80013,76103935,77545,165778,1025768,155485519,4001,143054182,5687,1247,364931988,373,1.13,0.52,0.51,0.02,0.0,41350021,39041000,2002000,55448555,9
3290542,191312,4945470,34499,5777523,35191,114540,483651,13750736,2375,12318218,262,?,?,449,0.1,0.05,0.05,0.0,0.0,3722809,1732000,1732000,18093263,9
280518799,2484008,174650044,904956,170412378,884223,3047521,8234545,445161374,190602,270292508,30115,6935,861772297,3518,3.07,1.49,1.44,0.09,0.0,119754490,112525000,7032000,134023869,10
121677899,2836569,86657402,296338,85110707,303320,2457525,6677447,271628040,128284,123860677,24223,6701,432934963,4374,1.86,0.89,0.85,0.07,0.0,73601802,64471000,8926000,88360148,10
111111482,2956078,76207309,311239,73354103,295663,3204092,8033680,278686758,188582,105558119,26004,6284,396094800,5796,1.85,0.82,0.79,0.07,0.0,77816843,68532000,9070000,92211547,10
106632839,1144581,75269028,276680,75558451,250598,831889,3964139,179709483,17669,107559360,10137,4002,365200839,2023,1.24,0.61,0.58,0.04,0.0,48296959,46002000,2000000,63201843,10
102772086,981304,63598902,821231,65476849,704224,561553,3530152,179784139,17389,112192927,9665,4111,358254093,1892,1.24,0.61,0.59,0.03,0.0,48618791,43386000,4930000,63093098,10
124393466,3454179,90424092,607422,88046671,651613,3838587,8520654,324677198,222122,127127241,38768,8491,467655755,5751,2.18,1.04,1.01,0.08,0.0,87434182,79088000,8008000,102032335,10
91728542,934478,57714992,850781,58679683,786558,519508,3633168,172411596,14407,98225178,14476,4104,334726561,1988,1.18,0.52,0.5,0.03,0.0,48949612,44661000,3969000,63540877,10
100778639,2364315,70553914,351920,69653154,325932,2523360,6307789,257047362,193227,103012949,17990,4951,366753481,3522,1.72,0.81,0.78,0.06,0.0,68964715,56627000,11921000,83740000,10
99682381,2057607,70406824,351432,70691747,314246,2216805,6245125,245754626,137996,102322637,15606,6013,367364731,3259,1.67,0.78,0.75,0.06,0.0,66188367,57822000,7975000,80808190,10
109313294,2209662,74589256,727868,71977792,761699,1973431,5493380,260009380,155436,109455673,23895,5271,393812232,3519,1.76,0.82,0.79,0.06,0.0,70716893,61300000,9044000,85172853,10
92577577,920831,60146185,654109,61659768,519820,745736,3729473,171241974,18480,95984022,9023,2443,326428567,2023,1.17,0.57,0.55,0.03,0.0,45925459,42595000,3042000,60444861,10
101265019,2402984,70975614,337768,69968652,310568,2483268,6450360,256043820,196862,103524953,19289,5453,369623996,3615,1.73,0.81,0.78,0.06,0.0,68657322,61421000,6934000,83396862,10
277756595,2945671,174193670,606938,174056922,578353,2879520,8245031,448626116,198883,270207055,29303,8688,854203552,5034,3.08,1.49,1.45,0.1,0.0,121709617,112417000,8953000,136612422,10
310090622,1582193,191272282,1216142,189290194,1199047,1288242,5088070,411066978,24335,304954093,20967,4335,953403098,2993,2.89,1.43,1.39,0.07,0.0,112615270,102298000,10029000,127414727,10
118288620,2633763,84210838,293471,83439164,299118,2423837,6341791,273899691,175004,119137875,20325,4804,418505527,3519,1.85,0.87,0.84,0.07,0.0,73959165,62689000,10945000,88549016,10
102307415,2132429,73231649,351691,71586401,328494,2134735,6144523,248535861,134879,103284930,18554,4767,378272387,3308,1.69,0.79,0.77,0.06,0.0,67029385,58710000,7960000,81454470,10
111897461,3062406,75677295,299758,72850240,290419,3362306,8071261,284602928,197855,108810579,22707,7662,403174898,5990,1.91,0.88,0.85,0.07,0.0,76967486,67487000,9065000,91262130,10
280382475,2714199,173775570,694080,168898253,699500,2588081,7159727,430133808,127642,274463994,26852,8078,869313645,3839,3.0,1.46,1.42,0.09,0.0,115800091,110326000,5014000,130630628,10
146872494,4300838,113627367,3223532,107898746,3369745,2742030,10014674,444342305,153569,148432631,45506,10524,541578780,6450,3.0,1.44,1.38,0.09,0.0,119991609,107706000,11967000,134787330,10
161355049,3455171,141307969,595958,138170762,577679,5364856,10019677,425805834,382899,156915805,40051,9725,653553769,5992,2.89,1.35,1.31,0.11,0.0,115030935,103669000,10965000,129451447,10
273203089,1729673,170737359,1251164,172447458,1313300,1204994,4436838,406765306,77788,275730415,20882,9304,834865948,2765,2.86,1.43,1.38,0.07,0.0,110409913,102041000,8003000,124967827,10
157182924,2454744,107941023,785199,102307207,838385,2255878,5616227,314422410,82623,159128520,47929,15543,580116006,6315,2.13,0.97,0.93,0.07,0.0,87631476,72419000,14880000,102296692,10
104245771,3071955,72248264,306236,70335421,330705,2639558,6563891,271911928,158786,108201042,23198,13018,378664182,4693,1.83,0.86,0.83,0.07,0.0,72713840,67309000,5023000,87428686,10
277870025,2705493,176986820,897479,173805974,855750,2918136,8343032,450828082,201067,263006962,33442,7374,848259721,4299,3.11,1.51,1.47,0.1,0.0,121347260,112056000,9004000,136097411,10
105508199,1194093,73930093,279347,73883790,246433,827350,4260583,174508929,22381,105971568,14357,5809,356577094,2226,1.26,0.59,0.57,0.03,0.0,47183004,44821000,2037000,61967815,10
276525910,2976206,173966401,752049,170099509,755326,2808867,7993528,464745540,178828,273352246,42733,8582,858975028,5985,3.22,1.55,1.5,0.1,0.0,125953157,112533000,13061000,140474533,10
111295535,3083813,75309583,310840,73011621,296468,3349092,8191268,285676033,200256,108107975,26632,9452,400238756,5989,1.94,0.91,0.87,0.07,0.0,77724403,68475000,8931000,92420345,10
147084308,4368637,109576222,698703,107433648,689001,6390908,11873677,454429783,615638,144996801,36198,12253,546511877,6251,3.08,1.4,1.33,0.13,0.0,122969953,114444000,8031000,137560689,10
279687116,1660875,172279082,846931,170428559,835782,1388757,5027816,370535463,21047,282748493,22025,7094,864191670,2993,2.63,1.32,1.27,0.07,0.0,100583946,93291000,6947000,115243328,10
265782388,1069453,158634495,666562,155524299,725339,641455,4493906,337578218,19034,267218438,23929,6070,795213637,2014,2.4,1.22,1.18,0.06,0.0,91412874,88089000,3003000,106154060,10
267162446,1289168,162585296,1113886,159871723,1234425,594147,3466412,352036166,19608,263505318,19198,4585,803621166,2017,2.46,1.23,1.2,0.06,0.0,95155136,91880000,2996000,109826635,10
84599062,927949,72790481,669913,75105360,535591,637572,3630814,169070619,13974,86166106,11763,3201,374253088,1890,1.18,0.58,0.56,0.03,0.0,45450399,42104000,3007000,60185404,10
267308898,1293112,162344475,1136218,159621792,1260784,601225,3473654,352436344,20065,264252559,20631,4375,804175182,2018,2.5,1.22,1.19,0.06,0.0,95149501,89843000,4991000,109747291,10
123862810,3857189,94269284,358137,93092283,389006,4267774,8865770,370819968,178616,120771123,80943,21444,472711402,17324,2.49,1.16,1.12,0.09,0.0,100044702,71806000,27924000,114619570,10
110957245,3029401,76195506,314249,74059013,303883,3225889,8307838,289477148,198433,110246584,20468,6375,406481303,5801,1.95,0.91,0.88,0.07,0.0,78154423,66848000,10975000,92674639,10
95337593,1159124,64317890,480667,67547048,420668,1078106,4092829,176306061,19658,102799164,24193,5941,349077458,2869,1.23,0.59,0.57,0.04,0.0,47996353,45668000,2029000,62575817,10
93348637,945502,60152851,680803,63580765,550529,686945,3837180,173627689,23163,97960368,13468,3387,325567596,2071,1.17,0.57,0.56,0.03,0.0,46624071,40329000,6049000,61161267,10
102611121,1582715,72039879,594512,67711773,731757,901834,3275805,199924887,21237,108280895,17629,6093,379158069,2998,1.35,0.65,0.63,0.04,0.0,53215061,47882000,4987000,67759296,10
280920747,2364495,174108730,891876,168982834,864141,2895259,7686907,440176009,182361,267525266,28397,6164,852654873,3512,3.04,1.45,1.4,0.09,0.0,118706224,110411000,7957000,133438565,10
280279413,2366420,173667229,866659,169008613,842779,3067287,7805551,441962761,178505,269821269,29954,6400,855785219,3514,3.06,1.48,1.42,0.09,0.0,118273753,112773000,5034000,133172239,10
264934552,1366980,161610647,1179707,160359589,1208297,693647,3677815,356713773,22474,264798786,18429,4972,799222367,2017,2.5,1.25,1.22,0.06,0.0,96103355,89747000,6050000,110544539,10
266932299,1325329,162507828,1134533,160196678,1214763,707660,3545304,355627177,19593,263863653,19137,4762,804591325,2016,2.49,1.24,1.21,0.06,0.0,95809237,92509000,2984000,110599592,10
277841789,1818507,171565415,791739,171078254,777665,1588686,6654594,376768256,38251,284492522,29671,9593,862165751,3450,2.62,1.27,1.23,0.07,0.0,103355127,94044000,9004000,117792916,10
294235547,3199220,185685327,850920,183528653,857852,2961009,7851609,482499935,169383,294140005,41325,9834,910795058,5797,3.36,1.62,1.57,0.1,0.0,130039346,113769000,15967000,144889941,10
340902052,4409521,240462737,1043440,246557085,1053591,6191194,12938901,688136313,524140,341904548,59695,16738,1098902923,7683,4.73,2.26,2.18,0.16,0.0,185437611,172087000,13006000,200020417,10
110765660,3121127,75097109,298040,72660931,287498,3246458,7698288,283571572,197104,109969315,25948,8247,401699428,5991,1.92,0.87,0.84,0.07,0.0,76540549,66169000,10025000,91235709,10
134665666,10612084,104363360,3301590,103257557,3304181,9674845,23244812,734096696,1311126,135724256,42916,12326,487303252,7147,4.87,2.14,2.06,0.21,0.0,200569791,187260000,13018000,215409265,10
129313593,2653121,89650725,322845,86917858,318593,2966743,7595969,298573469,196298,126792977,23022,7229,447284478,5795,2.03,0.95,0.91,0.07,0.0,80560205,65404000,14864000,95321472,10
138649897,4011932,101343035,307838,99540161,310284,4233614,8375419,355721409,320589,129989421,36442,8473,491459517,7032,2.37,1.09,1.05,0.1,0.0,95423561,80095000,15017000,110047796,10
111436818,3087509,75414954,301065,72619662,292747,3319217,7768698,283677358,198888,108937444,31141,9734,402759078,5990,1.93,0.88,0.85,0.07,0.0,76791024,66465000,10070000,91173291,10
275005051,2892402,172148167,968241,170449508,962848,2882127,7968723,468088159,177661,276259163,43877,8115,850614146,5787,3.24,1.58,1.53,0.1,0.0,125953702,111665000,13958000,140498977,10
97366378,954302,60840209,662805,64786734,528174,657599,3905168,172875395,23935,99710464,12454,4043,336628168,2069,1.18,0.57,0.56,0.03,0.0,46951870,41642000,4957000,61338564,10
110973123,3089677,75369632,304029,72728831,294381,3348290,7701348,284691380,199052,109531948,32483,8637,402234965,5988,1.94,0.9,0.87,0.07,0.0,76863587,65529000,10921000,91602957,10
115159729,2263806,79547416,597273,78857650,562325,2814468,6100129,276974841,171216,115935003,24885,8666,430664345,4139,1.91,0.9,0.87,0.07,0.0,74712502,65459000,8926000,89400028,10
111271575,3082371,75264064,306963,72824405,296241,3350044,8204296,285807762,198704,108383538,28278,14152,400716595,5991,1.96,0.9,0.86,0.07,0.0,77424432,64010000,13002000,91868646,10
275616080,2856652,173085077,770518,174049576,745085,2725588,8150568,451173957,194224,270138900,35836,7417,845849656,4630,3.11,1.5,1.46,0.09,0.0,121473629,112179000,9014000,135645764,10
305615570,2703883,198990114,1087023,198465514,1171277,2245153,6674807,475138347,110395,316767346,29879,10222,964296676,4230,3.35,1.65,1.59,0.1,0.0,128097085,119720000,8048000,142701933,10
279915013,2829856,174287630,956165,172186781,950646,2854792,7976927,470482342,174504,279285935,44436,9701,854227148,5795,3.27,1.57,1.51,0.1,0.0,126451004,116281000,9938000,141186267,10
103235377,2414216,71994344,344558,70476999,330103,2482775,6494770,256906969,201942,103190805,23099,4650,370338626,3520,1.77,0.8,0.77,0.07,0.0,69507176,61184000,8024000,84196787,10
112412392,3061644,75503780,307235,72492895,299012,3338665,7774636,283943084,197502,110328712,31365,10242,404716393,6185,1.94,0.91,0.88,0.07,0.0,76800658,58606000,17879000,91184868,10
92227189,933764,59350650,716936,63815892,565696,702668,3746946,172614071,18750,96074436,12424,3440,315235558,2020,1.19,0.58,0.56,0.03,0.0,46910675,41561000,4947000,61787556,10
109469692,2521356,74286044,341348,70561558,352019,2651321,6715806,262503403,170960,107459944,29161,5991,377407482,4302,1.76,0.82,0.8,0.07,0.0,70388209,64080000,6007000,84855431,10
101530496,2360723,70968306,337529,69615515,310927,2434113,6190615,254555910,194613,102668862,15840,5452,366566613,3519,1.74,0.8,0.77,0.06,0.0,68877567,64561000,4035000,83307439,10
148358652,6745735,112315524,2047784,110488168,2020324,6979568,16662474,593079569,876925,142248030,34113,10463,523816696,5604,3.94,1.78,1.72,0.16,0.0,160576103,152152000,8008000,175219071,10
210122531,13401868,164015273,805828,161698071,777934,3638082,10008858,486708188,62234,204595571,35164,10152,714090907,7927,3.29,1.55,1.5,0.11,0.0,131904003,118564000,12952000,147224917,10
340235573,5631900,222040318,1063275,213564977,1090799,5666360,14985064,644337864,298472,341061953,121638,40784,1116475925,7279,4.03,1.98,1.92,0.13,0.0,146818910,132609000,13958000,163538933,10
265682696,1326915,162394643,1254657,161112354,1237764,753659,4609314,363209533,22613,261871143,19242,4051,797440502,2016,2.55,1.28,1.24,0.06,0.0,98778272,91446000,6957000,113331987,10
89627182,955101,59745906,667693,63274016,530918,692445,3663239,171034847,15855,94991474,15248,3524,315529680,2217,1.16,0.56,0.55,0.03,0.0,46259377,41945000,3994000,60847529,10
113840995,2713195,86166763,614049,84538059,609535,3287410,7775212,302544314,228036,106972818,34933,9541,419074048,6481,2.06,0.97,0.93,0.08,0.0,81708600,71349000,9909000,96261409,10
114670697,2460603,79969671,737730,76447982,664621,3082971,7161950,283484086,196436,112052864,22899,6528,419453928,4135,1.96,0.92,0.88,0.07,0.0,76335013,65917000,9987000,91003501,10
277666288,1334170,174976084,1114570,174479423,1062821,1284296,5229277,384364571,28226,265965385,39081,6564,832307551,2994,2.79,1.33,1.28,0.07,0.0,102265131,97962000,3998000,117036351,10
269115871,1237256,163601676,992843,157846960,1060162,626538,3597610,346016836,20581,259661832,18566,4578,800539624,2017,2.49,1.23,1.19,0.06,0.0,93480139,88062000,5003000,108205556,10
381185934,14731882,266754056,1242664,264287406,1201641,3078022,9079318,687699822,168527,379040864,28257,12918,1198881925,4820,4.71,2.27,2.19,0.14,0.0,185336202,172924000,12064000,200060896,10
104712607,1593616,70077459,707862,67222568,781608,900259,3421057,197806576,21469,108690058,21323,5535,377359263,2997,1.35,0.65,0.63,0.04,0.0,53081670,48771000,3981000,67724148,10
97233121,1259198,66467682,217964,65531170,193330,626769,3449454,159578868,12990,97061808,8095,2271,336570498,2022,1.1,0.54,0.53,0.03,0.0,43176757,36879000,5980000,57772221,10
272353271,1593782,169814376,681720,166491196,769109,916743,3802981,356292422,19011,280238615,20115,7594,840533723,2863,2.49,1.26,1.23,0.06,0.0,96176948,90865000,4992000,110851136,10
92378584,1044136,60006502,790870,61138251,643720,788004,3791422,179567269,17613,96362548,12134,4053,332668000,2801,1.24,0.6,0.58,0.04,0.0,48564543,44172000,4015000,63491959,10
97159962,2136741,74214305,494913,73790848,482654,1612312,4891100,217209298,19289,96274927,40886,11217,352692493,7172,1.51,0.73,0.7,0.05,0.0,59187303,47601000,11140000,74175638,10
293718811,2305701,185251695,894568,182064013,885469,2754672,7863742,454041301,209260,284327594,27807,6179,898417134,3518,3.15,1.55,1.5,0.1,0.0,122166261,112845000,8987000,136580618,10
126935041,2793313,88917007,333779,85376765,326823,3154654,7642872,298305956,196076,120345783,27283,7236,438412276,5895,2.04,0.96,0.92,0.08,0.0,80453425,67109000,13021000,94988639,10
65504201,10857036,33873738,5033774,34583156,5088940,104163,1255524,243402940,6310,66844051,1700,2490,142874770,200,1.64,0.81,0.78,0.04,0.0,65715985,63372000,1980000,80161645,11
94553493,24688511,29984567,5204253,34846037,4990685,121249,14885537,257121944,7495,104562589,1796,1670,190896811,225,1.75,0.87,0.83,0.04,0.0,69907121,68632000,994000,84130825,11
65585419,14206772,28583796,5112428,29108057,5114305,109847,1419380,207783396,6030,67067386,659,1384,150634615,173,1.4,0.69,0.66,0.03,0.0,55964138,53721000,1989000,70618169,11
83350015,26719266,37429449,6116450,38429277,5905885,469460,5215125,365229126,16660,83662760,17865,5467,276851850,2890,2.48,1.2,1.16,0.06,0.0,101554321,95338000,5958000,116158323,11
64951640,14104198,27205159,5162684,27239170,5166591,105232,1272893,212219311,6857,65660698,692,1367,148451539,174,1.41,0.67,0.65,0.03,0.0,57734318,55462000,1980000,71940668,11
65463984,24503878,41285873,9055608,42582755,9063253,117260,9483220,363417790,9556,67650513,1954,2399,198849259,183,2.44,1.2,1.16,0.05,0.0,98877321,98627000,0,113272473,11
761613872,23864294,602735476,5757075,602930654,5762350,148310,19891267,1142709475,54549,766076236,4740,7882,2593712595,220,8.25,4.18,4.06,0.17,0.0,308371851,307175000,1000000,323216554,11
65784199,14180999,28331824,5101074,29005119,5098888,112216,1254732,208163042,5763,67604412,755,1370,151295744,174,1.38,0.67,0.66,0.03,0.0,56061459,55808000,0,70187142,11
66574205,6148949,27655727,4963055,29228143,4970550,148763,1252389,197166522,6845,68608909,926,1889,138696881,181,1.28,0.61,0.59,0.03,0.0,54188488,51811000,1992000,68767559,11
66256079,13879048,28354360,4773647,29619042,4777367,126707,2950989,199454107,5436,68588369,567,1723,133424070,243,1.33,0.65,0.63,0.03,0.0,53699703,51342000,1974000,68201931,11
66054361,14121393,28705277,5200739,29123057,5204159,109575,2753095,209279512,5958,66808376,740,1355,137127613,174,1.4,0.68,0.66,0.03,0.0,56953248,55673000,994000,71397316,11
68408000,6207400,30389941,4889043,35164030,4705693,105489,1191471,206340933,5237,77920586,1153,1337,174234956,175,1.39,0.67,0.64,0.03,0.0,56050370,54727000,995000,70350170,11
70846304,7651675,34240658,4365158,34628326,4419240,98180,1260018,238311589,7254,71421481,1525,2060,278376899,186,1.57,0.77,0.75,0.04,0.0,64621576,62283000,2009000,79061292,11
1247885,151796,3402253,64182,3526332,61541,69665,420331,12666217,1967,5322600,2267,?,?,208,0.07,0.03,0.04,0.0,0.0,3565078,2496000,832000,18015623,11
275641838,63793819,172425393,40233903,177587795,40015976,183061,12206360,1622464624,40808,286130082,6501,10786,725312902,179,10.5,5.06,4.89,0.24,0.0,438065864,435786000,1999000,452625718,11
65918021,13426863,28704998,4385962,29178026,4402315,114250,2862115,215566217,7664,67251289,889,1695,137955582,235,1.43,0.7,0.69,0.03,0.0,58402565,57104000,1001000,72887183,11
66786152,13414259,27320683,4429419,29121277,4442100,110529,2128313,208462657,7298,68917223,677,1299,151159413,222,1.43,0.7,0.67,0.03,0.0,57005240,55804000,996000,71451926,11
68309316,11166336,29199505,5874936,34235739,5621418,103874,2203396,232027089,7814,79062681,2397,2063,159145487,205,1.55,0.75,0.71,0.04,0.0,63338075,62045000,1000000,78112077,11
65479389,5916635,29150359,4419011,29305006,4502168,97022,1026021,188872973,5928,66096050,1189,1621,163379668,182,1.28,0.62,0.59,0.03,0.0,50916028,49632000,992000,65334840,11
84679361,21469321,28220292,4667250,29689446,4683698,139306,15798819,232469488,7968,86846580,1327,2477,179392011,210,1.57,0.77,0.74,0.04,0.0,62748083,62352000,0,77235224,11
128498824,13363669,54428048,9397720,54403571,9392584,116274,4200529,416679717,10577,129409451,1414,2593,281640760,172,2.82,1.4,1.36,0.06,0.0,113090898,109851000,2968000,127629916,11
66511207,13910755,28176089,4808293,29156225,4807995,115096,1363947,212363857,6995,67756997,858,1668,150898496,222,1.41,0.69,0.67,0.03,0.0,57846688,57586000,0,72296603,11
90945194,28267291,60324495,9585728,60927957,9580205,133309,17895071,368471173,10746,92257509,1330,2355,250772370,217,2.42,1.16,1.13,0.06,0.0,100338767,99068000,1000000,114732052,11
77404710,6088401,28349005,4731387,29632926,4729926,115527,1227532,199141492,5745,79510850,665,1366,177645660,195,1.31,0.63,0.6,0.03,0.0,54467985,53105000,1001000,69055280,11
65803332,13460653,27955501,4665438,29184625,4675304,103068,1813557,221080529,7191,67715100,1449,1809,138073515,223,1.49,0.71,0.68,0.03,0.0,61361044,60080000,1001000,76101155,11
67023602,13728617,27379307,4695674,29209531,4681608,114263,1197477,194843385,6256,68955311,884,1731,165290677,212,1.32,0.64,0.62,0.03,0.0,53435172,52083000,1001000,68070865,11
64525257,23957849,35521895,5857325,38516332,5835276,119270,7814533,302487094,10993,66921668,935,2045,191762826,200,2.1,1.02,0.99,0.05,0.0,83067121,81789000,997000,97701657,11
94339018,13077830,41275490,4694720,41405252,4706012,102828,4061405,248681559,6339,96079625,1039,2105,217184262,174,1.67,0.81,0.79,0.04,0.0,66765978,63507000,2976000,81418674,11
73447603,24435428,42259457,9667641,46901556,9373832,122236,6362188,332682560,10109,85963869,2423,2637,212360045,179,2.22,1.07,1.03,0.05,0.0,90351720,90129000,0,104700342,11
75117419,21401055,48423969,6922364,49004909,6943484,137763,15414500,324216788,9373,76128847,1184,2029,224015184,221,2.16,1.07,1.04,0.05,0.0,87342785,86114000,1001000,101752559,11
75053864,21348465,48503425,7013246,48887323,6996237,115725,17195977,326216723,8990,75829060,1679,2515,224261198,220,2.18,1.06,1.03,0.05,0.0,88909484,87634000,995000,103717154,11
776640124,37315447,619828509,5885426,623312458,5925414,331171,46441593,1227314204,49482,781936369,18290,12034,2687780318,261,8.81,4.52,4.39,0.18,0.0,328143218,326868000,999000,342579094,11
65514288,27751259,42322341,9384303,42515127,9390809,136895,16720471,338788046,10381,65554253,1656,3009,199365101,195,2.27,1.09,1.05,0.05,0.0,92167161,90916000,988000,106902793,11
65664653,7610687,29639147,4684432,29937456,4684938,121029,1190020,202817634,5631,66851445,691,1669,164857282,160,1.31,0.62,0.61,0.03,0.0,54424643,53173000,1003000,68810957,11
801725975,23693100,654081698,5804301,653468043,5790263,168121,21774217,1207989708,31789,802792051,5296,8052,2751712042,239,8.61,4.47,4.35,0.18,0.0,325882717,323622000,1997000,340161951,11
65857949,6101373,34078822,5317179,34426209,5310273,174548,1684627,210306803,5973,67105915,853,1342,157159863,187,1.37,0.67,0.65,0.03,0.0,56366115,53992000,1999000,70778378,11
270826049,40337826,227064716,8772257,226679592,8842193,16410677,28169281,1368487425,284483,260605916,527609,128843,1178542170,117349,9.24,4.41,4.25,0.32,0.0,370342298,193022000,177020000,384685422,11
66017546,14225776,28089900,5106089,29154759,5108057,120723,1284457,207012275,6242,67823322,720,1388,150968462,174,1.38,0.67,0.65,0.03,0.0,55937854,55658000,0,70376388,11
65532970,14058755,29263654,5119954,29231581,5106185,103951,1334890,206834548,5294,66095934,682,1339,150974294,174,1.4,0.69,0.66,0.03,0.0,56006831,54730000,995000,70510762,11
134020219,11871164,59336480,9647048,59732187,9640417,119906,1995750,409844152,10547,135070677,1029,2589,298150473,183,2.71,1.31,1.27,0.06,0.0,110863728,109570000,996000,125282777,11
67971450,13761776,30108853,4597121,34816151,4428023,107981,1317999,228063888,7335,77775899,2240,2077,161694963,206,1.54,0.75,0.73,0.03,0.0,61997566,59777000,1992000,76434522,11
100686537,18396976,61887225,5669676,65731704,5517704,122268,5197226,266720042,8233,109966492,1260,2202,270243501,183,1.8,0.89,0.86,0.04,0.0,71998685,69793000,1994000,86177006,11
761482280,24113538,608402555,5822478,608140485,5786877,166070,19653056,1142523106,67803,767316439,4459,7019,2640754197,215,8.17,4.23,4.12,0.17,0.0,308527951,307228000,1000000,322774633,11
68509377,13764707,30629501,4588668,35035286,4438298,119775,3303337,220344425,7083,77402130,1585,1382,160449340,215,1.47,0.73,0.71,0.03,0.0,59487346,58262000,1004000,73672982,11
69524961,13092977,18771121,2215083,20904367,2276089,187304,1833222,137000307,6432,71091067,1632,1826,134185539,994,0.95,0.46,0.44,0.02,0.0,37134343,34642000,2037000,51640852,11
72206669,38795344,31192290,5299442,31035999,5198418,408944,45852469,458687702,9123499,72962570,23851,7122,190786396,3546,3.14,1.58,1.53,0.07,0.0,124099375,116817000,6989000,138480572,11
1542109114,39622566,1264744603,11548033,1264728772,11509590,210071,40990566,2275353474,58091,1547519501,9529,15546,5363011985,228,16.23,8.36,8.11,0.34,0.0,614214182,611886000,1999000,628879344,11
65494467,7609473,29934660,4707799,29908412,4710565,110551,2094767,204281778,5224,66415118,498,1315,163113624,158,1.35,0.66,0.64,0.03,0.0,55020404,52737000,1990000,69236888,11
66149574,14294181,28138227,5115673,29225527,5108159,126003,2995057,206997055,5807,67657451,605,1277,150801320,174,1.39,0.68,0.66,0.03,0.0,55839368,54593000,992000,70016009,11
746481975,24038069,603381708,5734087,603315052,5730115,228079,24333065,1095923377,26957,747910500,3733,7153,2579478250,230,7.85,4.05,3.94,0.16,0.0,295861411,294518000,1001000,310475548,11
66013840,23436844,52728874,8409276,53863079,8420073,120952,10620510,366828900,9571,68352492,1477,2280,238141274,193,2.47,1.21,1.18,0.06,0.0,99029652,97731000,1007000,113333939,11
73525303,28480170,42055755,9659556,47055990,9332768,113076,22010322,349792807,9857,86160838,2467,2872,221640508,186,2.34,1.14,1.1,0.05,0.0,94587701,94207000,0,109287618,11
56122288,7730348,38038935,7831484,38928413,7860527,128685,2446936,280909892,9024,57845557,1350,2160,168592983,161,1.84,0.89,0.86,0.04,0.0,75901785,75652000,0,90492307,11
114447423,12389790,48304699,5558315,49776266,5290756,250859,1516954,250574881,9060,120200619,2754,2151,287491322,1348,1.66,0.81,0.79,0.04,0.0,67473370,64142000,3006000,82081499,11
762594042,23623179,602838795,5770053,603022888,5764969,142573,22185234,1090715686,26442,766422457,3339,6905,2619215780,218,7.79,4.01,3.91,0.16,0.0,294267900,291996000,1999000,308903711,11
82711186,22439479,29145316,4994551,33754543,4794580,109142,17950756,246881066,8422,94046928,1577,2053,209863913,206,1.66,0.77,0.74,0.04,0.0,71678261,71398000,0,86487067,11
65496784,9806234,33279564,5010743,34541576,5076904,102614,1942489,237653980,7337,67381447,1066,1997,168311115,175,1.59,0.77,0.74,0.04,0.0,64474615,64095000,0,79143765,11
750180922,23587274,609260980,5786145,609381828,5771666,160677,20316857,1187573850,29842,753094333,4079,7686,2592058156,212,8.49,4.43,4.3,0.18,0.0,320284011,317860000,1992000,335022932,11
135986716,20808201,43528033,5093409,47563119,5100541,119908,7868040,263047236,6875,137562505,1292,1913,320822807,169,1.76,0.87,0.84,0.04,0.0,70891433,69687000,995000,85151173,11
66513054,14472916,28183586,5013228,29233052,5017691,130229,2693975,210707458,7031,67794480,687,1328,150767938,213,1.43,0.69,0.66,0.03,0.0,57423230,56129000,1002000,71982460,11
66194900,13621362,28157311,4612321,29379237,4597984,242498,2314682,224989759,7512,68032468,1199,1712,137491027,173,1.5,0.73,0.7,0.03,0.0,60082776,58696000,994000,74507088,11
66216743,13940959,28081456,4685559,29118501,4685308,114737,3464868,204259654,6075,68045474,714,1311,151820926,213,1.37,0.67,0.64,0.03,0.0,55338009,53982000,999000,69716848,11
743654960,24000495,602628738,5788875,603370033,5794868,163846,23399595,1128805204,29674,747491172,4989,7509,2567992695,220,8.02,4.11,3.98,0.17,0.0,303817493,301496000,2003000,318438747,11
135689066,27310488,72342833,6229477,74757142,6255853,1065462,27647207,546263414,69060,143777447,153548,48792,438500248,2396,2.37,1.27,1.24,0.05,0.0,71926964,69008000,2000000,86606273,11
67861858,7871131,30746551,4787198,35402954,4668594,111428,1908357,230729341,7188,77077499,2311,2225,151162827,190,1.53,0.73,0.72,0.04,0.0,62485407,61194000,1003000,76603144,11
80963246,24379525,29649601,4917125,34835918,4707340,113366,16020239,271008613,9020,92342117,1849,2530,177276165,206,1.85,0.9,0.87,0.04,0.0,74613325,72348000,1982000,89133397,11
68727159,14332907,29948110,5076776,34799099,4876620,117190,1355212,211542782,6389,78558718,1167,1514,161283099,169,1.38,0.66,0.65,0.03,0.0,57288437,54999000,1999000,71387652,11
84292574,6513517,49224620,4698966,49116196,4707447,103069,2357505,249952348,6527,84917573,1304,2015,395245266,183,1.63,0.78,0.76,0.04,0.0,67621240,65339000,2010000,82218996,11
71041661,13744519,33415863,5667407,34483785,5696647,119242,1385838,236188311,8475,73129974,1711,2606,172939603,222,1.57,0.76,0.73,0.04,0.0,63692641,63401000,0,78098530,11
783297453,23491047,609513541,5748490,609809403,5746079,195295,20374015,1120188815,31422,785416472,5239,7565,2635535678,245,8.05,4.15,4.03,0.17,0.0,301930485,300686000,998000,316328653,11
92678903,22186442,30642637,4615191,35511359,4482721,113217,15659746,244065458,6854,101512353,2490,2606,182901775,215,1.66,0.83,0.8,0.04,0.0,65722714,64454000,991000,79936493,11
55935028,19388491,29950224,4653218,31961197,4642747,132348,11203986,257871634,8809,58866695,2312,1661,166002607,327,1.83,0.93,0.9,0.04,0.0,70506758,68289000,2008000,84805540,11
79018710,23933535,30379179,5198859,30670151,5202375,143416,19102878,253549258,6732,80030940,815,1990,160088145,259,1.72,0.85,0.82,0.04,0.0,68571734,68285000,0,83020551,11
198057881,19926144,82701315,8721608,85118800,8818115,114615,2197981,507760332,13131,206470517,2893,3738,540717587,173,3.44,1.7,1.65,0.08,0.0,137026636,135750000,998000,151320826,11
65558287,13027341,29173952,4295469,29121678,4294616,111854,7859657,221022940,6826,66203707,897,1580,137621638,222,1.46,0.72,0.71,0.03,0.0,59645848,59409000,0,74073836,11
64911817,10750850,41704080,5412660,41722965,5432589,100537,3788576,229927253,7474,65654233,1485,2033,185680649,210,1.53,0.73,0.71,0.04,0.0,63671684,63340000,0,78055679,11
758321334,28054571,605141484,5762772,605321530,5755214,145979,31255151,1111592928,29739,759047711,4275,7975,2572975111,232,8.01,4.13,4.01,0.17,0.0,300709969,297416000,2994000,314908028,11
90476603,14818351,29603646,5416632,29696480,5169730,403133,1860225,238226494,14717,87667163,12610,3562,191415931,2525,1.59,0.78,0.76,0.04,0.0,64095116,57808000,5980000,78755680,11
70744857,7632066,29045591,5639441,29420733,5638742,113468,1475297,266508403,7925,71904197,877,1679,239213018,201,1.77,0.87,0.85,0.04,0.0,72085880,70799000,997000,86580589,11
746750746,22467671,602939389,5752642,602599450,5749825,210331,19888493,1094610951,29037,748879258,3919,6873,2592806221,222,7.79,4.03,3.92,0.16,0.0,295890960,294436000,998000,310428041,11
216708519,28493034,158804830,517872,161129577,538562,1004605,9072435,569055406,27919,219490216,29774,10516,707721809,4039,3.65,1.64,1.57,0.09,0.0,157001865,145741000,10980000,171725435,12
397244459,8909921,258299143,1115844,259693733,1122556,1262125,5039709,672303029,32759,412991858,42234,17045,1204141506,4814,4.56,2.23,2.16,0.11,0.0,181498502,173190000,8008000,196189396,12
318483217,614221,197266768,558325,194653134,529709,198848,1785373,351397543,10951,321928401,15061,3489,954081982,519,2.48,1.26,1.23,0.05,0.0,95170425,91866000,2995000,109356422,12
147215027,14190216,102755720,497600,110992246,497324,903994,3579162,354804049,25920,156267904,18528,7134,465628449,2476,2.26,1.07,1.03,0.06,0.0,92282525,87992000,3999000,106990040,12
164731866,15923693,140987565,733838,138866008,736209,1347631,4348476,422192899,25606,163128327,36852,8299,609854369,4819,2.79,1.32,1.27,0.07,0.0,114446746,100077000,14010000,128668379,12
99817795,1607429,77593573,144010,72291642,143075,682377,2899308,149778818,9143,90092895,8699,2660,332192881,1696,1.04,0.5,0.49,0.03,0.0,40970121,38562000,2029000,55354329,12
315962642,533736,195308608,535165,193647874,527468,199384,1906348,349376809,11110,318667183,10350,3568,956541256,521,2.48,1.26,1.23,0.05,0.0,93876583,92597000,995000,108521500,12
323026652,639752,200294131,562814,196901133,542785,289447,2144813,350454195,14959,322889157,16704,4330,966214168,993,2.49,1.26,1.22,0.05,0.0,95317456,93032000,2000000,109909076,12
452743335,18775935,288285933,974011,287396984,988063,3673770,10659622,869447847,80831,463419459,83625,18315,1431569560,10648,5.87,2.82,2.71,0.17,0.0,235161977,218883000,15991000,249920528,12
317429324,502326,194898576,518400,193960769,518276,197412,1930165,346491820,15181,319829926,15254,3211,945801730,519,2.44,1.24,1.21,0.05,0.0,93151630,88854000,3993000,107669241,12
95017376,311044,62769432,84771,65562982,114340,274162,2119625,128843673,6656,96972453,2116,1823,325710948,915,0.86,0.41,0.4,0.02,0.0,34907425,31640000,2966000,49558870,12
134208680,7440248,108933263,483060,108283532,492123,724057,2563615,270161280,14693,134796158,15770,4432,474496737,2475,1.81,0.87,0.85,0.05,0.0,73000171,66619000,5965000,87354391,12
111063524,1120375,78561205,2155936,81388597,1891067,275304,2466462,219051784,13282,119210126,12343,5127,451984577,1945,1.49,0.73,0.72,0.03,0.0,59379925,55055000,4004000,74032892,12
322462978,1200368,200958181,553162,196025428,538462,284158,2289107,353623300,18938,321808838,13631,3267,957288374,907,2.5,1.27,1.22,0.05,0.0,95341155,93922000,1009000,110010736,12
311263178,604839,195979057,526962,194242262,526754,230519,1961715,356468888,10848,312924654,16881,3604,931907550,520,2.48,1.26,1.22,0.05,0.0,94005045,90488000,2983000,108519248,12
321746189,1214783,200352633,559020,195951962,537654,321820,2384967,355867729,19839,323524777,14719,3473,961056762,907,2.52,1.28,1.24,0.06,0.0,95530777,93254000,2005000,109915062,12
96644521,270893,63946714,102983,63806190,136055,286944,1966711,123721288,8221,92440002,2448,1966,319921632,916,0.87,0.42,0.4,0.02,0.0,33897598,32579000,1018000,48408415,12
326245104,1188625,215397636,626756,213241003,618259,373508,2920349,373205853,17567,330320284,29511,5570,974762358,1937,2.66,1.34,1.3,0.06,0.0,100918136,98622000,1992000,115444412,12
96662469,337125,63521401,85601,65333689,118708,252527,2292810,131352352,13369,96425906,2483,1664,326756961,914,0.89,0.45,0.44,0.02,0.0,35091125,31813000,2982000,49566120,12
329085251,1220740,217826698,666630,215826338,670506,442485,3295175,385898162,15749,332132841,34198,5726,984586025,1936,2.84,1.34,1.29,0.06,0.0,101722982,94428000,6957000,115992260,12
131705128,2062658,90871747,824199,91740404,775985,1344043,6034858,255771284,45754,128825784,89302,46359,481299836,3504,1.2,0.67,0.65,0.03,0.0,36324413,31810000,1988000,50828540,12
325856035,1146850,215997717,629158,214154712,624490,350378,2945868,370702458,17092,329913500,23309,5195,971695457,1937,2.65,1.32,1.29,0.06,0.0,100779416,91518000,8952000,115446316,12
92008613,346145,64147506,112448,67234144,138107,179831,1368996,122721178,5295,91251846,3671,2081,294913585,522,0.86,0.42,0.4,0.02,0.0,33408403,30103000,3010000,47755724,12
94220636,318949,63039091,81765,64843608,105661,166508,1394277,126003692,6537,92055100,3043,2011,312085102,522,0.89,0.43,0.42,0.02,0.0,34712178,33451000,1013000,49071327,12
396348247,8943753,257369467,908587,259783143,920545,1330955,4825855,657499833,33443,412310960,35659,10047,1197716812,4816,4.43,2.13,2.07,0.11,0.0,180338544,175077000,5002000,194845512,12
397522621,10728583,294514633,1624868,298646214,1657799,1505120,5748406,717392884,41691,409143402,47697,34106,1381415255,6377,4.95,2.42,2.34,0.12,0.0,194558271,182142000,12009000,209131751,12
90700422,1185572,75417305,160941,73208526,125529,280164,1890451,151427841,9374,97368829,11495,3805,328198011,1945,1.03,0.5,0.49,0.02,0.0,41001359,35744000,4964000,55705475,12
327601631,1120046,215094499,627190,214240440,622938,367551,3115495,375871564,17606,330002518,21353,9218,967450979,1937,2.71,1.34,1.29,0.06,0.0,101465578,96095000,5004000,116264879,12
91852997,1172669,75990752,163102,73826002,132559,295229,1819329,149841746,9760,96408860,11336,4403,325398446,1943,1.05,0.5,0.49,0.02,0.0,40360969,38122000,2006000,54977801,12
364106601,1905689,230420377,768030,226105412,763266,731104,4134345,421970376,16900,364225524,9106,4311,1064498746,1691,2.98,1.5,1.46,0.07,0.0,113698253,109409000,3978000,128342490,12
180339973,15918340,130828910,464293,128385115,457547,1374849,4222057,424508415,29307,179247754,34945,9479,596249561,4821,2.79,1.3,1.26,0.08,0.0,114878984,98638000,15941000,129627403,12
394513860,10723943,258353282,1000029,263350439,1013963,1520538,5867150,723706231,41575,409720965,41230,33321,1198460441,6377,4.84,2.34,2.27,0.12,0.0,194154237,180845000,12988000,208784415,12
94541842,300458,63796743,99493,65509945,123146,196107,1387727,126833674,7959,94540689,2535,1706,314352536,523,0.86,0.42,0.42,0.02,0.0,34388375,32112000,2007000,49076580,12
326341284,1209067,214893147,639516,213587544,628725,483835,3016917,374266910,17897,331775572,21284,5713,974180363,1937,2.68,1.34,1.3,0.06,0.0,100433576,96837000,2994000,114941764,12
328490602,979335,211587532,593351,211658994,608208,340357,3165091,384576011,16397,330453370,22891,5997,975064813,1936,2.71,1.36,1.31,0.06,0.0,104555610,99271000,5013000,119204837,12
105406251,480914,80826423,82474,77901858,106190,206060,1734256,151123495,6672,100326509,6052,2895,354330742,1039,1.04,0.51,0.49,0.02,0.0,40680973,35458000,4924000,55289922,12
145859826,1860186,104351290,2150079,105099136,1898303,1773876,4951177,359796904,103176,155922295,46557,11458,594367749,11195,2.39,1.14,1.1,0.06,0.0,96793694,77482000,18873000,111428948,12
165268763,16204621,143496361,742183,139719756,738358,1398164,4465451,426154828,26941,161489176,22526,13039,606509613,4821,2.84,1.34,1.29,0.08,0.0,115490657,109180000,6009000,130368155,12
91278855,1186615,75279295,176856,72922679,143663,271557,1779649,150072698,9189,96554576,11180,4295,335847817,1945,1.01,0.48,0.46,0.02,0.0,40495184,37138000,3011000,55151490,12
91354340,2638172,79850377,232822,78304265,205577,503646,3095412,166192293,15647,100929296,20841,16320,339292379,3748,1.16,0.56,0.55,0.03,0.0,44882192,35650000,8912000,59603758,12
326847528,999268,212763952,586869,211896923,598327,297025,3197867,388024661,16614,328335797,21100,5935,972666467,1938,2.73,1.37,1.34,0.06,0.0,105155278,98861000,5991000,119575597,12
315490117,609308,195285964,541705,193385610,527882,283406,1867379,351116504,10713,318675560,16354,3588,954471711,520,2.54,1.25,1.21,0.05,0.0,94747903,91307000,3010000,109425931,12
487514802,18585738,341895978,2616289,330495871,2726044,8541908,29804748,727308759,152328,477563497,48948,25032,1679634101,5597,5.26,2.55,2.46,0.17,0.0,196057525,185603000,9978000,210766086,12
329313584,27175124,237282090,970280,236261174,971820,4870633,12027502,943248201,77068,335917048,108063,23054,1142298420,15925,6.2,2.86,2.75,0.19,0.0,255379099,225967000,28995000,269735698,12
142644512,9229195,103791944,448064,105867855,449076,830640,3305117,381012223,18393,144110482,24830,8386,450047197,3257,2.55,1.14,1.1,0.07,0.0,102818204,96537000,6033000,117178523,12
325699932,1198366,214545204,631256,212495496,616158,474758,3037314,376424660,17122,332457107,23429,4890,979713480,1937,2.66,1.34,1.31,0.06,0.0,101126766,98334000,2006000,115742551,12
330034201,2331866,201158692,745904,196824633,729917,649384,3753253,368404476,28276,327514330,15059,4494,959249050,1689,2.68,1.3,1.26,0.06,0.0,100462417,95076000,5004000,114997077,12
93510328,240294,63073316,103267,65994175,128981,191835,1397990,122901453,6464,93209555,2394,1943,307135046,526,0.86,0.42,0.41,0.02,0.0,33717965,30431000,2944000,48268135,12
142203543,9290263,103160140,432970,105214438,441040,823259,3487251,375957721,18484,144317495,19230,6409,441460592,3257,2.41,1.12,1.08,0.06,0.0,103091782,97799000,4989000,117687881,12
310416297,789386,199013968,562835,198129839,554006,241804,2270287,358807393,13123,316343528,12763,3762,924391238,1032,2.55,1.29,1.25,0.05,0.0,96959202,95664000,996000,111575439,12
109249599,2200785,85278358,179314,86769056,209919,617405,3539640,178347973,11817,124894153,15247,6071,370753785,3750,1.25,0.62,0.6,0.03,0.0,48732452,44253000,4023000,63488018,12
178311574,16774445,146906486,479174,143952827,469778,1378918,4249523,433704947,31598,173691547,37108,10078,592869165,4821,2.85,1.37,1.32,0.08,0.0,117050423,107758000,8979000,131834351,12
173723489,12461542,146741520,515661,147792319,496160,1392136,4593233,444624757,29452,175123547,37285,9200,678065956,4811,2.93,1.4,1.36,0.08,0.0,120091484,113796000,5989000,134890855,12
325653193,5175331,192035707,397624,198763599,349730,3022594,9231348,416902915,26622,340904903,38602,14188,977150251,8015,2.95,1.46,1.42,0.08,0.0,112861554,101585000,10955000,127316131,12
143545609,1713010,86986982,173553,85133860,192736,814160,3723496,186049813,13451,140882411,2533,2243,447453658,2477,1.31,0.63,0.61,0.03,0.0,50531195,45269000,4920000,65139347,12
142105808,13869008,103190874,421363,103390412,422464,672101,2762322,325370605,16489,147172013,21277,5936,441844126,2475,2.14,1.01,0.98,0.05,0.0,88035562,82767000,4986000,102386368,12
107284087,1117862,81358021,2596970,83363343,2514052,265914,2439874,226520572,12854,111353141,11858,4843,440010279,1943,1.54,0.74,0.72,0.04,0.0,62079126,57780000,3984000,76656847,12
326313323,1112952,211839148,607150,210389373,607245,367485,3152802,383809725,17038,329664334,21171,5239,976764081,1937,2.76,1.36,1.31,0.06,0.0,103711163,98389000,5019000,118116793,12
328673814,1394102,206457195,720955,211347629,736945,505545,4229178,399470638,21469,312415685,35823,10646,965136854,3743,2.81,1.41,1.38,0.06,0.0,107626869,97235000,10024000,122106243,12
89568724,1141308,77300247,155240,77764327,145770,252158,2218724,160591416,9799,96167157,12280,4149,327635647,1943,1.11,0.54,0.52,0.03,0.0,43774146,42447000,1010000,58222861,12
90624963,1162805,74981509,170593,73453567,127817,287654,1896660,152784826,9361,96511279,11792,8036,328387970,1942,1.04,0.51,0.49,0.02,0.0,40789828,31656000,8903000,55004716,12
335257923,2770182,224362685,788338,214372223,759612,1105938,4953223,427392312,29546,336833048,32896,10050,1017209950,6300,3.03,1.48,1.43,0.07,0.0,115740345,100433000,14915000,130418372,12
82413798,1242295,93016543,184716,93783587,164004,243047,2129274,166690054,11355,88979621,13370,4408,392303546,1942,1.17,0.57,0.55,0.03,0.0,45401056,39077000,6011000,60009731,12
95430011,311490,62942262,93634,64904319,130400,391586,2222328,125231884,7013,87719133,1726,1853,312262553,915,0.85,0.4,0.39,0.02,0.0,34467642,33034000,1001000,49128534,12
394237983,8969179,294426217,1569008,295632255,1581799,1160008,4641553,668262111,29495,408506348,34097,13352,1376559453,4815,4.62,2.3,2.23,0.11,0.0,180270106,170954000,8997000,194994799,12
396959109,8920317,257999409,1081790,259417824,1091172,1174138,4612073,665260696,32074,410994659,33837,10336,1202076635,4814,4.55,2.22,2.15,0.11,0.0,179950909,169593000,10035000,194257051,12
180551812,11076131,131954734,483840,129705895,484548,1943757,5213240,492000179,31401,183424304,32106,12201,595889471,6383,3.19,1.49,1.45,0.09,0.0,132568917,125104000,7005000,147309151,12
330436413,1020629,215541199,749612,215393759,773343,460237,3407574,384002714,19208,329518599,19087,5938,974325905,2329,2.78,1.38,1.33,0.06,0.0,103649607,98321000,5016000,118163071,12
93159675,739463,66624889,1497440,69772613,1222988,232185,2245566,167895863,12540,102608816,11715,4311,356368792,1906,1.16,0.56,0.54,0.03,0.0,45881489,40426000,5053000,60445013,12
92114779,2614644,81253757,196115,79052324,173700,513489,2880237,166598456,15258,101896197,19286,7173,339700103,3749,1.18,0.58,0.56,0.03,0.0,45120013,38747000,5961000,59566425,12
444637486,6990717,313049581,1091961,314115669,1152801,3188974,12891370,621751982,63591,443961729,58182,20301,1467350054,8629,4.48,2.21,2.14,0.12,0.0,167803171,153446000,14040000,182162127,12
92243410,2619474,81127750,201929,78184167,177231,651695,2815558,166763301,15172,103880711,22214,7308,340329574,3746,1.18,0.57,0.55,0.03,0.0,45342487,35803000,8950000,60102987,12
90592967,2594651,79399682,197440,78527118,169639,520907,3007991,166065105,15609,100705726,23441,7533,330328310,3749,1.15,0.56,0.55,0.03,0.0,45165686,35830000,8957000,59793148,12
92842633,2756273,80653949,194639,77471599,159223,469732,2547213,162429409,14422,103021288,18877,16257,346386255,3748,1.13,0.55,0.53,0.03,0.0,43598453,38220000,5029000,58240329,12
328789698,1018331,211704942,685200,211801460,692677,250230,2993512,393171050,16638,319696698,25909,6237,976159099,1938,2.8,1.4,1.36,0.06,0.0,106559568,101127000,5006000,121134052,12
398768156,10686714,260229262,1014960,260886077,1021687,1543584,5972353,725569094,42056,409867141,59367,13002,1216836067,6377,4.92,2.37,2.29,0.12,0.0,196035034,184641000,10978000,210732875,12
90484367,1208803,76252629,169148,74084255,134336,291737,1791980,149078452,9168,96746156,9938,3793,336057480,1944,1.0,0.47,0.45,0.02,0.0,40780846,35533000,4935000,55444051,12
93780224,224549,62821653,107439,65559141,139494,204836,1425902,124965976,6879,94331621,2690,1902,307423678,524,0.87,0.42,0.41,0.02,0.0,33531961,31205000,2013000,47933571,12
88698206,1173160,76883980,166762,78123914,149576,278282,2135431,162501590,11155,98808503,11182,12358,329961771,1941,1.11,0.54,0.53,0.03,0.0,43808760,42505000,1012000,58296628,12
326227097,1166944,215437930,650396,214169461,643101,450899,3089008,379440659,17140,332522046,17654,5683,977852507,1936,2.69,1.37,1.32,0.06,0.0,101069786,92786000,7981000,115640214,12
76722148,134527,44069759,64321,44153370,55316,86377,655351,87669655,2630,80325730,2620,1166,229779466,128,0.59,0.3,0.3,0.01,0.0,23431205,23224000,0,37768346,13
80937284,307307,48822259,74946,48634165,69244,135815,810563,96963537,3716,87449901,4660,1333,261943486,322,0.67,0.34,0.33,0.01,0.0,25857976,24576000,983000,40302394,13
25935868,148289,16302938,56241,16868897,56421,94745,506441,39963508,1140,30895110,578,772,95252449,133,0.27,0.12,0.11,0.01,0.0,11568839,10305000,1030000,25982728,13
27615494,133308,15785937,60046,15831113,59661,96442,499032,40193756,1544,31747400,665,774,98375786,133,0.27,0.13,0.13,0.01,0.0,10519671,9369000,936000,24918279,13
77056364,140519,44581872,62971,44637097,56438,92225,669627,88436102,2683,80293157,3632,1602,230740417,126,0.61,0.31,0.3,0.01,0.0,23492956,23313000,0,37678529,13
81016092,513337,47917262,75088,47540855,71708,169287,955575,98938233,4370,89947277,1858,1001,260822602,519,0.69,0.34,0.33,0.02,0.0,26700404,23477000,2934000,41295827,13
81008235,325514,49744926,75280,48950261,64647,118536,770897,94806156,3421,87203130,5068,1403,265953401,324,0.67,0.34,0.33,0.02,0.0,25129379,23851000,993000,39796037,13
80991053,335590,50023236,74494,49104151,63892,121172,771637,94167429,3126,86384972,4324,1309,262718126,324,0.67,0.34,0.33,0.02,0.0,25138286,23861000,994000,39806166,13
28153503,136945,16172153,60737,16203499,60105,99638,495580,39257101,1511,30940905,656,777,93981438,132,0.27,0.14,0.13,0.01,0.0,10472127,9348000,934000,24752614,13
28974176,163782,15982941,60267,15693421,60213,123805,570361,41268183,3070,32739156,659,824,101200594,328,0.28,0.14,0.14,0.01,0.0,10943724,6785000,3877000,25461987,13
81837026,309411,49928755,74094,49995878,67513,127361,760601,95085519,3449,88078417,3197,1395,263798908,325,0.66,0.34,0.32,0.01,0.0,25548325,22351000,2915000,40238417,13
26960364,152808,15505373,60701,15509762,52468,93177,477772,38659604,1293,30115011,584,778,94636126,132,0.25,0.12,0.12,0.01,0.0,10273342,9056000,1006000,24693094,13
83927622,293346,50319449,74754,49791430,68798,126029,773623,93269261,3723,86642024,5333,1331,264517575,324,0.66,0.34,0.32,0.01,0.0,25288211,24015000,1000000,39942153,13
83515643,283747,52182111,86857,51292598,85972,136388,859294,94807119,5505,88848264,5705,1018,261965761,321,0.67,0.33,0.32,0.02,0.0,26390211,25097000,1003000,41190449,13
80123985,323860,51508469,91666,51187266,77522,140642,811026,96786038,4063,87410131,4722,1296,255989000,322,0.65,0.32,0.31,0.02,0.0,26073175,23799000,1983000,40583912,13
82470931,286262,51593922,93193,51731369,88939,160537,898451,96375158,5530,88425407,6097,1222,254244840,322,0.66,0.33,0.32,0.02,0.0,26017773,25720000,0,40375306,13
75790532,159509,44657595,63740,45200834,54619,84887,644714,87626875,2888,80437348,2265,1168,231964759,127,0.57,0.28,0.29,0.01,0.0,23530760,23320000,0,37823435,13
27179558,152949,15973573,60809,15964857,54634,94391,487383,39827934,1334,30466337,799,800,96005534,133,0.25,0.13,0.13,0.01,0.0,10454908,9172000,1019000,24867718,13
873912,107883,2924046,29191,2714541,29130,76204,358030,9852546,2457,1685481,?,?,?,227,0.08,0.03,0.03,0.0,0.0,2475033,1544000,772000,16649572,13
82281611,316337,50247689,75291,50239381,68468,121240,780692,93495477,3526,86279782,4815,1867,261448588,324,0.64,0.32,0.31,0.01,0.0,25327791,23080000,2006000,39668756,13
27785758,145959,15554557,62651,15457858,55916,101442,489099,38340362,1502,29739240,598,746,93166427,132,0.25,0.12,0.13,0.01,0.0,10181435,7921000,1980000,24509180,13
79998274,158593,45020533,65424,44997225,60808,124368,748843,88498334,4705,82068501,4762,1228,231944214,321,0.64,0.32,0.3,0.01,0.0,24213652,21939000,1994000,38870334,13
79162302,183313,43845866,69797,43934947,69092,169902,866789,92074145,4788,83489523,4780,1323,237548185,519,0.63,0.32,0.31,0.01,0.0,24489959,21345000,2910000,38712787,13
35079879,127719,25849075,52654,25924947,52433,101674,656492,53486919,1729,37937839,417,477,145107961,133,0.36,0.18,0.18,0.01,0.0,14086718,11907000,1984000,28515512,13
33002092,507738,20574359,67477,20231237,66816,161773,939124,48113254,2582,39301008,466,390,126353196,525,0.32,0.16,0.16,0.01,0.0,13153244,10880000,1978000,27974980,13
29325551,241227,20173221,104712,20218468,106584,383917,1059980,51277498,4540,31752251,895,841,96372600,136,0.31,0.16,0.15,0.01,0.0,10555930,8490000,1886000,27247885,13
32704423,329784,22158511,65638,22397409,66289,125884,847934,51533502,3270,38318311,2948,2374,131448025,589,0.35,0.17,0.17,0.01,0.0,13775668,12592000,968000,28275006,13
78426338,103074,44779645,64287,45463653,67223,126942,914248,88106916,4459,81393675,3234,983,229781079,128,0.59,0.26,0.25,0.02,0.0,26904203,25600000,1024000,41281393,13
78112498,127140,44802443,62983,44753668,57337,93907,670889,87478803,2944,80220280,2865,1160,231077548,127,0.61,0.31,0.3,0.01,0.0,23684295,23420000,0,38039120,13
78601124,160920,44992881,66141,44909448,67422,136868,800337,94460044,4042,82133994,4666,1535,232367585,324,0.66,0.33,0.32,0.02,0.0,25324250,23088000,2007000,39494911,13
81807734,111645,45912407,64439,45967442,64004,135669,801319,89094795,4528,83653225,2817,1342,237699792,324,0.6,0.28,0.28,0.01,0.0,25437054,23195000,2017000,39843629,13
26890113,152835,15482045,58267,15371962,49524,93037,468928,38573761,1313,30602950,659,848,96421683,132,0.25,0.12,0.12,0.01,0.0,10194259,8971000,996000,24403483,13
76932262,147018,44878021,63270,44729224,54532,88878,650854,88012034,2637,79851017,3112,1264,230877229,126,0.61,0.31,0.3,0.01,0.0,23651944,21483000,1953000,38173811,13
29003006,137847,16852205,59243,16641127,59638,94831,515815,40343089,1499,33270604,668,1052,102319334,132,0.27,0.13,0.13,0.01,0.0,10794767,8606000,1912000,25257357,13
27658456,140772,15775542,60958,15903915,61484,97749,508242,38979127,1425,30895189,717,951,92905228,133,0.27,0.13,0.13,0.01,0.0,10548429,8464000,1880000,24867849,13
28755562,188970,16169949,63986,15327720,51313,118187,584101,40450294,1597,30994545,4024,800,100556156,131,0.25,0.12,0.12,0.01,0.0,10237246,9022000,1002000,24659643,13
81590528,325889,50276078,74799,49665997,65825,132313,783709,93609967,3421,86340420,4838,1347,261576583,323,0.64,0.33,0.32,0.01,0.0,25356920,24100000,1004000,39907223,13
78125961,131953,45280840,62549,44725726,54992,92578,659255,87456240,2869,79888744,2131,1184,231936453,128,0.6,0.31,0.3,0.01,0.0,23877821,23605000,0,38211875,13
77400951,151235,44738326,67131,45113500,59555,189846,793089,91078394,2887,79470258,3642,1184,226400325,129,0.62,0.32,0.31,0.01,0.0,23622868,20298000,2899000,38394677,13
77847437,130139,44640478,63463,44653404,55593,89687,664848,88403922,3480,80146361,3303,1419,230849657,127,0.61,0.31,0.3,0.01,0.0,23761065,23479000,0,38107008,13
78640029,113673,44735186,64887,44824022,58779,92976,678480,88348158,3298,80705434,4418,1204,231096212,127,0.61,0.31,0.3,0.01,0.0,23997726,23755000,0,38353363,13
77189536,160825,44877588,61331,44481896,54684,83336,680542,88310657,2742,80110453,3015,1345,232228144,129,0.62,0.31,0.3,0.01,0.0,23768006,21534000,1957000,38291610,13
29432200,230642,15619247,59148,15651319,60338,155983,620033,41762356,2490,34071908,702,862,103397736,523,0.27,0.13,0.13,0.01,0.0,11060408,8866000,1970000,25423979,13
31513779,473097,23409323,77707,23403583,77131,137177,919675,50041479,2725,39053187,2151,2191,119654960,523,0.35,0.17,0.16,0.01,0.0,13513984,13286000,0,27730249,13
82994409,491685,51565458,91093,51200755,88284,160856,888186,97104155,7318,89557466,1670,1046,261537511,516,0.69,0.34,0.33,0.02,0.0,26202125,24888000,1037000,40596139,13
79692748,311999,48611921,73711,48629306,68197,138400,805159,96878155,3653,87240037,2703,1329,259019992,324,0.67,0.34,0.33,0.01,0.0,25957463,23702000,1975000,40600499,13
40058609,205286,25649933,53021,26131673,54813,152197,841127,50577187,5644,41141642,536,440,138154784,522,0.33,0.14,0.14,0.01,0.0,15201568,12960000,1993000,29861697,13
77080408,144768,44453247,64371,44968530,54114,89877,656187,88161532,3075,80249791,2872,1365,230959670,127,0.63,0.32,0.31,0.01,0.0,23361098,21989000,1047000,37695869,13
92884991,271145,55125920,86865,54909652,90338,134248,1147644,108456811,7329,95211524,7166,1018,279337536,421,0.74,0.34,0.32,0.02,0.0,32120642,29897000,1993000,46890663,13
84500074,286868,50238007,74168,49859778,70400,137613,764990,94299685,4319,87708745,4289,1526,266032906,323,0.64,0.33,0.32,0.01,0.0,25385881,25076000,0,39696061,13
76021389,156228,44531232,61663,44727631,54331,93604,647763,88724837,2478,80162834,2449,1211,230660774,127,0.62,0.31,0.3,0.01,0.0,23700204,22486000,977000,38138772,13
79305161,110262,44724944,63283,44720984,56224,87906,681259,86957924,3445,80338025,2932,1232,231732664,126,0.61,0.31,0.3,0.01,0.0,23830219,23527000,0,37983892,13
76864162,145514,44108210,62382,44851857,52004,87575,632802,87203236,3305,80152810,1660,1201,229839266,127,0.63,0.33,0.31,0.01,0.0,23204110,20936000,1993000,37418298,13
75873518,154867,44786980,63333,46109228,54101,86398,650195,87472474,3230,78876390,2736,1225,227265094,128,0.63,0.32,0.31,0.01,0.0,23469602,23153000,0,37876627,13
76816302,147845,45091902,61552,45313926,62042,96556,687210,88344749,2629,80433054,2820,1208,226353650,127,0.6,0.29,0.28,0.01,0.0,24868986,22662000,1970000,39560407,13
80532286,313929,51601500,86595,51420252,73957,137957,782347,97123538,4931,87528600,5201,1242,258172747,321,0.67,0.34,0.33,0.02,0.0,25896192,24613000,984000,40352544,13
78396061,117635,44202973,62487,44243183,55221,84829,641261,85571606,2953,79735895,1450,1192,228277046,126,0.61,0.31,0.3,0.01,0.0,23400283,23239000,0,37967133,13
77428331,146947,44439806,62900,44333938,54557,86376,668048,87819193,2841,80566383,5544,1275,231263325,126,0.62,0.31,0.3,0.01,0.0,23600510,22352000,971000,38026141,13
80886961,175157,44770560,64054,43853384,64098,139760,824351,90911326,6958,83995944,2831,1208,240274339,516,0.65,0.32,0.3,0.02,0.0,24961368,22698000,1973000,39410096,13
75543399,154876,44340703,64223,45473113,55369,90180,667481,87156702,3616,79238250,1529,1317,227043209,126,0.62,0.32,0.3,0.01,0.0,23272981,21994000,999000,37852349,13
78450496,119184,44303898,63520,44328841,58789,100403,688541,86623797,3589,79457586,2923,1462,227917324,130,0.59,0.3,0.3,0.01,0.0,23579439,23304000,0,38239414,13
76189181,155084,44588131,62447,44737742,55419,92543,654424,88977271,2443,80238899,3163,1155,231111712,127,0.62,0.31,0.31,0.01,0.0,23735607,22540000,980000,38069144,13
36260728,185940,27887461,37424,27860204,37502,82073,697838,53287237,1668,38489263,576,477,148959083,260,0.38,0.19,0.18,0.01,0.0,14562247,12254000,2042000,28668478,13
29032530,111279,15853124,59225,15901962,56765,103244,505723,39430742,1399,31681074,689,791,97828196,134,0.25,0.13,0.13,0.01,0.0,10544963,10290000,0,24928413,13
76573455,157613,44879366,64031,44754731,56457,95781,682178,87976988,2840,79364545,2679,1266,229397851,127,0.61,0.31,0.3,0.01,0.0,23816479,21582000,1962000,38237601,13
77830634,116098,44615907,64166,45222656,64047,114704,879517,87637815,3429,81363641,3113,1219,230396331,126,0.58,0.24,0.24,0.02,0.0,28187139,26931000,997000,43068428,13
28221231,122030,15952014,57916,15939659,55616,94064,493318,39652669,1503,31571593,680,744,97888280,132,0.25,0.12,0.13,0.01,0.0,10502765,10298000,0,24957924,13
76789689,154199,44905402,63581,44963475,57093,93080,681607,87789998,2615,78966643,3312,1238,227076070,128,0.61,0.31,0.3,0.01,0.0,23720410,21545000,1958000,38162635,13
81782456,486609,52031433,90669,52594193,89857,150973,1318726,96129423,3816,87151518,5953,2276,250994262,517,0.63,0.28,0.28,0.02,0.0,28619800,27357000,1013000,43226198,13
28984457,116386,16227178,59874,15926969,56854,103115,515148,38843236,1613,31482314,676,741,99080267,132,0.24,0.11,0.12,0.01,0.0,10584602,9318000,1035000,24990213,13
76163424,160887,44555306,63819,45932055,53267,86327,642116,86302468,3211,79009639,2846,1244,227797138,127,0.6,0.31,0.3,0.01,0.0,23148042,21861000,993000,37708183,13
82266030,294665,49240995,75253,49252425,73594,130444,879139,97167586,3907,87981415,6040,1021,257661784,325,0.69,0.35,0.33,0.02,0.0,26257473,25008000,1000000,40546235,13
83366347,500402,48607251,75635,48311513,72981,162205,868702,96652862,4502,88671062,1935,1600,259929280,518,0.68,0.35,0.34,0.02,0.0,26003662,25769000,0,40483242,13
28209048,122526,15662734,60895,15658542,56638,98735,476649,39003908,1468,31593519,648,839,98617003,134,0.26,0.13,0.13,0.01,0.0,10302899,9085000,1009000,24533857,13
28622073,154675,15677352,63910,15783195,61900,101011,513749,40135160,1592,32396312,762,825,99199309,138,0.28,0.14,0.14,0.01,0.0,10597935,9206000,1022000,25026996,13
82456717,385283,51272938,77217,50962713,77816,147179,1007040,99600325,4927,87395803,7940,2982,261927257,779,0.69,0.35,0.34,0.02,0.0,26929866,22758000,3957000,41369582,13
75691678,191811,45089413,67058,45875285,66089,135579,957667,92431789,3006,80736741,2386,1321,226558369,127,0.6,0.26,0.25,0.02,0.0,26950405,25598000,984000,41493587,13
78484064,170994,44663388,66923,44726084,63208,114449,747006,90147858,4619,81947586,3332,1230,232532364,325,0.63,0.32,0.31,0.01,0.0,24555221,21328000,2908000,38866576,13
77072645,128145,44120190,64270,44352126,55840,93777,669781,88379498,2862,80294639,2079,1227,229299208,127,0.59,0.3,0.31,0.01,0.0,23631589,23404000,0,37790445,13
81081888,306279,49048063,75633,49122887,70803,134278,800909,96396023,3691,87310864,5723,1820,260046880,324,0.7,0.36,0.34,0.02,0.0,25850837,23580000,1965000,40054066,13
232112983,21627598,296257405,6269162,288736591,6385069,4039578,12936048,633533302,74356,217336152,33262,30651,1402127450,10348,4.3,2.08,2.0,0.13,0.0,170895848,154546000,15953000,185705145,14
91530590,12236424,195584139,16754838,193698542,15735586,1826889,12564452,639955227,51797,102587996,28982,25587,786610642,8295,4.17,1.98,1.9,0.11,0.0,173186764,155788000,16976000,187778537,14
70388802,1423496,160989830,16393691,159395698,16315587,344871,4044161,548651500,18730,71088746,7792,8427,552422197,1602,3.5,1.64,1.58,0.08,0.0,148686606,147260000,1001000,163352461,14
137215910,19317237,227813934,16627303,228700796,16990356,1490088,14801114,797224169,51320,139688609,54718,36422,902152381,8305,5.27,2.49,2.4,0.13,0.0,215668249,194330000,20927000,230330491,14
235974784,24261958,286516381,6658428,285613343,6552360,3869641,12131688,649752730,64074,227656811,48095,37879,1390321490,10350,4.37,2.1,2.02,0.13,0.0,175798424,163297000,11948000,190587419,14
102074326,20064948,248145494,17821042,250327492,18116322,958287,19554718,750949625,39301,103326039,21228,18625,943307668,4232,4.88,2.35,2.27,0.12,0.0,202494565,193051000,9002000,217297930,14
16098009,697695,21238043,60163,20982812,60474,567762,2115637,48371740,8949,16717366,5391,5634,104504719,2306,0.33,0.15,0.15,0.01,0.0,12759449,4796000,7674000,27176783,14
146310441,17199083,258413946,17622755,257156209,17913035,1943783,10497972,829054518,62590,146765301,29898,30040,1053911833,8299,5.41,2.46,2.36,0.15,0.0,226608469,207227000,18929000,241172830,14
29527765,551786,15980463,96624,15286714,97596,708014,1818413,110867423,12810,27107835,11180,4194,106344893,2181,0.72,0.33,0.33,0.02,0.0,30211343,26913000,2990000,44587794,14
101308666,23647019,213986086,14626578,209591867,14582143,1008130,15331751,730322571,35030,101118962,7242,8664,883559330,2183,4.74,2.18,2.1,0.12,0.0,200686240,194206000,5975000,215340131,14
110642006,1530762,216529187,15932643,222258398,15694033,685885,4964980,645179931,25883,111340503,14210,13463,854389174,3626,4.14,1.93,1.86,0.1,0.0,174937050,166580000,7979000,189516074,14
74175787,1611821,129561080,2467963,136122240,2418508,528679,2680020,234537319,16700,74841492,20315,12912,490875770,3347,1.57,0.73,0.7,0.04,0.0,64061663,54700000,8951000,78571084,14
58383298,1527135,29949134,319415,31342977,336993,946366,2893583,177877001,22674,60800124,23148,26003,199722331,8301,1.18,0.54,0.52,0.04,0.0,49554363,38166000,11048000,64393738,14
155939545,12588858,165208600,4889805,173229135,4761192,2207727,9174503,437365873,57835,146706083,37843,30520,800682353,8299,2.98,1.43,1.38,0.09,0.0,118476970,103137000,15019000,133036975,14
81372312,3445367,177684342,16261375,181197067,15977203,1608828,7813524,692041085,39618,79031711,23266,29795,633231500,7140,4.53,2.14,2.06,0.11,0.0,186861872,176365000,10020000,201461970,14
85474605,20278144,162990573,4101882,162585307,4236068,1361695,16139234,370343053,24971,85584237,30216,17082,592247660,4230,2.5,1.2,1.16,0.07,0.0,100006864,91571000,8050000,114577924,14
117786032,25513365,223226612,18432088,218401682,18342155,1057513,21522541,788451214,34796,108589695,36786,25703,997343422,4526,5.21,2.46,2.36,0.13,0.0,212905630,205340000,6977000,227485397,14
220835857,22736943,346404086,18556615,338537108,18841890,3526867,20021326,1121541104,120424,210917167,183272,82947,1410984580,10309,6.28,3.09,2.99,0.16,0.0,227699549,216308000,11015000,243926818,14
75548330,1459947,166921634,21010506,167812931,21107443,424839,5083972,736747471,25401,76708238,6450,9660,655959573,2028,4.78,2.25,2.18,0.11,0.0,199225084,195783000,2996000,213672597,14
573051668,17067013,525243984,6736777,534416097,6569632,2359384,10583596,1011125007,48616,586598294,32331,33779,2453249782,6282,7.13,3.52,3.41,0.17,0.0,272590339,259153000,12957000,287059912,14
85827850,274083,124814957,12772361,124731109,12773663,127181,2371582,610880586,15413,86191642,2529,4899,491767902,134,3.87,1.79,1.73,0.09,0.0,165068174,163651000,997000,179693390,14
151739696,17660617,259882127,18269587,259819190,18273252,2829847,11135464,828003537,54618,152129368,42357,35125,1115444456,8296,5.41,2.52,2.43,0.15,0.0,223869786,206546000,16962000,238419068,14
88177275,2726563,210375047,15598340,208568604,15553600,1446045,7070206,663359109,34630,86375394,20760,19501,771960674,7143,4.27,2.01,1.93,0.11,0.0,178621491,163327000,14938000,193456448,14
135656913,12154142,157481923,5044775,154696118,5181845,2908440,10287051,415086931,40047,131168332,29145,27962,767586874,8302,2.8,1.31,1.26,0.08,0.0,112398913,95066000,17011000,127101818,14
158637683,17060283,180461790,4856232,180755645,4956296,2219391,9554763,471218963,50099,150928153,49014,26097,893986786,8295,3.18,1.52,1.46,0.09,0.0,126931065,110549000,15935000,141622249,14
63172027,2723496,92249660,2536936,90714481,2544471,1260148,4863085,243533235,25716,65154303,31243,23051,424499651,7171,1.63,0.77,0.74,0.05,0.0,66573415,53163000,13040000,81195433,14
153050781,1679651,217409724,3336276,213996319,3598765,768231,3783098,377377252,17805,156612903,14576,13410,1005678642,3339,2.51,1.18,1.14,0.06,0.0,102388858,97967000,3998000,116872672,14
85561396,4767547,141139693,12706895,138947186,12604076,6183673,9450773,728833024,93390,77501978,164362,110875,541587959,35215,4.74,2.18,2.08,0.14,0.0,196921335,132390000,64189000,211293658,14
190149427,16368286,260160584,18501223,262892901,17779554,2525574,10890640,801567019,61023,191966307,49149,31295,1202947848,8295,5.27,2.46,2.37,0.14,0.0,216557352,202189000,14013000,231004895,14
117109634,16834661,223037117,15717257,224850607,15800218,1910081,14437847,718514176,41528,116269933,33257,40155,922728178,8301,4.72,2.22,2.15,0.12,0.0,194251372,182851000,10991000,208952307,14
151310030,17306370,255903131,17379524,256611501,17286956,2690622,11150092,886238692,63276,147941318,21476,27876,1212592311,8302,5.89,2.8,2.7,0.15,0.0,239684395,224313000,14954000,254166365,14
90268615,460040,128104923,12885914,127219721,12928881,247103,3221472,619705652,28455,93654469,30527,12330,512872106,134,3.92,1.82,1.76,0.09,0.0,163124956,161739000,998000,177713171,14
193220242,18551157,259884711,18785129,255935619,19043150,2238200,10272962,807365860,57613,191649610,35456,34751,1194161243,8296,5.28,2.47,2.39,0.14,0.0,219667943,201411000,17947000,234250209,14
85820099,277605,124039200,12767133,124564786,12815995,120337,2320958,605442411,15804,85911442,1699,4862,488309444,136,3.85,1.76,1.69,0.09,0.0,165444536,163155000,1989000,179870260,14
190336460,18065960,256141572,18821193,254486974,18984669,2804460,10828602,805422650,56989,190503151,46639,34317,1147887150,8299,5.35,2.5,2.4,0.14,0.0,218855045,202353000,16028000,233387497,14
41459661,199589,98084505,13081664,97938351,13046809,101162,2001208,486436348,14138,41570469,2184,3935,385717132,136,3.09,1.39,1.34,0.08,0.0,134382260,132092000,1986000,148872637,14
169146678,17796789,256585925,19194955,254271479,19022923,2820427,11253858,811700823,66543,176194583,29700,32577,1175434333,8297,5.35,2.49,2.39,0.14,0.0,220443681,209110000,11005000,234873599,14
76551933,163141,77912998,733480,78165524,741610,99092,1193598,221258648,6846,77162803,946,1919,397153857,136,1.44,0.65,0.62,0.04,0.0,62503301,61215000,1003000,76827310,14
146488879,15967300,261587289,18391827,264345961,17785687,2829429,10700328,802071885,61337,151377473,45620,31299,1062696105,8297,5.23,2.45,2.36,0.14,0.0,215852794,201547000,13968000,230618696,14
110418653,19598900,213931025,16433670,211276038,15680874,2402095,22021508,743640657,59109,119700491,31119,24025,867696304,8300,4.89,2.3,2.22,0.13,0.0,201922451,187587000,14043000,216250708,14
191993781,17735657,256287607,18712681,260504586,18499502,2207180,10171987,805724985,60219,193183485,40907,34766,1216452150,8295,5.29,2.48,2.4,0.14,0.0,218866343,199545000,18956000,233539903,14
158240491,17159290,175614403,5058931,178824186,4947469,2694670,10250896,449326476,49686,149714272,29090,30349,888789427,8302,3.02,1.44,1.39,0.09,0.0,121405358,107038000,14005000,136007576,14
170448390,17608896,264832907,17581294,262131227,17849603,2100329,9758153,841179254,55012,165703234,24790,27620,1123546775,8300,5.54,2.61,2.52,0.15,0.0,227275426,214972000,11998000,241756163,14
192726506,17735369,286472573,20020146,275209298,20037778,1594835,9598373,771386847,67929,194226639,44766,38241,1143603152,8299,5.08,2.4,2.32,0.14,0.0,208058274,193738000,13981000,222624668,14
40313718,246152,119453303,12665015,121002547,12699508,120839,2107777,496680939,14769,40385606,2050,3999,392621807,134,3.13,1.46,1.41,0.07,0.0,133940805,132647000,997000,148688750,14
114433401,14083645,137267025,3076322,138023745,3045327,1743930,11145088,322662227,34802,108169709,32777,30235,636240160,8301,2.17,1.05,1.03,0.06,0.0,87369185,74033000,13005000,102056374,14
132376522,12966371,140701252,4932286,136711126,5068072,2594331,9925639,402476749,49536,126632771,43222,29922,687569873,8300,2.72,1.29,1.25,0.08,0.0,109694532,95493000,13926000,124210857,14
84390419,2377265,79683586,5071379,86999154,4722825,1127745,5801243,280170071,24258,94794249,12750,17163,389365987,4204,1.88,0.9,0.86,0.05,0.0,76236379,69801000,6069000,90889687,14
196580756,18257610,257794416,18737002,255652865,18475755,2394751,10648061,865594711,57368,196050720,46971,31891,1331379973,8295,5.68,2.69,2.6,0.15,0.0,233741653,219244000,13951000,248533854,14
146132043,17879916,255366962,18074225,253708519,18398749,2468931,11882365,870618730,53281,147422447,45926,36625,1045443507,8300,5.73,2.71,2.62,0.15,0.0,235729587,222477000,12969000,250441551,14
64777719,835577,93380034,2136450,92959897,1990758,209183,1886330,184310108,13228,69608913,6122,6989,440852063,1736,1.23,0.59,0.56,0.03,0.0,49568543,47228000,2009000,64052852,14
138103510,18939419,228718967,16455048,230781256,16612854,1331693,14205202,736759806,51810,139964097,39884,30328,1052208510,8307,4.83,2.26,2.19,0.13,0.0,202178100,185716000,16061000,216961857,14
89225785,867427,109035243,13245261,109076111,13120317,955813,3125849,525021358,30492,89402123,17892,16405,556818770,4263,3.37,1.59,1.53,0.08,0.0,141990062,132687000,8978000,156398836,14
152100378,17624107,181962304,5002945,179433139,5018753,2617457,10447064,456304514,47474,146778041,36519,27017,891015239,8302,3.09,1.48,1.43,0.09,0.0,123551276,109221000,14028000,138135336,14
146480806,16537771,173363984,5104529,179568016,4952319,2661430,10151424,447048253,46988,144444220,33838,26642,852300572,8303,3.06,1.46,1.41,0.09,0.0,120608090,106245000,14032000,135352418,14
198843416,14966707,295050241,24484857,296380281,24596250,3444991,12840554,1013791383,64899,195087982,42372,39699,1235274125,10350,6.64,3.11,2.99,0.18,0.0,274045411,254706000,18978000,288626180,14
38235745,173602,95672281,12539136,95871083,12558209,101809,1846878,452430372,12364,38179268,2133,3604,319379381,134,2.86,1.3,1.25,0.07,0.0,122743808,121437000,1003000,137008978,14
153487402,17658703,264154217,18199540,257561122,18674626,2251786,10250971,840054942,56407,147792154,21772,28877,1191427328,8301,5.53,2.62,2.53,0.15,0.0,226972637,211611000,14972000,241626490,14
100482545,2571513,142261754,13416659,141091292,13318646,3304086,6147411,667438539,61636,96011886,90586,64417,556001261,20355,4.29,1.97,1.9,0.12,0.0,180167501,140786000,38941000,194620059,14
169770563,17852111,294224358,18496544,299797334,18581924,2530459,10442567,851693859,50144,169484482,41728,34247,1239132665,8301,5.6,2.65,2.55,0.15,0.0,230571345,213371000,16950000,245044889,14
157969225,5190249,225276869,18409633,230395173,18604185,3012436,11109509,805207362,58055,149345076,43717,37089,886699898,8302,5.37,2.5,2.41,0.14,0.0,218005804,207699000,9985000,232775771,14
78191257,1651663,95282286,3005139,95808508,3002902,464869,3131893,235526941,15618,79965108,12259,12977,452266222,3619,1.55,0.74,0.72,0.04,0.0,63396435,54060000,9010000,77850485,14
136146835,19773573,221889898,18159424,222078462,17743900,2272186,23204729,866073231,51013,139271165,37336,31043,976020128,8301,5.83,2.73,2.64,0.14,0.0,234073104,220771000,12986000,248643172,14
150097833,17543953,263932987,18221053,266262173,17881101,2741650,11074960,830912069,61438,153566110,37479,28130,1202800037,8299,5.45,2.57,2.48,0.15,0.0,224856847,212601000,11977000,239584483,14
120619169,16449629,151167466,3210392,151874892,3252176,1803685,13577673,365625938,34999,114420133,39478,29268,719044992,8301,2.5,1.2,1.15,0.07,0.0,98351401,85041000,13006000,112947113,14
145606028,15939401,256473525,18373939,259617136,17866136,2750786,10969890,799376265,61650,150502757,44142,31694,1050487726,8295,5.18,2.42,2.34,0.14,0.0,216344483,203009000,13000000,230809428,14
83093145,798567,118690640,1671358,116034552,1605285,220487,1798866,194324286,12128,88765365,7029,6407,518199354,1742,1.27,0.61,0.59,0.03,0.0,52454107,49131000,3008000,67059151,14
106440672,22357663,217363220,17764958,213964271,17292011,1089944,18904237,753707945,47175,110576146,13370,15527,853484187,4235,4.97,2.34,2.26,0.12,0.0,204379592,198074000,6002000,218915250,14
131491420,3839874,128525369,3385687,118625153,3489862,1965841,6655991,357666390,42853,119276283,54238,37015,658617541,12133,2.42,1.15,1.12,0.07,0.0,96428249,75833000,20222000,111345594,14
52706198,229927,101096179,12990421,101356336,13027114,109829,1993828,466725475,12033,51849496,1928,3587,327991139,129,2.96,1.37,1.32,0.07,0.0,126250119,124995000,999000,140755824,14
36515832,328485,56837472,6386909,60464932,6081518,532059,1983398,229016027,14415,46398015,5108,8429,245782395,2303,1.47,0.69,0.67,0.04,0.0,61782409,56524000,4958000,76195260,14
78198359,3506906,60117466,3599919,58441972,3583410,912393,5116181,249892288,29448,80967455,20409,20029,370410018,7145,1.7,0.82,0.79,0.05,0.0,67565611,56203000,11040000,82044179,14
115735018,18015117,227677625,16811634,227182127,16084078,1825791,16357886,709344566,53862,122226876,38837,27739,910548691,8299,4.57,2.15,2.08,0.12,0.0,191283335,180794000,9988000,205924270,14
114636044,17753355,224600207,15789104,221269845,15706361,1730278,15212052,735228750,48020,113675813,29162,27601,1029105051,8294,4.85,2.32,2.23,0.12,0.0,198173659,187883000,9993000,212842833,14
35993568,195748,79934842,11340571,80388851,11309605,126770,1661876,362577818,9384,35340930,955,2458,291215295,136,2.32,1.08,1.05,0.05,0.0,98122982,95736000,1994000,112453344,14
251969855,769310,221839251,7430907,221158727,7437957,187397,3373485,616972942,19443,253516334,10259,7712,1359631121,1191,4.13,2.02,1.95,0.09,0.0,165592728,163173000,1989000,180443121,14
147071251,16581351,255219029,18873422,258850673,18223078,2293651,10440809,803141588,61511,150990598,39396,33662,1084533359,8300,5.27,2.5,2.41,0.14,0.0,217597175,201314000,16025000,232216059,14
75434303,1635649,184974887,14245892,184659561,13948873,636509,5068791,696205580,30215,78510666,15938,13092,790092061,3344,4.56,2.15,2.08,0.11,0.0,189386678,179155000,9953000,204004093,14
83450393,2690789,101443250,2457560,104886573,2602017,1194103,5114439,272260187,26102,87745963,33301,23532,466173148,7145,1.79,0.82,0.8,0.05,0.0,76296142,63995000,11999000,91029054,14
110705329,5163131,171397791,18239430,170404923,17739932,2579914,10241301,710627973,60595,112324635,32309,25590,741190994,8296,4.6,2.16,2.09,0.13,0.0,191424409,181082000,10004000,205916344,14
111252131,685018,79264464,1675632,79174134,1775662,230078,1696108,194160533,6661,116057997,5116,4905,365884575,1039,1.29,0.61,0.59,0.03,0.0,53169784,51849000,1016000,67755093,15
91727802,567241,93965726,1875724,92465682,1822060,185094,1426102,183127639,7414,95388316,6431,3966,425392294,521,1.26,0.63,0.6,0.03,0.0,50021114,47700000,1987000,64535937,15
93881235,561367,98291181,1792365,97875598,1784901,187696,1483998,189859706,7384,96771965,5360,4115,430862147,525,1.26,0.62,0.61,0.03,0.0,51574414,51272000,0,66044245,15
423485730,635935,263654737,2246869,264778897,2070021,250647,2832248,491443559,15492,431176401,14252,7960,1241222426,520,3.43,1.73,1.68,0.08,0.0,132893478,128613000,3988000,147479493,15
110951569,991940,76743203,1923960,76592125,1792078,282618,1839844,186624056,8252,114268269,2308,2567,364023263,916,1.27,0.63,0.6,0.03,0.0,50404194,49108000,1002000,65106921,15
454451035,5658135,283468154,1613012,285370277,1613077,2101984,14001964,735574987,241122,467145670,29914,14900,1356492485,2473,5.02,2.47,2.39,0.13,0.0,198867829,193563000,4988000,213242277,15
422462433,599167,263511109,1998059,263515106,1953819,241085,2586997,494249816,16245,423081819,15167,5437,1230384639,519,3.46,1.77,1.72,0.07,0.0,133604825,130369000,2985000,148197679,15
109814612,592499,76806492,1650400,76696921,1642507,305849,1657135,190615041,7391,115240513,3251,2430,363862244,525,1.29,0.63,0.61,0.03,0.0,51441155,49025000,2001000,65815688,15
112080519,729361,78541754,1715026,76901263,1780579,191502,1638544,193769039,6713,119545475,7165,5532,379360549,1040,1.31,0.66,0.64,0.03,0.0,52283286,50998000,999000,66930366,15
114890920,705884,75876921,1685542,73341025,2016299,228071,1600927,187671100,7827,121007298,6101,7047,369071082,1041,1.27,0.63,0.61,0.03,0.0,50768436,47442000,3028000,65544572,15
109995303,972803,76321396,1691757,77229672,1632496,278068,1815506,191108593,7546,115232784,2084,2360,362957344,914,1.29,0.64,0.62,0.03,0.0,51549891,48232000,3014000,66282181,15
443587024,5589838,280712081,1369650,281530201,1373767,1918578,13164922,719143680,266652,441027699,28690,19446,1293924629,2470,4.88,2.43,2.35,0.13,0.0,194274515,187942000,5998000,208743774,15
421788027,1230901,261947947,2244414,262387650,2246406,420645,3327502,512294362,16591,431628074,14116,11115,1232920897,1938,3.61,1.86,1.8,0.08,0.0,138323372,134008000,4000000,152984977,15
112969895,694662,74686564,1597511,72905266,1877861,227623,1607775,188184726,8056,119472598,5982,6022,365310449,1039,1.27,0.63,0.61,0.03,0.0,51047980,50638000,0,65699964,15
424841872,1199131,267767853,2266790,269663202,2007574,282829,2899634,513541227,14647,433788234,22411,7081,1272346281,908,3.61,1.84,1.78,0.08,0.0,138756287,135336000,3007000,153216600,15
108042897,731332,79148643,1687900,78779732,1676190,254781,1720904,201028780,6921,117992922,6604,6150,360982099,1041,1.35,0.67,0.64,0.03,0.0,54271998,49972000,3997000,68782595,15
111764598,560376,73055725,1770976,72018667,1776097,216774,1524290,188479611,7432,117234686,2890,2388,361858932,523,1.25,0.61,0.6,0.03,0.0,51003967,48625000,1984000,65634678,15
114532696,914784,78055701,1690182,72579806,1785508,282856,2056173,186891262,14317,114749097,4349,2225,371453045,913,1.23,0.59,0.57,0.03,0.0,51218804,47863000,3055000,65884985,15
131182389,831839,83845181,1619509,81718132,1621414,346076,2299643,194222277,8289,132456343,2556,1982,411677661,914,1.29,0.6,0.58,0.03,0.0,55809185,53490000,2018000,70444422,15
110590112,547969,77895837,1751179,76527200,1890063,214330,1554080,190367231,6523,115835083,3148,2373,364545394,524,1.25,0.6,0.58,0.03,0.0,51997347,48705000,2981000,66624016,15
157545837,2055856,120775877,4307034,116687231,4691038,392489,3853682,314745942,11090,164049666,9692,8962,550829014,1697,2.05,1.0,0.97,0.05,0.0,85372941,82042000,3001000,100265321,15
128191802,1227629,82571091,1642648,82537449,1661294,371901,2373668,203058272,8531,137859179,7089,10481,407971111,1943,1.37,0.67,0.66,0.03,0.0,55080503,46800000,7966000,69449313,15
114755216,974170,73881275,1786157,71437228,1726420,311897,1906389,187721869,8508,116596738,2439,2368,370712860,913,1.28,0.63,0.6,0.03,0.0,50597079,47197000,3012000,65318354,15
456477007,889664,264363198,2298357,264098534,2106044,327480,3387587,526581458,18124,457916499,14841,7927,1316197065,907,3.74,1.91,1.86,0.08,0.0,142874177,140459000,2006000,157578833,15
427732474,638442,266380568,1983828,270286098,1797234,230173,2576268,507412762,15181,433179626,16090,5227,1268149040,519,3.56,1.82,1.76,0.08,0.0,137093373,135860000,998000,151853576,15
947386488,6306410,677313775,2046836,678802624,2060932,3591624,15994712,1148771233,124403,954150213,29194,18381,3130808893,4356,8.19,4.17,4.04,0.21,0.0,310536618,302108000,8002000,325208626,15
114315391,700549,75677753,1641264,75177505,1828863,234360,1630219,191315664,6977,120293731,4713,5637,368271002,1038,1.28,0.63,0.61,0.03,0.0,52029102,51665000,0,66445784,15
129676489,925201,87865500,1736682,86604753,1561267,334131,2151159,198986149,13724,130931349,2555,2280,403578933,914,1.35,0.66,0.64,0.03,0.0,53840370,48559000,4955000,68448101,15
120984790,950918,85652178,1811758,86274177,1575494,357420,2437857,207287175,13429,126057388,2301,1838,396848896,913,1.39,0.69,0.66,0.03,0.0,55817015,49417000,6051000,70476428,15
426097789,951857,263297836,2325748,259996572,2417957,304805,3042786,502492925,16724,424707462,12420,5435,1237299621,911,3.51,1.79,1.75,0.08,0.0,135503493,131186000,4005000,150188605,15
119041866,712190,87748493,1737828,87831164,1698811,281136,1950020,211342288,8164,130522805,4361,5253,424658860,1042,1.44,0.71,0.68,0.03,0.0,57192955,55001000,2000000,71646417,15
153594106,1660749,118006984,4372043,113547903,4492943,536621,3858050,316647332,11311,158584789,5954,9320,530099800,1694,2.15,1.04,1.01,0.05,0.0,85704027,82402000,3014000,100666972,15
109820749,571233,79364945,1735871,80506701,1577639,228509,1456165,197613548,6487,115528141,2883,2483,362642510,524,1.34,0.66,0.63,0.03,0.0,53246507,50953000,1998000,67345862,15
102294550,707022,101580900,1665981,101397680,1591110,238388,1730156,204763217,7541,107657514,8115,5752,469950347,1037,1.39,0.7,0.67,0.03,0.0,54735223,51280000,3016000,69136409,15
110949174,996765,76781830,1926433,76359964,1786238,270975,1880206,184090033,8321,114325832,3311,2496,365030101,916,1.24,0.62,0.6,0.03,0.0,50253035,45872000,3988000,64834828,15
146671705,4775636,108624673,1450282,108396678,1525266,3547050,12476629,294376593,103897,136137097,15497,13393,508193965,2867,2.06,0.98,0.95,0.07,0.0,79728408,74459000,4963000,94414766,15
428252396,807201,266450429,2031970,271205540,1864046,209887,2650158,508739648,16402,435053743,17720,8399,1255593979,1033,3.65,1.79,1.73,0.08,0.0,137546798,134280000,2984000,152107753,15
118446495,590809,88688333,1838185,89492227,1651721,235080,1712066,203423761,6970,124429465,3567,3459,389585326,527,1.37,0.68,0.66,0.03,0.0,54984918,52662000,2025000,69119224,15
422629067,772820,261717735,2297547,264036991,2223799,223693,2821571,491504296,17749,427913912,16256,8740,1233349313,1034,3.46,1.76,1.71,0.07,0.0,132746391,131444000,1003000,147477077,15
439547652,1239507,270695020,2165089,271400817,2166081,422171,3593774,524436296,17542,455946669,18738,12747,1286583986,1936,3.66,1.86,1.81,0.08,0.0,142096778,138731000,2994000,156739403,15
119023764,562088,82319415,1681904,83492092,1525870,247567,1597546,202447227,6477,125937457,2564,2174,393990426,523,1.36,0.67,0.65,0.03,0.0,54692477,51335000,3019000,69402896,15
110320144,649392,73568751,1900774,73572401,1784564,207783,1479086,185967961,6827,116494592,4462,3616,356281566,523,1.27,0.63,0.6,0.03,0.0,50192301,47901000,1995000,64858493,15
109862848,527738,77957377,1686892,76995099,1646308,245302,1561865,194710730,6785,114845643,2373,2447,358716934,524,1.3,0.62,0.6,0.03,0.0,53435494,50132000,3007000,68296071,15
111260734,550712,78584241,1755667,75992812,1874571,233219,1566165,189287808,7138,116912340,3264,3847,364700468,523,1.22,0.59,0.57,0.03,0.0,51494975,49230000,1969000,65943024,15
109320994,605659,76013899,1889823,74600472,1800125,255836,1509756,187792939,7010,114985230,3412,3675,359814598,522,1.25,0.62,0.6,0.03,0.0,49896305,48614000,1012000,64530765,15
120500659,708862,82942868,1701875,83023080,1664657,255234,1861579,207027176,7458,128937834,5030,5225,397945204,1042,1.4,0.7,0.68,0.03,0.0,55768470,53443000,2016000,70165743,15
109066879,1233321,78960625,1695200,78074971,1673964,309049,2134976,199708052,8047,120826044,10062,8581,363505410,1945,1.36,0.67,0.64,0.03,0.0,53407492,48102000,5010000,68020469,15
119330074,1058073,85656830,1730169,83888712,1587073,328890,1872199,203333733,13869,123526417,3150,2038,422388488,914,1.37,0.68,0.66,0.03,0.0,54853864,51564000,2974000,69346956,15
114578285,932287,75869742,1997640,73143466,1855447,282307,2193202,180825777,15060,115577823,2821,2365,372161058,916,1.25,0.62,0.59,0.03,0.0,48920555,47677000,1014000,63186977,15
100271720,688062,99670661,1709396,99955902,1609975,229060,1852023,207370011,7556,106483364,7905,5574,470606026,1038,1.42,0.71,0.69,0.03,0.0,55754369,51390000,3953000,70496219,15
116965522,822252,83568184,1709035,84372647,1641444,268797,1706350,199775451,6716,121528524,4437,6012,404600443,718,1.38,0.68,0.65,0.03,0.0,53979859,50223000,3013000,68514720,15
122366497,951419,82902757,1676606,84201890,1473324,336070,1959808,201061134,7520,125095083,1788,2389,400897067,916,1.38,0.68,0.66,0.03,0.0,54389224,52092000,2003000,68747655,15
430302922,781836,267147808,2104174,269749753,1939763,312740,2808017,511691863,16057,435916915,17508,9167,1271392322,1034,3.56,1.83,1.78,0.08,0.0,136672147,134446000,2006000,151381595,15
428833800,814527,267155671,2044529,271761706,1935658,231748,2759399,506340347,16633,434070786,16441,8359,1272141267,1034,3.55,1.82,1.77,0.08,0.0,136368471,130990000,4999000,150817586,15
117672877,559060,83492010,1674740,83828343,1480277,236254,1529499,199480694,6821,121269771,2373,2508,395586244,524,1.35,0.67,0.66,0.03,0.0,53880173,52600000,1011000,68576423,15
117740081,554491,83793456,1648678,83506654,1635934,232145,1760862,199938955,7092,125371626,2979,1944,400324607,524,1.34,0.65,0.62,0.03,0.0,55492427,54184000,1003000,70210497,15
424625287,946747,263113813,2168656,261469454,2215690,377443,3138873,504888335,17174,427589924,12471,5316,1234277738,909,3.58,1.76,1.71,0.08,0.0,138156659,136852000,1006000,152812241,15
131573127,561704,96068891,1694922,94833732,1703923,237501,1681602,209604148,7102,133490830,3013,2006,437464479,524,1.4,0.69,0.68,0.03,0.0,56444697,53144000,3008000,70879215,15
111171400,538885,78515675,1728259,77056699,1633941,237757,1591442,193277159,7286,113480392,3737,4075,360576889,523,1.3,0.63,0.61,0.03,0.0,53141517,50856000,2034000,67495841,15
420794787,631204,261259074,1999094,264429858,1979868,226378,2483741,495343178,16256,423484156,13891,5380,1224308446,518,3.52,1.71,1.66,0.08,0.0,134944730,130646000,4019000,149437453,15
429168838,1250255,271102139,2341639,271779060,2339406,513079,3682400,524686639,18638,447782048,15047,11213,1278846750,1937,3.7,1.88,1.82,0.08,0.0,141874665,136587000,4984000,156697689,15
115674322,717611,82739641,1673568,82949856,1660697,255322,1792801,203104116,7625,126465528,5675,5725,389670573,1039,1.38,0.67,0.65,0.03,0.0,54750870,48564000,5946000,69281119,15
420026679,649602,262313288,1992300,264151302,1964615,224228,2458312,498273353,15519,423918577,15269,4851,1226567606,518,3.5,1.79,1.73,0.08,0.0,134555995,132203000,2003000,149122202,15
147630144,4986418,107031837,1560213,104111061,1493539,3497575,11883860,300313819,107204,142315094,10736,9366,507385711,2868,2.09,1.01,0.97,0.07,0.0,81523187,74173000,7016000,96197876,15
123846612,922686,83632959,1672862,82118582,1552981,357444,2224340,198504082,14757,125560663,1799,2550,399069206,913,1.34,0.66,0.64,0.03,0.0,53720234,51393000,2015000,68281991,15
430773350,634070,270675552,2028890,273255168,1894256,250359,2633815,503290126,16237,434647694,14512,5030,1293066218,519,3.55,1.81,1.75,0.08,0.0,136459894,132009000,4000000,150875998,15
419264945,633341,262552796,1989973,263998199,1935841,230366,2581944,496552127,15211,424293475,15157,5051,1229210119,518,3.48,1.78,1.73,0.08,0.0,134032777,130626000,2991000,148528372,15
108144943,725563,78679752,1697008,78109720,1636466,250414,1713783,200928973,6817,117617956,6428,5612,362081611,1039,1.35,0.66,0.64,0.03,0.0,53992716,50717000,2983000,68658640,15
112322021,647291,78983894,1656366,79385791,1658608,252989,2038653,198724095,8007,118629072,5470,4099,370010431,1039,1.35,0.63,0.61,0.03,0.0,55536295,54237000,1004000,70167794,15
419268582,780260,261987260,2091039,264468623,2004291,211181,2619787,501860502,15778,423951252,18298,8723,1225876271,1035,3.54,1.79,1.73,0.08,0.0,135799643,134410000,1003000,150255149,15
427672974,1189890,267627616,2087864,270279686,1873906,278002,2814113,505835489,20151,435130581,17339,6165,1284860307,908,3.6,1.75,1.7,0.08,0.0,137929120,133596000,3987000,152649059,15
308443785,18890922,231966919,12514349,232237274,12450021,9116129,44438651,1006522323,574471,323702164,46851,39729,1117180584,11163,6.84,3.27,3.17,0.21,0.0,272461928,257070000,15004000,287136777,15
423594471,607683,262121065,2001269,263596028,1977559,224558,2519679,494813739,17677,422922567,14860,5483,1231494593,516,3.51,1.77,1.72,0.08,0.0,134549955,132152000,2002000,149071404,15
117803755,1073615,85060629,1753654,84068106,1632702,309571,2755201,206515219,12640,124352650,1890,2186,422087933,914,1.39,0.69,0.67,0.03,0.0,55571983,51274000,4021000,69897313,15
446038324,5674598,300325732,3073728,300994010,3076400,2944991,14048373,820721679,428729,449875629,33177,17986,1372239584,3253,5.64,2.79,2.69,0.16,0.0,221301369,212973000,7999000,235785205,15
110164431,1134767,76192822,1717694,77218468,1785165,262767,1904504,193274412,8448,115420761,9448,9554,360133168,1695,1.32,0.65,0.63,0.03,0.0,52729315,50362000,2014000,67195992,15
109499875,524216,77962321,1646724,78438602,1647116,239661,1796074,198838037,6953,118199360,3234,1896,364899956,525,1.31,0.61,0.58,0.03,0.0,56298671,54020000,2000000,70921213,15
114459556,552779,82417242,1723185,82115590,1534182,263653,1610298,197347547,10969,119141382,3288,2292,398714294,524,1.33,0.66,0.64,0.03,0.0,53692708,46463000,6920000,68246875,15
120558697,698041,88533820,1760458,88655712,1762775,255066,1881289,210919248,7164,130625496,5476,5233,406504027,1040,1.42,0.7,0.68,0.03,0.0,56943849,55658000,993000,71678263,15
434030684,649984,269737577,1914330,271711177,1889831,252327,2655877,501980117,16538,435985404,16077,5581,1266548026,517,3.62,1.8,1.74,0.08,0.0,135213802,131922000,2998000,149733397,15
303270556,333793,203874755,1138166,204422575,1137889,211489,2417111,529212572,17409,305813710,7062,5091,1531537489,1107,3.41,1.58,1.52,0.08,0.0,145857243,142590000,2991000,160698448,16
307763415,314427,206239585,1130885,205055548,1128238,296684,2608596,540810664,18339,304107135,3888,4080,1546363196,1110,3.46,1.62,1.56,0.08,0.0,146561742,145224000,1001000,161422698,16
211637649,378866,314471730,1117448,306574298,1088751,535883,2664816,370283187,34676,205503379,22476,6562,1592741786,2082,2.48,1.21,1.18,0.06,0.0,99760511,94411000,5021000,114549344,16
312082732,414231,208954783,1150133,206892576,1134684,610063,3097334,591410369,38259,306162244,16137,6979,1250703873,2086,3.77,1.78,1.71,0.09,0.0,159601087,153102000,6004000,174467146,16
319471299,348994,208829862,1098549,204646868,1078488,501723,2287534,370114709,16790,311274568,8435,2817,1502165106,2088,2.47,1.19,1.15,0.06,0.0,100738294,95421000,5022000,115237225,16
919531655,964809,608926679,1441808,605718369,1440668,567298,4897965,1122338223,54545,911410815,55506,11371,3278714724,6425,7.92,4.0,3.88,0.17,0.0,303843889,291575000,11982000,318490650,16
461545343,51400367,412051790,219785,411185751,220858,40817076,109167413,1039276042,438498,461542602,35821,13863,1938540393,5995,7.73,3.5,3.33,0.51,0.0,280737328,273275000,7007000,295426325,16
1621225265,798046,612443837,1443213,610075498,1435150,653575,5529790,1279825429,40408,1603702599,22213,11390,4571728838,2956,8.8,4.41,4.27,0.2,0.0,346861910,341477000,4992000,361365902,16
305668084,320622,204429363,1138671,203681089,1136782,209140,2357693,527781916,17204,305055066,6822,4634,1539576540,1109,3.46,1.69,1.63,0.08,0.0,142786910,137438000,4979000,157494919,16
311358288,396846,207719378,1133322,206472412,1118178,485342,2673683,545177695,19102,303571974,10126,6535,1452197774,2082,3.52,1.67,1.61,0.09,0.0,147831885,143424000,4011000,162326198,16
304938435,321381,204248767,1133453,203590117,1134233,208840,2321099,528115604,16765,305082579,5511,4601,1538518126,1108,3.45,1.66,1.61,0.08,0.0,143037991,137815000,4993000,157676874,16
412698401,449369,206970696,1151252,205585766,1140208,516613,3224976,677222886,21437,406784222,7165,5151,1352432637,2082,4.29,2.01,1.94,0.1,0.0,182892167,179596000,2993000,197553468,16
319656777,310625,212560299,1122461,206335758,1088050,496883,2292404,372899890,17143,301072584,12309,3734,1474582290,2115,2.48,1.2,1.17,0.06,0.0,102065902,97786000,4032000,116660639,16
311896376,399422,208098100,1149204,206233419,1133499,623833,3144307,594344377,22640,305634604,13678,5353,1251917960,2084,3.78,1.78,1.72,0.09,0.0,159141018,154842000,3995000,173996216,16
312826077,359885,208517216,1135719,206098790,1116522,510926,2797543,534801822,20802,303808700,5880,5012,1454023248,2088,3.47,1.65,1.59,0.08,0.0,144692095,140259000,4007000,159210650,16
311472532,412120,409283154,1141612,402983112,1119355,490909,2842317,560353311,20766,305738455,11801,4967,1754731277,2081,3.74,1.85,1.8,0.09,0.0,151156940,147828000,3016000,165827678,16
307983556,345126,205111469,1128599,204244919,1129705,413343,2650720,570145626,17324,307592699,1733,3986,1347625849,1106,3.64,1.71,1.66,0.09,0.0,152001084,147317000,3981000,166641183,16
209880418,338582,313248552,1530199,306242034,1492350,502327,2587744,482377880,21279,203939231,8332,4504,1462292081,2083,3.27,1.61,1.57,0.07,0.0,130488547,129087000,1000000,145127032,16
208948674,13105938,207699796,97196,202297627,98332,7103799,27215261,337593427,173944,205419011,20111,3709,1147267372,2085,2.44,1.13,1.08,0.13,0.0,91639858,85164000,6011000,106255521,16
315735609,350885,416219885,1151156,403314457,1119889,671826,2870715,430010005,16417,303075412,8241,3394,1796699238,2083,2.93,1.43,1.38,0.07,0.0,116082931,109694000,5983000,130593659,16
308420332,322794,305116638,1124023,302197699,1123334,287955,2492638,529521240,17350,306528272,1532,3992,1765037514,1110,3.48,1.68,1.62,0.08,0.0,143005090,138606000,3988000,157714837,16
311059848,571544,312110043,1149676,308788161,1129935,451053,3183996,542749974,39574,303834397,26922,6006,1554523405,2084,3.69,1.81,1.74,0.09,0.0,147232525,141992000,4999000,161993220,16
310451355,441607,310023588,1141963,305817456,1125426,637799,3405299,566798060,37637,307462674,9980,4431,1461334918,2079,3.7,1.77,1.71,0.09,0.0,153413869,146128000,7006000,168150064,16
310746797,299516,208014567,1136951,205202387,1120673,338121,2801648,530114307,27807,304471974,5816,3524,1564453946,1110,3.37,1.56,1.51,0.08,0.0,144039996,141714000,2010000,158386286,16
307582217,349456,204176322,1124095,203718258,1123569,273185,2429197,549820668,18425,306048265,2353,4553,1342179047,1106,3.57,1.7,1.64,0.08,0.0,148995817,145774000,2995000,163439399,16
1121495085,1170053,616956411,1450832,618542259,1445396,961563,5020504,1015918230,41465,1098395582,41214,13943,3578295100,5465,7.02,3.54,3.43,0.16,0.0,274475073,265165000,9005000,289121293,16
568385053,27908442,302848107,503089,304776535,507785,27567200,55980862,1303608594,320020,565031656,445823,109453,2240161283,98811,9.09,4.33,4.16,0.39,0.0,351460434,199090000,152068000,366019320,16
306842437,383066,205270557,1152611,205284405,1149720,305848,2497820,536724558,20293,306797322,10499,6225,1539688271,2088,3.53,1.71,1.65,0.08,0.0,145302856,141960000,2999000,159897386,16
312401018,402191,209497748,1149601,206875062,1132373,672832,3159174,592516839,21831,305164861,7654,5340,1256801641,2089,3.81,1.83,1.75,0.09,0.0,159097628,153464000,4982000,173959618,16
416897633,20869704,358059604,564630,356663306,568159,27569080,42525951,1556584674,728191,413599303,546275,113636,2297436091,98765,10.81,5.12,4.93,0.43,0.0,419466740,220096000,199087000,434252013,16
209484016,13127717,207936290,107730,204924527,113522,7384143,26977562,359442603,167096,202848454,9679,4309,1240249713,2088,2.57,1.2,1.15,0.13,0.0,96178161,92895000,2996000,110603550,16
310741964,413816,308840282,1132039,304542314,1120160,483511,2725513,559355634,19832,305490337,9108,5081,1455283569,2093,3.61,1.74,1.68,0.09,0.0,150525767,145139000,4970000,165231210,16
220145592,340490,513098535,1303954,499431596,1282929,500300,2624996,476655864,19703,215060924,8077,3333,1699730920,1827,3.19,1.58,1.53,0.07,0.0,128862366,123467000,4978000,143518978,16
411271189,500807,206983567,1144581,205310572,1134995,489869,3008962,666594102,20335,408962347,6436,4867,1455352952,2086,4.25,2.0,1.93,0.1,0.0,180219034,173774000,5957000,194771905,16
311759703,359657,208084852,1145327,205990460,1128083,509988,3008774,587041664,22779,304244757,11400,5639,1249718109,2092,3.71,1.75,1.69,0.09,0.0,158526330,155200000,3003000,173331501,16
308303248,6542470,603591860,222122,597324541,222654,656057,15585824,395783675,16388,299336187,3048,3131,1950305228,1106,2.68,1.32,1.28,0.06,0.0,106716504,104264000,2005000,121329855,16
306274180,339575,304833684,1138586,302730203,1140899,282567,2911963,647978361,22563,305590490,2999,5099,2054455426,1106,4.1,1.93,1.87,0.1,0.0,174552465,169265000,4978000,188993635,16
306444545,361901,204971224,1129535,205050087,1129560,259639,2615396,599530578,19061,305401179,2542,4376,1339786645,1111,3.85,1.8,1.74,0.09,0.0,161852659,158563000,2991000,176274863,16
305202295,412597,205367619,1150299,205505207,1149896,348793,2576016,539142677,20261,306890830,9739,5892,1439329581,2081,3.5,1.67,1.61,0.08,0.0,146283205,139986000,5999000,161005416,16
317163795,358106,308754459,1318703,304991892,1310006,460734,3052895,580927334,21400,313850179,6579,3725,1580500849,1536,3.95,1.98,1.92,0.09,0.0,156199858,150782000,4992000,170701824,16
307558614,337111,204745284,1123425,203266512,1123864,324023,2472166,562255512,24392,307433348,2109,3805,1347896809,1103,3.59,1.69,1.63,0.09,0.0,152088712,147706000,3992000,166468320,16
311255642,398886,207764139,1147409,205956578,1127506,551064,3089768,567404543,22376,304987495,9321,5146,1251405151,2084,3.82,1.86,1.79,0.09,0.0,153631502,148233000,5007000,168059991,16
447552986,15221952,302268253,468111,300747687,460489,12999213,28822376,1158393842,220359,445162556,415617,108331,2320457744,98766,7.91,3.79,3.66,0.27,0.0,312058493,169377000,142317000,326820269,16
308541012,378753,204190580,1121814,203173881,1120568,250003,2544912,555283679,18549,307250972,2657,4163,1350696641,1110,3.55,1.68,1.63,0.08,0.0,149198136,145760000,2995000,163649722,16
347752695,15510799,403411110,567601,400810892,593042,13191206,28821662,1172829416,216104,348216636,211010,106014,1921886940,98759,8.05,3.87,3.72,0.27,0.0,318200246,155409000,162382000,332786619,16
307107813,368406,305283892,1149769,303156125,1144985,335454,2917935,666210287,19975,305674506,4630,5156,1543979827,1109,4.46,2.18,2.11,0.1,0.0,179648203,176337000,3005000,194479110,16
311374324,421147,207218574,1141843,203800259,1129397,535066,2999460,586553212,22966,305365615,8936,4548,1255935089,2088,3.72,1.74,1.68,0.09,0.0,158913438,154592000,4015000,173403121,16
309896441,404687,209097897,1144933,207013383,1126895,570609,3320786,594549613,38781,305445167,8469,5510,1254306488,2080,3.8,1.78,1.72,0.09,0.0,160778354,153397000,6972000,175597665,16
308473877,302352,206463164,1117373,204316302,1119079,298804,2529340,528786759,26684,306087154,2987,3353,1562054694,1103,3.36,1.59,1.53,0.08,0.0,143060772,138688000,3991000,157592657,16
1217437323,777483,713869710,1472380,709646875,1461564,708314,6225146,1423254179,51389,1204298497,21634,12581,4162484988,2806,9.85,4.95,4.8,0.22,0.0,383772605,379443000,4004000,398343227,16
205602027,275687,204133448,1088092,204080216,1087915,207202,1495638,304641148,13611,208932905,17042,5311,1044310045,2085,2.0,0.98,0.95,0.05,0.0,82125724,76842000,4989000,96733879,16
319228034,331114,209163683,1102489,204327788,1076439,541892,2290200,369851045,16331,308111177,10075,3305,1385373195,2086,2.48,1.21,1.17,0.06,0.0,99844975,94611000,4979000,114300614,16
308397975,312503,304490298,5213584,301371244,5214427,289322,2279756,463767330,14387,306920809,2077,3260,1163562754,1104,3.08,1.52,1.47,0.07,0.0,124834229,119558000,4981000,139547441,16
1021443708,478701,605691949,1386229,601274189,1383407,442741,4303590,993485120,30047,1014427592,6671,6416,3176207142,1542,7.06,3.64,3.53,0.15,0.0,268367955,265035000,3000000,283149536,16
1116404914,497929,507530900,1220904,505155928,1216493,417111,4537639,1080040632,31823,1111654705,9524,7112,3877512780,1304,7.36,3.66,3.54,0.16,0.0,292969626,288578000,3994000,307572032,16
307263663,307467,205340041,1118952,204558347,1118575,299222,2563583,542852107,17660,305725049,3304,4135,1550763047,1108,3.45,1.63,1.58,0.08,0.0,146333405,142067000,4001000,161019922,16
408140702,351367,202973219,1125033,201725616,1125437,292725,2636236,568061576,17772,408475457,1848,3756,1336204253,1110,3.87,1.94,1.88,0.09,0.0,153124958,150823000,1997000,167536926,16
304450992,356842,203757591,1151744,204455823,1144031,196999,2350034,551988668,18063,305256184,6995,7307,1331443390,1110,3.6,1.74,1.68,0.08,0.0,148710997,147367000,1002000,163040897,16
317743430,478787,514023932,2476481,505626523,2434335,676779,3282037,616274781,26931,313163611,14468,6032,1770656035,2518,4.1,1.99,1.92,0.1,0.0,165981138,158696000,6986000,180686961,16
309293867,370869,405183100,1464616,401043634,1458002,339753,2488980,435691995,19366,308691570,5525,3502,1568287541,1107,2.94,1.36,1.31,0.07,0.0,116923620,116622000,0,131711738,16
1218517370,778763,712101556,1470336,707109141,1470207,848157,6104717,1347116962,47483,1207876961,22791,12197,3857870417,2805,9.33,4.72,4.58,0.21,0.0,362429341,356126000,6002000,377170310,16
310380150,421287,207900627,1139688,205937898,1125102,500481,3019342,593386597,21293,305286909,7733,4725,1454614595,2087,3.96,1.95,1.89,0.09,0.0,160551368,157219000,3004000,175115216,16
311164416,450081,207792562,1149432,207125739,1129639,556972,2962771,597990951,21673,303744525,11932,6112,1346360929,2082,4.02,2.0,1.94,0.09,0.0,161925221,157442000,4011000,176354528,16
1019166427,434974,606510934,1202830,600566366,1203617,366353,4201385,993977121,31488,1008089147,4983,6116,3571422847,1264,6.87,3.48,3.38,0.15,0.0,269032191,265646000,2996000,283607365,16
2244672868,3200944,1329301339,2472306,1326916440,2468272,3280121,12758348,2443684639,100346,2237421778,148695,32704,8971659968,16730,16.64,8.19,7.93,0.4,0.0,664990482,633676000,31033000,679611849,16
305850437,390910,203013931,1129604,203561195,1131033,380552,2628245,557506259,16567,306463010,2301,4238,1338956243,1104,3.57,1.7,1.63,0.08,0.0,149493927,145003000,3972000,163985537,16
1219436369,635097,908575088,1459904,903079340,1448296,555129,5723533,1400373274,42131,1211155355,11415,9780,4477149330,1830,9.62,4.86,4.72,0.21,0.0,378609229,376122000,2000000,393242461,16
307382420,321393,304714521,1122224,302660766,1122586,290329,2617365,564900241,16830,305820246,2734,3709,1545525262,1111,3.89,1.94,1.88,0.09,0.0,152797466,151487000,1003000,167396623,16
311539796,397589,207750804,1137867,205705816,1125079,522782,2966099,589033205,21236,305080304,8679,4832,1250616656,2088,3.79,1.78,1.7,0.09,0.0,158982047,154620000,3990000,173671507,16
258679026,3011440,347337433,1960768,338391102,1880558,1415914,8751308,582906434,74232,246092760,105116,46278,1770900925,4145,3.12,1.57,1.52,0.07,0.0,112487478,104710000,4986000,126661766,16
312242881,408068,309989731,1144364,305553578,1126220,607823,3031143,573526435,20795,305238787,11386,4819,1460209947,2083,3.87,1.89,1.83,0.09,0.0,154694494,149459000,5015000,169578500,16
413218097,366213,206256009,1149076,205517658,1148870,334515,3108768,638483174,22022,406807568,4087,5321,1546182970,1105,4.07,1.91,1.85,0.1,0.0,172840621,170588000,2006000,187474598,16
1222171715,558120,710058539,1421771,703596539,1417085,563271,5010541,1202755274,40222,1206765348,11742,9105,4689541598,1828,8.27,4.02,3.89,0.18,0.0,325317248,324012000,1000000,339774259,16
1120096813,698143,716038983,1424341,713352670,1411657,643150,4976563,1065104370,39902,1101156544,30344,10468,3659495914,2810,7.44,3.73,3.61,0.17,0.0,287663512,280453000,6986000,302148998,16
1123113918,525626,611199242,1404264,607664820,1402723,532905,4652899,1105624131,36045,1102995399,15438,8251,3560382501,2167,7.62,3.79,3.67,0.17,0.0,298665149,294341000,3991000,312984292,16
311471034,403905,207297479,1143623,204176055,1130197,506428,2921384,589154994,23367,305204700,8741,5299,1253730194,2087,3.78,1.79,1.73,0.09,0.0,158718501,155372000,3007000,173372498,16
311015357,315625,407382457,1413181,402334704,1404082,320183,2861550,569977451,25935,306691078,3317,3852,1665841821,1108,3.93,1.94,1.88,0.09,0.0,154744978,153367000,1002000,169635299,16
219239148,587555,412928348,1963865,407525826,1930269,446833,3311085,718130076,41031,217256806,43167,7830,1484138800,4611,4.78,2.3,2.23,0.11,0.0,195268716,189996000,4999000,209589090,16
312957391,346418,210409353,1136178,206842321,1118691,525749,2797054,532679182,36667,305116398,12919,8649,1465520011,2088,3.43,1.63,1.57,0.08,0.0,143775734,139363000,4010000,158430795,16
310555144,598618,211571918,1161606,211949020,1143242,629557,2951604,604077196,25739,304623669,22040,9155,1258197576,4039,3.86,1.8,1.73,0.1,0.0,162804131,154459000,7972000,177571967,16
207592470,570881,209590411,1254305,208726040,1244976,714180,5370885,1260068843,54658,209634816,12180,10928,2059200746,2080,7.82,3.68,3.54,0.19,0.0,339412006,334044000,5000000,354089027,17
307373616,654927,207085393,1282492,206696465,1282990,614663,6017453,1527470886,47231,306669388,10725,11840,2044253047,2093,9.27,4.21,4.04,0.23,0.0,412153989,406982000,4999000,426847484,17
307311159,357295,205393396,1136350,204850959,1135824,253238,2705847,650409684,20810,305913143,2099,4561,2154396715,1108,4.35,2.14,2.08,0.1,0.0,176031324,171738000,3993000,190531955,17
1040600258,3287610,631625091,1371287,632051028,1364252,3550715,10783777,1739158164,84594,1039184386,92288,32748,4267026315,17711,11.77,5.76,5.57,0.31,0.0,470894678,438813000,31986000,485580218,17
308189857,443549,205849361,1164927,206077018,1164932,344027,2797623,626445163,25623,308851774,32879,17868,2052625216,4034,4.27,2.14,2.07,0.09,0.0,168870406,162519000,6019000,183625400,17
611149628,917235,412157489,2257758,412416937,2250686,813753,5316087,1232476038,49070,605458166,29733,15222,4061121355,4037,8.02,3.84,3.71,0.19,0.0,332232267,323937000,7998000,346763460,17
222812958,1046108,411517448,1373587,411810029,1374141,672555,5389402,1337875133,47782,223012246,42119,22228,3580421692,4757,8.24,3.82,3.68,0.21,0.0,360600664,350340000,10009000,375130224,17
305655623,534526,206880227,1266614,206902304,1272099,373687,5355889,1414479610,38901,306087965,3561,9432,1841321914,1109,8.3,3.71,3.56,0.21,0.0,382059041,377722000,3997000,396739370,17
305795854,495004,205923852,1281664,205809177,1287242,386364,5658776,1462361979,42566,305282795,7819,10266,1835832397,1109,8.61,3.78,3.63,0.22,0.0,395418587,391286000,3992000,410084503,17
245633463,3120544,333362600,1562354,333155724,1555723,3603158,9776195,1423638209,73431,249581663,126414,258727,2399920939,17704,8.68,3.92,3.78,0.24,0.0,384093236,344918000,38990000,398687772,17
1218181385,798228,612254124,1488164,610437056,1480622,862990,6423661,1417572169,52631,1201202393,25479,14633,4066985816,2954,9.77,4.88,4.73,0.22,0.0,383478717,377263000,6004000,398055223,17
305655936,577825,309019768,1283780,308950157,1281390,347090,5534069,1435744491,46610,305925911,4972,11471,2854844749,1109,9.07,4.26,4.11,0.21,0.0,386993272,382765000,3997000,401813636,17
307751105,713271,207440699,1315447,207041984,1307860,595627,6204130,1534189741,48305,306774438,13226,13472,1843515277,2088,9.05,3.97,3.8,0.23,0.0,415026978,408765000,5996000,429731482,17
324914482,7918920,294857635,3190749,293963293,3258852,1966520,21937561,1817265346,171544,332612302,337139,193168,2452519914,7946,8.81,4.24,4.1,0.2,0.0,341165035,334948000,5999000,355349528,17
712258565,501709,206103105,1187505,204951436,1180336,401007,3929730,812361605,30454,708647354,5209,7882,2556990756,1117,5.64,2.87,2.78,0.12,0.0,216944604,213585000,2994000,231766818,17
305257474,531366,205580037,1264743,205510455,1268422,341320,5428686,1414729253,41033,305790326,5444,10091,1837323082,1105,8.36,3.7,3.54,0.21,0.0,383427612,380207000,3001000,397848968,17
213578633,1264802,213565035,1492888,211640508,1457191,713149,9390884,2433721861,88461,216330899,30280,22247,3883148532,2932,14.77,6.63,6.38,0.37,0.0,660188093,656000000,4000000,674776239,17
308206754,766650,209010974,1313477,208836199,1316117,387329,5648002,1540428407,50939,308551453,35185,16400,2048545536,4036,9.18,4.16,3.99,0.23,0.0,414846274,408423000,5991000,429449731,17
307801870,726752,207764247,1301075,207582771,1302984,330660,5528441,1536354424,50413,308041534,34307,24075,2042594010,4040,9.41,4.3,4.12,0.23,0.0,414829353,407556000,6992000,429337057,17
307915534,750199,207940764,1320425,208006928,1324504,400198,5977573,1547486127,51438,308003291,36492,14817,1942853731,4035,9.2,4.12,3.96,0.23,0.0,417198776,407813000,8995000,431666352,17
307273750,720774,206778591,1291251,206724034,1287719,562171,6091081,1533165333,48458,307007158,10955,11096,2044168184,2086,9.4,4.32,4.16,0.23,0.0,414075562,411820000,2003000,428727045,17
307264336,603852,206985563,1293003,206785072,1293457,598653,6054491,1576958703,47846,306779000,11674,14657,1840020207,2090,9.2,4.05,3.88,0.24,0.0,425738671,420408000,5004000,440280105,17
305963196,580363,206143355,1285741,205973728,1285967,432040,5773566,1465592857,42505,305641302,5089,11187,2039693401,1110,8.56,3.8,3.65,0.22,0.0,395192412,390794000,3997000,409713743,17
305821717,547616,206211369,1275079,206249090,1276566,245099,5194698,1419504922,42363,305794430,18791,12404,1832790880,2085,8.5,3.82,3.65,0.21,0.0,382751504,379442000,3003000,397356309,17
1114956003,752897,808003366,1527336,804735868,1528254,680070,7240783,1817746006,50438,1112144772,12566,11954,4262853549,1834,12.35,6.17,5.98,0.27,0.0,489396349,483029000,6000000,503850362,17
308650048,958086,209685020,1478137,211158327,1486124,810863,10323388,2769735141,91477,312223052,15397,24115,3961774566,2083,16.19,7.14,6.84,0.42,0.0,745549557,740331000,5002000,760253870,17
305975938,638984,211262303,1404760,215034142,1413387,521458,7015717,1445745719,50173,310447166,10584,10716,2043195051,1112,8.83,4.04,3.88,0.21,0.0,381599249,378281000,3002000,396134512,17
307536311,660656,208838618,1302975,208967545,1294938,605409,6195936,1533805366,62550,308054292,11199,11669,2045871769,2087,9.28,4.19,4.03,0.23,0.0,415118169,411958000,3006000,429519260,17
307229641,583398,206126564,1264641,205653199,1269167,402393,5353349,1426775893,39972,307640396,3643,9660,1841641273,1106,8.35,3.65,3.5,0.21,0.0,383152232,378808000,3997000,397795393,17
305699815,557575,205778130,1264158,205653829,1263890,341695,5253095,1410211423,38588,305323961,2855,9463,1836849965,1106,8.36,3.65,3.49,0.21,0.0,381691352,378321000,3002000,396334779,17
307292219,661552,207008419,1286864,207160084,1284903,603703,6006145,1531310120,48171,306893723,13358,12293,1840492846,2086,9.03,3.97,3.8,0.23,0.0,413377858,409908000,3006000,427962248,17
1014108064,747888,705283837,1460901,704254777,1467246,444781,5480792,1380183986,43040,1009322811,19914,13696,4366217588,3153,9.34,4.62,4.48,0.21,0.0,372171359,365942000,5999000,386734275,17
307801508,677218,208803089,1288601,208897777,1282325,591881,6020102,1539381975,61678,308262408,13855,12584,1947368175,2082,9.12,4.04,3.87,0.23,0.0,415340287,411005000,4000000,430026498,17
308121559,762455,207942015,1313973,208009823,1312610,408708,5915211,1550445133,51617,308110651,35756,24674,1941664688,4032,9.28,4.14,3.98,0.23,0.0,418022561,412663000,4995000,432863311,17
307597553,663187,206608544,1298087,207014050,1294397,601334,6286528,1528077763,61818,307987232,15545,16446,2042108783,2085,9.09,4.0,3.83,0.23,0.0,413559417,409321000,4003000,428226847,17
314075643,508700,407352809,1449156,404910002,1444853,466262,4774047,1146796756,36225,312993145,6348,7522,2063515919,1541,7.03,3.2,3.07,0.17,0.0,309881438,303617000,5992000,324427144,17
205997248,539653,207120575,1258481,207044392,1257710,285138,5173194,1335248972,44869,206510438,5494,10004,2042033793,1110,7.93,3.5,3.35,0.2,0.0,360253337,356881000,2999000,374696594,17
305944462,509439,207312509,1264966,207313913,1263985,316615,5440556,1414634584,47169,305647553,6060,10101,1837578714,1104,8.34,3.67,3.52,0.21,0.0,382763861,379520000,3004000,397299743,17
408449161,582778,206294986,1277951,206087771,1281352,417975,5674048,1422770142,41543,407532387,5399,10734,1837326962,1106,8.43,3.73,3.58,0.21,0.0,384696214,380366000,3993000,399181765,17
308041727,750765,208069954,1323643,208000398,1318320,320806,5710636,1543691185,49790,307976048,36424,16279,1942238868,4035,9.24,4.06,3.9,0.23,0.0,416667836,415390000,1000000,431000906,17
306118911,597940,206437589,1280351,206738081,1284400,276427,5412316,1415326311,43493,306300822,20415,17241,2035108873,2085,8.5,3.73,3.58,0.21,0.0,382575899,377186000,4989000,397080466,17
209186411,750785,209163989,1256335,209044049,1254932,753500,5260677,1252080688,47848,208964492,30537,12501,1953296592,4039,7.54,3.36,3.23,0.19,0.0,337995558,331743000,5995000,352607237,17
307542861,672527,207341047,1302507,207135584,1294660,692730,6207617,1538233684,49135,307362208,14057,12554,2043522008,2087,9.07,3.98,3.81,0.23,0.0,414714197,410428000,4004000,429412096,17
305770497,584626,206321795,1283140,206389569,1290711,272614,5538788,1465741775,45167,305720248,20367,13789,2034665629,2084,9.16,4.22,4.06,0.22,0.0,396439028,389210000,7003000,410939394,17
311041736,434895,207533064,1144302,204819797,1126506,450818,2923802,613687525,24086,307429046,10133,6667,2068540941,2083,4.01,1.93,1.87,0.09,0.0,165219424,160957000,3998000,179821925,17
307249935,677377,207983399,1297800,207526715,1296120,529410,6079087,1539190514,49834,306914603,13693,11480,1844100165,2085,9.07,3.98,3.83,0.23,0.0,415187452,410911000,3999000,429948892,17
308381361,764888,208127915,1306261,207900881,1307908,333189,5886695,1546609873,52211,308197456,36824,17474,1843412623,4036,9.18,4.04,3.86,0.23,0.0,417957275,413645000,3996000,432274893,17
1016582530,1312961,513359285,1521869,513571076,1521372,811814,7195141,1702122452,53359,1016565226,31917,17628,4264081676,4715,11.31,5.52,5.33,0.26,0.0,459384445,448052000,11001000,474144914,17
308754385,800005,207930977,1305526,207810079,1309764,373946,5649770,1540803991,43457,309075260,22059,17076,1846181337,2087,9.63,4.0,3.83,0.23,0.0,416502037,414274000,2001000,430874368,17
305992712,550313,207406191,1270629,207555067,1276556,430567,5672205,1418231629,45701,306226784,4878,9515,2043695220,1108,8.45,3.73,3.57,0.21,0.0,382410960,379926000,1999000,397030564,17
307737263,746699,207762257,1304951,207855767,1309927,375380,5818338,1544757342,51559,307836667,36237,24440,1941106597,4035,9.27,4.07,3.9,0.23,0.0,418454756,411165000,7002000,433101402,17
405018511,548138,434696481,1274664,430015225,1261776,719298,4154373,832530373,34468,400064744,13327,7176,2683526691,2518,5.64,2.77,2.68,0.13,0.0,224775251,219549000,4989000,239396457,17
213971816,537324,409226342,1426723,406700256,1421738,581088,5096248,1189996860,37016,213918550,12198,8766,2976807167,1686,7.74,3.7,3.58,0.18,0.0,320954289,317667000,3006000,335529160,17
407807252,557742,205803435,1275677,205749840,1272438,356368,5500038,1422610383,40508,407745897,4951,10795,2037714804,1112,8.85,4.07,3.92,0.21,0.0,384508905,381253000,3001000,399098832,17
306043930,685230,205621269,1320140,205699191,1319726,298187,6138637,1628649175,50077,306316713,21288,14711,2233280732,2083,9.8,4.37,4.2,0.24,0.0,440111640,433644000,5995000,454537167,17
212554278,345081,208191946,1104747,202505174,1074700,534695,2299654,361063066,18595,206527985,10764,3582,862222867,2085,2.48,1.23,1.19,0.06,0.0,97328796,92932000,4040000,111866224,17
311589363,541214,305898383,1168404,304244773,1162815,345062,3326564,685922539,28493,313016660,29625,11960,2262514218,2916,4.62,2.28,2.21,0.1,0.0,181130392,175788000,5022000,195773109,17
307782751,653029,207057168,1280538,206757441,1274746,568941,5943598,1529200473,45809,306983163,12403,11965,2043595912,2088,9.13,4.0,3.84,0.23,0.0,413506712,409131000,4001000,428203978,17
206760032,459489,205451118,1215404,204996322,1217464,298528,4240763,1127312809,30702,206964289,4331,8231,1842502251,1107,6.8,3.02,2.89,0.17,0.0,304324162,300959000,2999000,318934439,17
307908054,733010,208066203,1311702,208152960,1316617,491074,5983030,1547689894,49299,307904947,36606,14942,1943636049,4035,9.24,4.12,3.96,0.23,0.0,418739763,414477000,4004000,433154441,17
307868965,736696,207870827,1304761,207815854,1296476,283706,5678288,1544484123,49805,308363943,37059,17728,2043109413,4033,9.31,4.17,4.01,0.23,0.0,416357260,411095000,5001000,430829894,17
211018382,212200,205750728,1073395,199806799,1065292,272977,1672524,273524900,12569,204795261,2537,1970,1182774732,1111,1.83,0.87,0.84,0.04,0.0,74078536,72794000,1011000,88719016,17
306388148,353603,204456834,1145464,203534645,1142374,265632,2786431,651856339,21593,305426593,3184,5178,1341096324,1109,4.07,1.88,1.8,0.1,0.0,176372658,175145000,1000000,190632274,17
408480219,505676,206081144,1272367,205671435,1276960,366445,5471600,1420747123,40558,407846556,6342,10372,1838153259,1107,8.48,3.77,3.61,0.21,0.0,383178334,380870000,2004000,397970792,17
308155109,774533,207947067,1315426,208043372,1320739,413904,5780911,1543159248,51532,308533665,36513,17128,1845284659,4037,9.2,4.11,3.94,0.23,0.0,416606801,414284000,1996000,431157148,17
308233162,674254,207864894,1307718,207868681,1305734,328758,5614946,1536961109,49920,307989346,34886,15909,1842982384,4040,9.17,4.05,3.88,0.23,0.0,416310725,408943000,6999000,430928949,17
307737235,698791,207462980,1302975,207252874,1297750,743908,6065623,1537556081,45313,306428227,13482,13641,1943864435,2086,9.08,3.94,3.77,0.24,0.0,418840764,415518000,3003000,433510335,17
308467035,728602,208126324,1321472,208256746,1322013,526794,6025183,1545724082,51035,307902349,35445,14672,2044096113,4034,9.26,4.13,3.96,0.23,0.0,419148873,415639000,2997000,433941596,17
1115809211,608803,606536155,1468983,603684516,1468937,492695,5808681,1489285011,43040,1107811234,17816,10205,4362468112,1688,10.03,4.92,4.77,0.22,0.0,402214402,398880000,2999000,416626805,17
306891568,631980,131440308,286860,132189393,297871,608367,6124080,1517722761,47465,306648163,12623,11098,1644815366,2086,8.86,3.82,3.66,0.23,0.0,410566559,403252000,7004000,425129754,17
307963741,473713,206548568,1152266,206710980,1149814,311849,2762163,626801032,25716,310190882,33219,11291,2059281803,4036,4.29,2.13,2.07,0.09,0.0,168801027,162495000,5981000,183428320,17
316931570,690343,514680224,1446322,511145923,1433545,839374,5792911,1270834622,44095,315640142,17507,11082,2672529262,2662,8.0,3.71,3.57,0.2,0.0,341474282,335147000,6002000,356230893,17
408201096,557375,206389226,1263458,207019343,1267159,304149,5381125,1425171569,39427,407993938,5757,10789,2040831743,1105,8.5,3.76,3.61,0.21,0.0,385690302,382530000,2996000,399957504,17
305347204,527056,205709909,1267749,205561371,1268307,321461,5162367,1412425293,38559,305292455,3265,9496,2040059869,1111,8.43,3.72,3.57,0.21,0.0,380909729,376639000,3996000,395653304,17
305999382,577333,205945080,1280906,205920736,1280755,395471,5552759,1417532365,40914,306119372,5627,10731,1839200622,1106,8.49,3.69,3.54,0.21,0.0,382874845,378484000,3994000,397738399,17
1216083009,826337,912000577,1484642,909150911,1483170,675036,6635327,1585667635,53542,1204464983,18589,13252,5860899870,2806,10.81,5.34,5.17,0.24,0.0,428277946,422027000,6000000,442617628,17
307755897,783587,308916006,38246041,308239343,38132123,575521,7296650,1900858268,56526,307771939,13625,13921,1541686633,2086,12.56,6.0,5.8,0.29,0.0,513436157,509176000,4001000,527736256,17
308785139,672750,207240864,1288854,207701750,1285586,519101,6106697,1534112823,44942,308334298,14260,12565,1845952666,2082,9.11,3.98,3.82,0.23,0.0,413164823,407926000,4999000,427644823,17
307250795,661920,207116336,1293233,206555238,1284604,487055,5977823,1536509185,48522,306644222,13174,14537,1942644867,2088,9.12,4.05,3.89,0.23,0.0,414293271,408973000,4999000,429039399,17
1276403481,4343853,648802826,2763396,646886055,2855835,1718633,17591299,1502258746,75176,1271712692,118918,39380,4791772460,5552,9.77,4.63,4.49,0.21,0.0,357747929,350566000,6991000,371915854,17
207968781,6574850,203634031,110441,201060165,108899,633768,15323148,347532267,19793,201700153,17938,6627,1440920993,2084,2.4,1.19,1.14,0.06,0.0,93944894,91686000,2015000,108287264,18
416327073,26725988,353371555,597806,349639672,611425,33034645,47907978,1474585451,741989,420743369,373642,310716,2732057247,98766,10.29,4.86,4.66,0.44,0.0,396329397,201009000,195009000,410916374,18
210088607,13053384,206673347,149372,204796972,150413,8156857,28413044,567879222,211655,206131397,44576,17284,1874486246,4038,4.01,1.87,1.79,0.17,0.0,152889137,149626000,3012000,167391112,18
582221359,28294327,307176083,554110,305099876,554927,27951026,55035034,1478157237,317797,569368871,312218,312914,2894551893,99786,10.18,4.8,4.61,0.42,0.0,399484911,242991000,155994000,414141525,18
210581341,13049859,206548068,148363,204578419,148879,8076338,29103577,567753883,212014,205949679,42927,17601,1887664710,4037,3.95,1.82,1.75,0.17,0.0,153764922,147456000,6018000,168139414,18
575723732,28775752,307349883,548091,307713921,544775,28107000,56421172,1481603285,318063,563449967,366652,315287,2649473579,99784,10.32,4.92,4.73,0.42,0.0,400207287,248911000,150946000,414722785,18
411492560,21013424,356863700,596344,357697750,602161,27198560,43423915,1629423939,736965,412854681,354061,312047,3700699405,98765,11.26,5.27,5.06,0.44,0.0,440266175,234977000,204980000,454796213,18
108992413,6692084,29235182,76004,29678923,73406,393245,12718300,181459246,16282,109234910,2368,1861,381344742,1107,1.29,0.64,0.63,0.03,0.0,49012698,44743000,3977000,63538347,18
411645771,6778411,206541674,225482,204091000,228357,804928,17193759,986135996,31089,401872230,4264,7207,1440807782,1110,6.47,3.12,3.01,0.16,0.0,265832510,260578000,4991000,280399666,18
344887778,15537513,299977135,407540,299530174,400593,13057153,27967317,1071323537,217311,347538750,227530,305105,2016899788,98765,7.38,3.5,3.38,0.26,0.0,288911397,151761000,136785000,303543972,18
445907685,15058959,500047409,659684,499191275,666365,13299904,32201291,2006951990,210869,444963061,263820,306533,4983009462,97789,13.57,6.46,6.24,0.41,0.0,543753618,379626000,163838000,558421825,18
580342149,28960578,307031157,542023,305610957,536614,27163280,54865369,1475975401,412242,567202879,265282,313050,2576134085,99784,10.35,4.85,4.66,0.42,0.0,399163712,242908000,155941000,413737982,18
210669380,6638316,206710264,97494,202404548,96194,416490,15051661,289123852,13759,201187193,2765,2558,1248278480,1108,2.0,0.97,0.94,0.05,0.0,78413058,76232000,1980000,92882677,18
212051631,13436368,104307200,146669,103255640,150405,7860252,29337403,524743517,229766,210103871,9923,8970,1581802771,2081,3.65,1.67,1.61,0.16,0.0,142145934,137740000,3992000,156791180,18
210615088,13045907,206297719,155365,203650662,156518,8294224,29626439,624108070,221875,206507396,46167,18454,1869277790,4040,4.49,2.13,2.06,0.18,0.0,169107834,163749000,5023000,184015683,18
208958982,13122221,104412359,171844,103218436,175994,8316857,30329873,716612110,216462,206882657,12828,9377,2073968257,2094,4.97,2.27,2.17,0.2,0.0,192901348,185594000,6984000,207524825,18
202708981,6439367,198430758,136604,198743321,136719,494406,16360295,529507997,18853,208357358,1778,3626,1941919174,1108,3.52,1.7,1.65,0.08,0.0,142475994,140219000,2003000,157024256,18
309227790,19645109,280839979,1793804,277095643,1788698,15119509,41940225,1033144026,300147,303977157,241589,103974,2287847313,5316,5.2,2.57,2.49,0.22,0.0,159424569,153224000,6008000,175397765,18
212191001,6671446,103631444,104182,103360548,98071,520951,14807340,268948296,18475,202163827,14191,4997,953412995,2094,1.85,0.91,0.88,0.05,0.0,72683422,68391000,3964000,87286862,18
212024467,6691111,105029288,92954,103799442,96354,963825,14545913,274457264,19943,199127995,13729,5774,950824582,2084,1.9,0.93,0.89,0.05,0.0,73295642,70754000,1993000,87819188,18
517113646,21126564,564138750,591380,563765184,591766,26869529,42637866,1551401218,810758,508678317,469823,307372,3574651881,98761,10.82,5.08,4.89,0.43,0.0,418482538,225050000,193043000,432999222,18
206265654,13032213,205837557,135652,205254523,150320,8180568,29252990,536685868,206745,205483466,12245,7588,1743741110,2086,3.76,1.73,1.66,0.16,0.0,144347209,139919000,3997000,158759811,18
348036690,15176618,303819660,475540,302608283,476982,13720256,29024489,1302472784,226095,342643477,439356,303965,2712858505,98766,8.87,4.19,4.03,0.3,0.0,351144438,201814000,148863000,365678096,18
210697977,13234944,108551844,152361,110629697,149779,9072225,30261716,544154995,216673,206570620,18982,20425,1519292342,4135,3.77,1.7,1.63,0.17,0.0,150404305,148050000,2014000,165091005,18
571436764,28498534,302293753,684608,303641847,675887,28130438,59356271,2155544746,345514,575981032,336014,316770,5273243836,99787,14.91,6.95,6.69,0.55,0.0,583028478,426763000,155913000,597675905,18
418840124,13735354,314210823,47520082,307586038,47579143,9464676,34093915,1897315404,153125,407615253,20741,21995,1513192317,3065,12.84,6.01,5.8,0.4,0.0,512597749,507144000,5001000,527350197,18
209712541,13168853,207769595,181188,206448273,185699,8819480,29709483,734668530,222139,205106314,42380,18128,1851839433,4035,5.17,2.46,2.38,0.2,0.0,195786159,187051000,7959000,210519051,18
211009766,13075774,207014720,155698,205115070,157490,8416010,28586093,568030010,210452,205273611,43126,17947,1880807784,4038,4.0,1.84,1.76,0.17,0.0,153583194,146290000,6966000,168337345,18
202883276,6492892,201452502,124845,202161962,121622,627715,16308917,444301786,24425,204620367,5196,3722,1725297779,1104,3.0,1.44,1.39,0.07,0.0,120252712,116002000,4000000,134488037,18
208756992,13001619,202887617,134237,198743508,144002,7765424,29474704,538906600,194863,209776077,9259,6555,1775628711,2088,3.75,1.74,1.67,0.16,0.0,144979445,138666000,5985000,159895813,18
208840152,12994484,203757607,183604,199693711,186476,8956876,29087004,559598954,185571,209452580,10356,9161,1658893246,2086,3.99,1.82,1.74,0.18,0.0,150263774,146865000,2997000,164965341,18
578212994,28753427,307923630,524336,307023239,521637,27754007,55177780,1471777144,316983,561992795,304932,314648,2662994185,99783,10.18,4.74,4.56,0.42,0.0,399513830,246104000,153064000,414167148,18
208081728,13148345,208110499,218952,207224060,224452,8987184,30503259,947867053,227642,202928166,43963,19638,2743610925,4041,6.65,3.18,3.08,0.24,0.0,256442951,251040000,5000000,270957619,18
516422387,20572080,561347297,612381,556736751,615589,27153097,42669493,1668794699,782651,507970077,354168,309650,3604808609,98761,11.93,5.63,5.43,0.45,0.0,451018742,266752000,183829000,465555569,18
545375888,15685864,401032402,620875,400616376,625159,13643204,30686798,1757523925,233310,546655926,459983,402310,4382209167,98766,11.8,5.59,5.4,0.37,0.0,474059246,326742000,146884000,488445435,18
234926723,19549511,205860322,154240,202827318,164079,13602110,41197038,637459774,222915,233698509,9334,8786,1911288886,2084,4.57,2.09,2.01,0.21,0.0,172565610,169309000,3005000,187088590,18
208981367,13010568,202982267,135404,199259561,139981,7943982,29373904,539250984,196236,209990647,9101,7460,1767769645,2086,3.81,1.77,1.7,0.17,0.0,145179653,140850000,3995000,159568281,18
257791651,38254863,209731404,332222,209587241,326260,40943270,83545955,1598225104,445123,259307419,30576,25443,4032017368,4040,11.06,4.95,4.72,0.56,0.0,430288395,423878000,5998000,445004670,18
684905875,28516873,413842504,568510,405836148,565601,27885170,55966472,1566357291,320391,670666091,416136,312548,3410429264,99786,10.87,5.1,4.91,0.43,0.0,423068068,267803000,154886000,438140531,18
309237468,13097854,302473111,212215,297029203,210344,8309507,31423333,968091380,204761,304798331,7049,9680,3266666707,2085,6.59,3.04,2.93,0.24,0.0,261125914,255799000,4996000,275590890,18
210795228,13086337,207200821,154954,204878823,154843,8263404,29181158,572148387,213134,206236825,42565,17879,1884778838,4036,3.98,1.84,1.77,0.17,0.0,153593057,145238000,8013000,168407749,18
206014351,6695894,202418974,162984,202352853,156438,943394,16474385,461387826,24270,210735431,30393,9307,1731982524,2079,3.22,1.46,1.4,0.08,0.0,124673852,118348000,6017000,138990191,18
204945531,13094689,205081983,262876,205430097,263758,8810773,32055664,1196898151,227949,205009625,8369,11626,3837128632,2083,8.22,3.85,3.71,0.28,0.0,323482705,318143000,5002000,338155510,18
205835196,7065075,205436678,468090,205805550,476058,831242,22775288,2342172587,70469,206619575,11412,18727,1727221182,1106,15.11,7.13,6.89,0.36,0.0,634551243,632143000,2000000,649030193,18
310530083,12965056,202587078,156520,201109856,146389,8496258,30041367,604733470,210251,308801671,9579,9054,1860417344,2088,4.22,1.95,1.88,0.18,0.0,163471189,158130000,5004000,177899125,18
209371422,13039280,204530494,134352,199481213,137234,8175267,29399722,539614894,195230,208991425,9939,8374,1766815482,2086,3.8,1.75,1.69,0.17,0.0,146328159,142993000,2999000,160966772,18
205393381,12935610,204411537,153736,204292979,154816,8618850,30167115,565138702,197719,204547816,11981,7990,1831145800,2086,3.95,1.84,1.77,0.17,0.0,151731402,147383000,4010000,166646654,18
205233044,6561526,204314137,126162,204716160,122821,646042,15829772,449387176,27236,201987087,21529,9553,1732637053,2084,3.01,1.47,1.42,0.08,0.0,120919053,114628000,5980000,135600860,18
209883120,13093780,203988111,137077,200176898,146705,7778173,29458805,538853597,208824,211427817,22966,7145,1789370359,2085,3.79,1.77,1.7,0.16,0.0,144610419,138177000,6007000,159427056,18
305846068,13087351,204633035,264518,204884658,265948,9340121,33074297,1255368647,230074,306282896,10785,11363,3952144190,2087,8.42,3.82,3.68,0.3,0.0,339123253,333741000,4996000,353941157,18
515125372,26823688,458100520,672022,459128594,665477,33532403,51084822,2032244580,896484,509492980,449528,316758,2388083756,98759,14.01,6.51,6.26,0.56,0.0,548614493,357251000,191134000,563192568,18
209974682,13132644,204877910,138876,199905563,143294,7897806,29274470,536553861,196322,208664910,14729,9788,1769887805,2087,3.77,1.75,1.68,0.17,0.0,145468252,141085000,4002000,159985523,18
206299714,6589554,104257072,112201,103736730,112599,781569,15444830,354533653,14060,201103785,2623,3269,1230224623,1109,2.44,1.2,1.15,0.06,0.0,95320509,92059000,3001000,109946102,18
410238730,6608795,205800197,143111,203828687,145261,1134995,16280211,529602876,20474,398882562,2500,3620,1942120816,1109,3.55,1.7,1.64,0.09,0.0,142757706,141391000,1002000,157164911,18
203120850,6483506,201417360,127137,201095471,121086,923483,15896769,450691093,21563,205088604,16340,6779,1716768906,2082,3.07,1.48,1.43,0.08,0.0,121913214,116525000,4979000,136540388,18
208953778,13026883,203172791,133725,199095166,141564,7896971,28638637,537697693,195282,209716386,6764,6616,1769297222,2088,3.75,1.75,1.68,0.17,0.0,145882865,141556000,4015000,160513176,18
207282834,6531747,202275638,103064,202083675,103229,670059,15384240,317951071,15218,202990478,3069,2623,1356011912,1109,2.22,1.09,1.05,0.05,0.0,86031208,84783000,1009000,100475415,18
208500366,12954164,203420875,146740,199277230,141049,7894625,28920556,556033932,183753,208415521,5846,6911,1657626564,2086,3.88,1.8,1.73,0.17,0.0,149638408,146265000,3005000,164130473,18
202963138,6460765,100821623,131376,101048897,131227,795309,15585301,469537167,18305,206088705,3588,3503,1620121978,1105,3.14,1.5,1.45,0.08,0.0,127303428,123896000,2997000,141854861,18
212349105,13181395,105664834,135041,103687600,141070,7811961,28894416,532298330,219166,204999263,47093,17802,1580669857,4039,3.76,1.75,1.67,0.16,0.0,143826272,140483000,3010000,158522924,18
564487612,29234812,304619276,611235,307332801,615305,27784643,58988482,1882798121,333759,565814910,372302,314895,4212732549,98805,12.86,5.96,5.74,0.5,0.0,508253823,345880000,161943000,523102688,18
203736391,6389541,99360202,112708,101395997,111494,560911,15296467,393147084,15424,206564528,1973,3543,1438622951,1108,2.67,1.3,1.26,0.07,0.0,106345181,105092000,1000000,120958273,18
306348030,6522400,200952294,142913,199410276,154363,766083,15846605,536048921,20546,308290663,3306,4360,1841823346,1105,3.61,1.74,1.68,0.09,0.0,144307096,139968000,3999000,158913327,18
209772990,13037930,206312064,154980,204309940,155466,8205345,28403817,569833503,213012,207128274,39252,16077,1878875429,4036,3.98,1.84,1.77,0.17,0.0,153771997,146481000,6975000,168450907,18
212160439,6738545,106671227,91150,104173501,94259,642504,14144577,269999441,21455,197111187,19528,8821,1044677661,2082,1.91,0.94,0.91,0.05,0.0,73232373,69043000,4002000,87621055,18
580040012,28411350,307161196,542285,305718481,543456,27187557,55834658,1480634151,322926,567860462,461413,313315,2674403821,99789,10.32,4.8,4.6,0.42,0.0,398915825,229231000,169170000,413491498,18
208728558,13067067,104016282,156901,103754360,161896,7832026,30047502,611928279,228331,209123614,8741,8885,1661430123,2079,4.38,2.07,1.99,0.18,0.0,165218439,162742000,2009000,179886122,18
211387904,13065298,207055407,149602,205056871,150093,8379952,29310982,567188915,210589,204486469,47176,18496,1881552311,4035,3.98,1.85,1.78,0.17,0.0,153585364,149250000,4006000,168364354,18
572671965,27983090,306879608,620100,304859708,613063,28417225,58963035,1923290016,330415,569017353,274656,311821,4412174168,98806,13.16,6.04,5.79,0.51,0.0,519223374,361604000,157262000,533927151,18
209583903,13031446,204580436,148240,199478844,148290,8568382,29520100,545971180,198460,209719847,13172,7808,1772215126,2083,3.81,1.76,1.69,0.17,0.0,146927320,143600000,3012000,161756775,18
206929448,12907816,104616724,134595,104572658,139722,8385346,29572854,539895988,224481,205884978,41646,19515,1534073389,4041,3.75,1.74,1.68,0.17,0.0,145175029,140868000,3996000,159834185,18
207880335,12962951,202312048,162808,200180590,163653,8318733,29376563,615796850,216470,208595623,12259,7739,1754407352,2089,4.45,2.13,2.05,0.18,0.0,166649371,161309000,5009000,181264155,18
212652773,13202584,105870843,140715,104198518,154572,8382830,29183142,540217532,219940,206114259,47125,18620,1574603131,4031,3.77,1.76,1.69,0.17,0.0,144600930,139265000,4973000,159451712,18
205640534,12989465,103991580,138848,104292957,142170,8265501,29724358,527702091,213479,203401185,10365,7132,1535252756,2086,3.71,1.73,1.66,0.16,0.0,142439361,138113000,4003000,156754953,18
208338315,13003637,203689093,133848,199146457,137360,8281007,28845637,543795101,197036,209432533,9966,7707,1764989522,2082,3.79,1.74,1.67,0.17,0.0,146727480,141442000,4980000,161380793,18
208520581,13040620,203133655,147910,199062381,149951,8148596,29708098,545822200,197658,210877580,9264,7116,1769264103,2086,3.88,1.73,1.67,0.17,0.0,146012742,141524000,3986000,160767861,18
208114431,12972066,203601703,137876,199184793,140281,8090119,28688653,542279677,196140,209508856,7864,7802,1764315368,2090,3.8,1.74,1.67,0.17,0.0,146981319,141560000,4984000,161650797,18
570354093,28233644,305558767,573686,307303766,562197,28197279,57468996,1488894385,320669,564949425,428814,317124,2623242884,99785,10.3,4.85,4.66,0.43,0.0,402729646,250179000,152108000,417503779,18
576255988,29076125,305015947,537351,303786332,547276,27263923,57308661,1461674468,324365,571243177,393624,318091,2756695677,99783,10.1,4.68,4.49,0.42,0.0,396919443,231759000,164828000,411679114,18
208882849,13037454,203230373,140718,198928055,147135,8340290,29495273,541305562,197527,209789809,11876,7569,1770575561,2087,3.76,1.74,1.67,0.17,0.0,145571283,139102000,6004000,160105777,18
809829684,13991324,426655483,2949090,422541228,2885115,5052879,18482625,1058826679,113791,790009856,55854,81300,2938706615,24770,7.44,3.62,3.5,0.21,0.0,285742667,241513000,43911000,300464253,19
914230568,30700751,376519991,2340162,378728463,2358035,8901127,39266937,1305255986,730733,926305743,167249,136001,2800968043,41094,8.91,4.16,4.0,0.3,0.0,352383494,274081000,78023000,367062893,19
238758448,9352182,151512416,1109180,148617607,1038248,7323891,11443902,542492464,274047,231682148,126967,128284,852123022,40942,3.69,1.73,1.67,0.14,0.0,147084167,69857000,76843000,161572820,19
194750732,4808015,118291191,995889,115235565,953509,3797284,6513881,389852649,138768,188306777,100929,61675,676034220,20539,2.68,1.28,1.24,0.09,0.0,105145332,65915000,38950000,119969348,19
133275128,6698792,64267607,924481,63793951,974822,3955944,6923445,356080328,63067,138297105,92200,80073,504266366,20593,2.35,1.07,1.04,0.09,0.0,96402220,64036000,32018000,110784629,19
173384990,9568789,82182004,246324,82566368,246391,7617778,11712680,554810651,269243,171528979,125286,125771,723948511,40943,3.72,1.72,1.65,0.14,0.0,150007919,74361000,75366000,164335492,19
258568782,6683688,167193031,3257518,167846424,3226764,4011739,7506497,523804922,75108,265355996,115767,78428,860506059,20591,3.62,1.7,1.64,0.12,0.0,142192768,107917000,33974000,156484185,19
132450351,6947093,62929106,972903,64008500,946278,3826575,6803164,336752921,57648,133710278,54879,69437,474607092,20590,2.27,1.04,1.0,0.08,0.0,90945544,51800000,38850000,105658201,19
795644286,22454707,437256013,2325378,436849238,2305159,8747618,26938798,1167882059,154660,795718039,211244,137187,2850928362,41173,8.11,3.85,3.72,0.27,0.0,316353027,238003000,78001000,330954721,19
235141285,9005075,150349660,1080456,148990840,1085100,7734060,11866960,573155364,297244,230963515,210581,126864,825743933,40960,4.01,1.91,1.83,0.14,0.0,154435575,75059000,79062000,169169051,19
132119394,4750630,74721810,926366,73818072,897536,3726885,6319841,367052675,148609,130509588,62112,61432,581427134,20530,2.47,1.14,1.1,0.09,0.0,99853304,58735000,40815000,114519128,19
134608201,6782602,63901422,936035,64796109,921412,3950615,6936364,329406053,49666,135300245,118422,69855,501474100,20590,2.3,1.09,1.05,0.08,0.0,88826915,50701000,37777000,103535876,19
742026534,14903270,364761988,3102553,365450796,3075416,9738248,23152823,1323619127,190021,748096438,211134,160790,2662448390,50082,9.34,4.43,4.27,0.3,0.0,357910697,270676000,86896000,372484189,19
142953025,4699737,69953057,148579,71409260,159108,4400483,6926097,376310337,43124,133636463,88217,81402,647470961,24556,2.51,1.14,1.09,0.09,0.0,102670566,66215000,36117000,117194007,19
150289988,6515617,84908662,942035,85584108,994144,3906798,6865209,355520488,55922,156164343,80403,68389,551942822,20591,2.48,1.18,1.14,0.09,0.0,95893381,56302000,39210000,110467856,19
212031861,6934461,132003350,1036593,131759887,1055041,4126431,12078107,531614571,108703,211417004,150775,143811,729216616,45689,3.65,1.77,1.7,0.11,0.0,143742065,76710000,66747000,158365758,19
135554517,6685683,63571895,917732,64267554,911458,3926416,6893110,325910207,49537,138648330,56971,69338,533657620,20591,2.21,1.01,0.98,0.08,0.0,88258248,53975000,33984000,102802301,19
176995623,2976118,126173876,3008610,125939712,2979254,99652,1341267,263891892,7939,176802841,889,1833,702747503,148,1.77,0.85,0.83,0.04,0.0,71929243,71661000,0,86370514,19
161946284,6642498,65293565,909361,65232956,897358,4011047,7160820,368616929,72457,160577569,120177,64732,639561644,20590,2.51,1.14,1.09,0.09,0.0,101943125,65778000,35879000,116690000,19
141314636,3929810,47333260,148035,47080319,143577,2523014,6381370,315940146,56633,135939828,128030,75383,564893678,23384,2.12,0.99,0.96,0.07,0.0,84532938,56081000,28040000,99281792,19
138409764,4033050,68194056,971305,68444272,963499,2587015,6588249,372577079,60484,133878121,96083,77205,595140448,23387,2.47,1.14,1.1,0.08,0.0,101398870,63071000,38042000,116131158,19
219404738,6849142,107056641,988852,106010337,960791,4003550,6997530,336221960,56016,214469588,107293,71213,670182809,20591,2.34,1.12,1.08,0.08,0.0,90826080,49734000,40782000,105063619,19
290415942,12954731,127048378,236504,126367526,227928,8025029,13404602,562878836,129261,289335679,169949,129722,1025339703,40999,3.85,1.83,1.77,0.15,0.0,151305483,75027000,76028000,165910040,19
133624019,6781019,41708467,144619,41041730,140570,4043085,7008506,346321883,57530,136881275,112170,68185,503725847,20590,2.31,1.08,1.03,0.08,0.0,92753237,58649000,33797000,107284332,19
139954244,3963888,65049152,1012719,66247730,977126,2507668,6331213,334615230,49867,135416167,79692,74808,581353816,23388,2.24,1.06,1.03,0.07,0.0,91179936,52939000,37956000,105786095,19
154772173,6698060,64229908,916868,64321865,930634,3902869,7060190,361984043,71529,160678171,117179,83586,645046912,20591,2.49,1.16,1.12,0.09,0.0,98203267,54947000,42958000,112987252,19
128137109,5759548,55814201,163444,56178612,162395,4789876,7627156,359398674,136133,122885571,59992,59621,532141040,20538,2.43,1.11,1.08,0.09,0.0,96362737,58028000,38018000,110580098,19
172751582,7314161,90666617,1021224,89969120,1036610,4465329,11953346,531494051,98374,168599184,191867,143497,801663435,45677,3.59,1.7,1.64,0.12,0.0,143645595,71101000,72102000,158184718,19
221211726,12379788,126786782,1048311,128128531,1071009,7798238,12734486,572941084,106119,226650408,250860,129763,742097857,40997,3.98,1.89,1.81,0.15,0.0,154625257,78099000,76096000,169178349,19
203268418,12545148,84517707,1055699,84153729,1056373,8020632,12733157,514648802,140239,206925785,240081,140963,727448018,41197,3.55,1.68,1.61,0.14,0.0,138839857,65783000,72760000,153504990,19
165067435,5591752,61674264,191281,59920188,187935,6682446,9380001,416994032,175731,159821264,77818,79510,665240063,24598,2.82,1.31,1.26,0.11,0.0,112108361,60862000,50884000,126804579,19
631474040,14114865,346206784,2243249,345883455,2232907,4996106,18990804,973611538,111198,619530813,123089,81888,2515402653,24775,6.73,3.27,3.17,0.2,0.0,262366525,220962000,40992000,277078741,19
179907800,14221322,71075154,233705,71111169,229657,8452956,13412999,555067531,115225,185135105,239359,167373,671487831,49220,3.84,1.76,1.69,0.15,0.0,149723216,63175000,86239000,164294911,19
183650689,14028459,72856155,251447,74526362,308142,8939262,16002873,627434549,139659,190800115,157702,159763,693496852,49113,4.12,1.89,1.82,0.16,0.0,160454093,72060000,88073000,175126521,19
159016441,3935576,86455521,3200532,86982541,3095402,2517947,6715262,391013098,59922,152718541,69068,74668,590142299,23369,2.63,1.24,1.21,0.08,0.0,105650904,70148000,35074000,120090479,19
203341510,12360271,123266489,226370,125822284,223000,7867993,13088156,530877048,108147,212980946,237326,142471,768316220,40998,3.73,1.72,1.67,0.14,0.0,143606061,67137000,76156000,157958249,19
147132352,6257683,96548913,4365849,98112673,4334394,4448266,7811735,476421444,156323,140709037,85802,65044,525235773,20536,3.23,1.52,1.47,0.11,0.0,127819339,89309000,38132000,142405694,19
184725182,12558678,88037699,1004978,88092455,1039954,8019195,13242119,584170234,148909,187775402,217577,132067,666553394,40994,3.94,1.78,1.71,0.15,0.0,157418546,84066000,73058000,172013190,19
259395645,6727502,105140106,155318,105597967,155769,3977137,7178493,443987927,78217,259260232,106851,70982,877408865,20591,3.09,1.49,1.44,0.1,0.0,119969677,84469000,35195000,134340755,19
890280744,97542075,432352227,5923625,430811048,5889053,4888680,180074299,1563468000,11065643,881320675,115508,86426,3069997780,24692,11.06,5.43,5.25,0.3,0.0,422455939,382331000,39930000,437044465,19
865008569,43700773,378094768,2364832,378105770,2353559,12253640,60722099,1442725913,1409801,862560363,237802,136062,2566546923,41136,9.93,4.62,4.46,0.36,0.0,388829066,304584000,83885000,403419915,19
172902408,9382072,107092698,1116043,105398075,1068065,7492645,11374717,514332511,315663,168247515,130238,122856,715076271,40942,3.55,1.66,1.6,0.13,0.0,138997758,54840000,83755000,153462319,19
261460997,6717662,106014692,167787,105724469,169945,4058420,7270284,426233415,68490,269915945,112404,75164,891324221,20589,2.99,1.43,1.38,0.1,0.0,114625582,75524000,38756000,129071157,19
173975581,6922947,63406799,999461,63437499,975816,4037955,7124405,344383595,57786,176414143,52226,67214,521241045,20589,2.32,1.07,1.03,0.09,0.0,92852925,55713000,36810000,107619506,19
258500434,6751597,105318182,162792,105293472,162352,4033884,7247339,423387887,69253,270895820,71678,72501,884676544,20590,3.0,1.44,1.38,0.1,0.0,114326836,79950000,33979000,129023956,19
507352440,68514683,303415696,1094713,298124994,1075631,4928366,79097529,846491428,555409,498485750,114568,123954,2036192286,24806,6.07,3.01,2.91,0.18,0.0,228124921,182770000,44943000,242757304,19
241854521,12513647,126212389,1027931,127499837,1057986,8147542,13455780,568406532,107555,247962609,236824,134619,758848883,41003,4.0,1.91,1.83,0.15,0.0,154377926,84981000,68985000,169087197,19
152696895,6638444,64292176,910151,64330998,938022,3858520,6917933,361577286,73613,159036717,88755,68446,639358954,20591,2.47,1.15,1.11,0.09,0.0,98210263,64515000,33265000,112876150,19
168856737,4571556,87494848,977825,88379076,920779,4408312,7048001,389658281,59064,161556034,117507,70820,736356268,23388,2.6,1.2,1.16,0.09,0.0,103617536,69197000,34097000,118160004,19
171312722,6557163,45175925,153862,43993522,151615,4020498,6983290,358661312,79069,180725812,88478,65741,619935504,20589,2.44,1.14,1.1,0.09,0.0,96880809,61734000,34849000,111505813,19
1191478916,48066566,339164590,2407646,338742743,2398240,5691044,58404648,1382076663,1334453,1188730786,103459,81857,3394563167,20870,9.68,4.71,4.56,0.27,0.0,373557160,338220000,35022000,388006698,19
183181019,12609320,126285802,1053725,127696882,1079537,7946085,13366626,567971123,107174,184747545,99884,134820,718970274,40998,3.97,1.87,1.8,0.15,0.0,154304443,85002000,69001000,169176297,19
135746101,6758622,64320599,893599,64245579,898693,3988442,7000917,325949003,49736,141202857,61646,66885,487934218,20589,2.26,1.07,1.03,0.08,0.0,86743713,51250000,35172000,101400437,19
147271716,4757068,94533074,3233141,94744596,3180784,3804638,6442420,396272614,134038,146804845,82602,61651,570031588,20538,2.69,1.28,1.24,0.09,0.0,107401141,68055000,39031000,121839963,19
137064654,6583108,64438933,917237,63290383,946780,4057807,7191965,346556977,60232,137294972,109874,59925,517708212,20592,2.35,1.06,1.03,0.09,0.0,97264772,56990000,39993000,111849741,19
205203680,12915689,126546820,1100600,127117649,1083621,7829867,12840960,551134158,96002,209155451,127402,129525,754990556,40996,3.81,1.79,1.72,0.14,0.0,148541104,88184000,60126000,163068968,19
138962575,3863816,67440392,957782,67493556,951762,2601451,6434360,320918684,63954,134085160,69297,76787,512139099,23384,2.15,1.01,0.98,0.07,0.0,86353764,51061000,35042000,100827095,19
623046292,22159004,365675148,2358283,365719472,2345207,9837032,32262723,1173498396,751245,627841565,111189,159742,2560521299,49175,8.07,3.87,3.74,0.28,0.0,316054364,237547000,78180000,330622698,19
214115393,7327334,108700100,209544,108237243,204817,4239205,11475692,510209665,118026,214924150,231741,139769,781944031,45688,3.43,1.63,1.57,0.11,0.0,137437233,71051000,66048000,152254497,19
989394383,55771705,438740024,2723185,439589376,2710374,13572599,69669541,1437404766,1418094,987243222,234617,136827,3277077274,41239,10.1,4.86,4.7,0.36,0.0,387229904,314958000,71990000,401979519,19
445071389,69126019,195492454,1074561,193020526,1054090,4603742,76043971,739129644,465521,435237992,75694,114059,1717895361,23574,5.32,2.65,2.57,0.16,0.0,199925723,155471000,44133000,214390377,19
132494150,6779682,63902765,1003061,63898835,992265,3988878,6904339,343665655,57140,133627180,54532,67032,493052476,20590,2.31,1.07,1.03,0.08,0.0,92737750,62294000,30142000,107214169,19
84859888,8282480,43082483,883465,43139250,879149,94866,1061587,172534276,5941,85047331,1312,2196,360715237,157,1.16,0.57,0.55,0.03,0.0,46722913,44450000,1975000,61341303,19
265905717,6953611,105506113,153335,105578897,165418,4174260,7402022,385446005,64442,267722979,111532,71723,932970291,20592,2.65,1.26,1.22,0.09,0.0,102564550,64517000,37717000,117235215,19
1148228552,41205200,436765141,2389784,436085055,2368656,9340903,45872751,1482759054,764353,1139176955,148885,199780,3320597779,41144,10.26,4.92,4.76,0.34,0.0,401074665,329802000,70957000,415791811,19
158594759,4024514,97729270,4569932,97749394,4655441,2506466,6844234,462754472,61605,154349876,84091,74585,596846093,23389,3.15,1.51,1.46,0.09,0.0,124995652,89491000,35193000,139658647,19
84611410,2907148,42927316,878059,42936831,878471,94270,1008069,164986686,5272,86335365,461,1063,367182375,143,1.06,0.49,0.47,0.03,0.0,44526446,43214000,1004000,59066201,19
147629608,4714858,93652839,4604903,92652720,4639797,3851056,6747503,448588412,160053,148612789,60354,61003,583132325,20541,3.03,1.42,1.37,0.1,0.0,122115657,81856000,39930000,136707811,19
229143907,12743342,147634623,239411,147527051,237087,8050287,13111196,561172116,104947,231020475,246680,129113,908796270,40995,3.88,1.84,1.77,0.15,0.0,151285812,79985000,70987000,165717865,19
162967845,12574376,85906379,1038377,85114889,1044571,8145229,13068068,518004732,105657,165093563,222037,128016,603395349,40996,3.53,1.64,1.58,0.14,0.0,139620295,75171000,64146000,154133378,19
809973204,21428138,333996171,2270195,335509792,2301431,4689963,26590671,1036041433,683509,821779025,55931,83727,2626480438,20664,7.2,3.52,3.4,0.21,0.0,279265420,241793000,37121000,293801121,19
209640136,6567159,103956714,953978,106299370,1007679,3994826,6892246,358143726,55346,222619515,96561,88646,638472604,20587,2.45,1.17,1.12,0.09,0.0,96558587,58092000,38060000,111457994,19
164051874,3849647,109326765,182831,108949875,175547,2297545,6805819,397726897,60148,163132384,104898,73002,890504239,23390,2.87,1.32,1.26,0.08,0.0,105906888,67791000,37883000,120254127,19
218984988,12021436,145462679,254975,141505900,260266,10063487,14442321,584288013,317371,220162988,193185,129282,916272797,40942,4.07,1.93,1.84,0.16,0.0,158302893,73373000,84429000,172510405,19
953548405,27838129,417983208,2313769,418768054,2320025,5192392,33013926,1280792479,832460,953447655,82058,85050,3115465461,20698,9.02,4.44,4.3,0.25,0.0,345899091,310525000,35059000,360187128,19
143502691,12232720,66167182,219533,64157742,217428,7925264,13027873,524091120,108208,143621173,115546,131806,578772181,40996,3.53,1.64,1.58,0.14,0.0,141306578,69996000,70996000,156069745,19
714401057,10399270,342621457,2322685,340398473,2279987,4985752,14912643,1101249024,116084,700923183,77372,83237,2443627437,24734,7.65,3.69,3.56,0.22,0.0,298415569,256252000,41877000,313107712,19
843111172,107755872,364955542,439590,365023227,440227,9210496,187214764,1616251852,10051107,845884265,147950,162757,2878877642,49270,11.38,5.55,5.37,0.35,0.0,435740266,353540000,81893000,450350710,19
210577540,12051905,170143586,1082616,169372704,1068827,11745252,18011499,654169579,319561,219625549,127002,47146,1067267192,40942,4.56,2.14,2.06,0.19,0.0,176492784,88075000,88075000,191025614,19
149690105,4852783,94107198,3037376,92235304,3042381,3841619,6604807,412709535,139536,149853339,61587,60551,585220969,20537,2.84,1.35,1.31,0.1,0.0,112110346,70923000,40955000,126564875,19
95945981,479328,67754548,114512,67453660,121244,275588,1339477,117234370,5518,100777640,6742,857,287355929,519,0.8,0.39,0.37,0.02,0.0,30440989,27748000,1982000,44845711,20
44247254,469558,38624527,101710,38384942,100634,142855,989251,61217554,3783,48454591,449,495,152510873,526,0.43,0.21,0.2,0.01,0.0,16659643,14207000,2029000,31279325,20
44104648,512810,39016390,105924,40333798,113462,133598,1081403,69835898,6393,44713549,7807,5669,151959453,1042,0.48,0.23,0.22,0.01,0.0,18483278,15192000,3038000,33014755,20
94672333,150886,56598500,64830,56425957,64687,129223,971215,105204066,5862,94748031,6772,1596,281065775,583,0.73,0.37,0.36,0.02,0.0,29315617,28937000,0,43603807,20
78650930,148703,43740860,64410,43625336,57557,115696,714781,88019935,4795,79870168,5526,1586,230100083,324,0.63,0.31,0.29,0.01,0.0,23845543,23620000,0,38335573,20
615835,75688,970967,26902,970345,26839,50426,284793,6235824,2384,?,?,?,?,132,0.05,0.02,0.02,0.0,0.0,1644651,1475000,0,15832416,20
50008682,830040,39980178,101241,37179551,100385,208856,1422382,63104009,5107,45806010,838,523,163468432,916,0.46,0.22,0.21,0.01,0.0,17444574,16125000,1007000,31978143,20
43555445,720558,36458701,93676,40647108,106939,200640,1760889,70426825,6761,43306944,10620,4529,145776840,1943,0.5,0.24,0.23,0.01,0.0,19336245,14980000,3994000,33865727,20
30131691,239165,17522508,59721,18380335,59650,157850,799913,47142481,4775,32477550,5933,2213,102823625,1042,0.34,0.15,0.15,0.01,0.0,12421784,8098000,4049000,26690945,20
44199719,449003,38525042,101562,37791032,102012,146127,995709,64700116,4213,48702685,631,488,155331322,526,0.43,0.21,0.21,0.01,0.0,17094657,14822000,1976000,31513614,20
1078368,79540,1001003,29085,1000381,29022,57813,308699,6926040,3719,?,?,?,?,128,0.05,0.02,0.02,0.0,0.0,1739258,1467000,0,16438656,20
41695429,643470,32721447,86774,37597625,93384,176458,1719481,72123583,6492,44860855,11412,9008,144842126,1944,0.47,0.21,0.2,0.01,0.0,20819303,20578000,0,35475830,20
986706,78545,1005516,28168,1004894,28106,56646,305011,6630536,3089,?,?,?,?,135,0.05,0.02,0.02,0.0,0.0,1724476,743000,743000,15878514,20
44686539,493180,34745603,89810,34569290,92266,125816,921709,53333772,2422,39578506,3850,907,141609518,523,0.35,0.16,0.15,0.01,0.0,14945790,13669000,976000,29526726,20
81095087,308177,48902848,73280,49373518,73027,161043,1020996,99967911,4299,91106784,6754,769,264908452,521,0.67,0.31,0.3,0.02,0.0,27847873,25635000,1971000,42323502,20
94526076,466979,66821480,112120,66516382,112006,157732,1194817,109963030,5322,101614752,4383,801,287570872,520,0.76,0.37,0.36,0.02,0.0,29772125,28460000,1016000,44131939,20
43276594,329986,41167230,84493,43153308,89232,127507,1016441,65421901,3455,46843871,3676,2209,173800672,523,0.46,0.22,0.22,0.01,0.0,17837672,14683000,2936000,32300319,20
76054355,184400,43629047,63109,43565058,56130,111678,721995,89552737,2994,79779804,4664,1256,229986146,324,0.61,0.3,0.29,0.01,0.0,24010371,22791000,990000,38520031,20
28989083,160855,16201578,59278,16135143,58894,120383,552221,41058417,2935,32743825,749,701,101143581,328,0.3,0.14,0.13,0.01,0.0,10942182,9748000,974000,25329357,20
29579218,146750,17781082,56606,17397165,57363,103105,517772,40612351,1419,33069547,754,768,102739306,132,0.27,0.13,0.13,0.01,0.0,11122487,8920000,1982000,25475269,20
48373948,805558,37529321,93690,35920758,106008,213269,1406703,66572912,4865,47128466,938,688,164848687,916,0.45,0.22,0.22,0.01,0.0,17999425,17687000,0,32293541,20
78931044,127151,43634953,64704,43684927,62613,125164,773821,90293977,3895,81942436,5990,1267,232452619,325,0.61,0.3,0.3,0.01,0.0,24682548,23332000,972000,39255572,20
42208130,765564,35962037,89039,40884035,101861,201001,1723900,71024569,6862,43542182,11624,4368,144265826,1945,0.46,0.21,0.21,0.01,0.0,20076015,12887000,6939000,34702291,20
1375905,84148,979213,30336,1024217,30274,59919,329828,6692213,2393,1056997,?,?,?,133,0.05,0.02,0.02,0.0,0.0,1851476,1457000,0,16353276,20
27682381,170742,16543585,58457,16731907,57730,139091,599016,41844228,2110,32475189,451,921,100527249,329,0.27,0.11,0.11,0.01,0.0,11893102,11647000,0,26600871,20
92482022,504198,66448738,113787,66422961,113051,162809,1210609,111218965,5230,101868473,5012,797,287638126,519,0.78,0.39,0.37,0.02,0.0,30137618,27737000,1981000,44689461,20
43478715,500208,34830306,89249,34905304,90649,136283,827557,53981024,2543,39922951,4081,863,144715976,522,0.38,0.18,0.17,0.01,0.0,14144071,12919000,993000,28704469,20
33121014,302978,23495232,78436,23417730,78667,163199,900624,53449998,6271,41472539,577,637,128625965,524,0.38,0.18,0.17,0.01,0.0,14164646,12865000,989000,28813120,20
80124990,376383,52482718,94388,52478973,86653,168183,841673,98507876,3350,87608279,5800,2215,254295726,519,0.69,0.34,0.33,0.02,0.0,26503117,25213000,1008000,41023639,20
97539846,372372,64909264,98576,68011768,120785,187532,1539358,118374296,7667,94272864,10856,3734,285420451,1033,0.81,0.38,0.36,0.02,0.0,33181274,28880000,3983000,47812291,20
502022,57945,978853,27718,978231,27656,51722,300820,6211024,4737,?,?,?,?,139,0.05,0.02,0.02,0.0,0.0,1706153,749000,749000,16190866,20
98645687,716498,66944892,98028,68410943,115947,250047,2133295,124398880,8328,94016432,16930,4053,291946119,1939,0.87,0.43,0.41,0.02,0.0,33518664,29142000,4019000,47960641,20
35873860,149996,26213337,53225,26234378,52470,104847,674699,54965170,2019,38584850,1125,674,148472311,318,0.38,0.19,0.18,0.01,0.0,14782949,10617000,3860000,29051497,20
94499120,540498,63347112,106877,63377051,107355,156143,1015698,99762852,3881,91587871,7766,1220,278406574,518,0.71,0.35,0.33,0.02,0.0,27191579,23886000,2985000,41669032,20
76308618,176385,43348268,65163,44136950,54514,110033,699831,87906440,3685,79340472,4379,1315,227761677,325,0.62,0.31,0.3,0.01,0.0,23638144,22303000,1013000,38323196,20
582703,77774,976690,28047,976068,27984,51730,303726,6069778,2091,?,?,?,?,134,0.05,0.02,0.02,0.0,0.0,1743919,1460000,0,16113802,20
44432627,927073,37937613,102341,37580364,103031,218485,1373549,62334292,4455,51615563,550,538,156828950,916,0.42,0.21,0.2,0.01,0.0,17003138,15753000,984000,31262834,20
42771877,893788,40452706,112521,46148439,122348,243495,2065797,80566797,10236,43320504,20864,5955,146256767,2815,0.55,0.26,0.25,0.01,0.0,21509806,15456000,5796000,36027878,20
44919027,437916,39058290,99638,38174467,99753,154810,1034480,63575345,4521,47498639,567,456,155227476,523,0.43,0.21,0.21,0.01,0.0,16772935,15423000,1028000,31226744,20
97791005,469153,69817915,113255,67548091,113486,164419,1344849,112785256,7189,94988195,12439,3643,290788040,1035,0.79,0.38,0.38,0.02,0.0,30931636,30619000,0,45553832,20
84939760,282294,48237319,66665,46842486,68753,226086,1199289,98331547,9956,85848064,8795,2687,246227047,1424,0.69,0.33,0.33,0.02,0.0,26991134,23724000,2965000,41602304,20
96517821,513333,70251244,124507,68046917,124826,165955,1311366,114170224,7424,95900068,10293,1927,289930855,1034,0.83,0.4,0.38,0.02,0.0,30977076,27707000,2968000,45416696,20
96903034,457520,67787606,116289,66063747,116182,171541,1202402,110266990,5527,100301197,4644,1140,288551404,521,0.77,0.38,0.37,0.02,0.0,30333127,28034000,2002000,45160472,20
69795579,7100078,64494364,371992,63981508,375094,558221,1927320,167742686,10344,69113342,12802,5214,263141299,2675,1.1,0.53,0.52,0.03,0.0,45676311,40451000,4933000,60379880,20
97509941,465027,68782076,104757,67287955,111702,158909,1319511,117847722,6745,94679685,13002,1984,292177983,1035,0.83,0.41,0.4,0.02,0.0,31886358,28658000,2964000,46560455,20
35735655,499580,23681553,66886,23564581,66444,166320,916960,51353515,3030,42276385,551,407,138700583,526,0.32,0.15,0.16,0.01,0.0,13621875,12347000,1028000,28038255,20
96952972,495922,69413430,112292,67455412,115257,161396,1348448,115629884,7162,95783666,11606,2066,292505113,1035,0.82,0.4,0.39,0.02,0.0,31582546,27358000,3908000,46129596,20
91139551,656923,56095950,106150,57201336,100208,127053,1164899,111407193,5891,98342874,9943,1966,285575574,779,0.81,0.4,0.38,0.02,0.0,30041961,27797000,1985000,44588634,20
73372120,5155928,45704255,267104,47180117,269076,756792,2692670,219853626,16767,74318712,29401,7660,243578764,4137,1.4,0.62,0.59,0.04,0.0,60746361,56411000,4029000,75131754,20
45895952,497533,39174406,94706,40178278,102556,129558,1049547,67365246,5975,44388436,8172,2457,152585238,1040,0.48,0.23,0.22,0.01,0.0,18225664,15951000,1993000,32761303,20
81449283,378738,50928628,75269,50454240,74627,141333,1058959,102351869,4910,89636101,7165,2611,263021250,780,0.72,0.36,0.34,0.02,0.0,27538513,23342000,3890000,42247173,20
32794375,534045,25345859,85139,25146840,83683,188052,994768,51052103,3217,36938770,6377,2669,127384745,915,0.35,0.17,0.16,0.01,0.0,13740144,11527000,1921000,28393419,20
95364814,526104,62968782,112784,62932255,114282,179993,1162472,103861539,7302,93543477,7540,1018,284121543,520,0.72,0.35,0.34,0.02,0.0,28097570,25876000,1990000,42474401,20
534103,84560,995334,28496,994712,28434,55416,308626,6540307,2232,?,?,?,?,129,0.05,0.02,0.02,0.0,0.0,1780277,757000,757000,16537830,20
44987571,801370,36992747,84794,41554946,101351,214026,1735341,72400041,7473,44003529,11733,4565,146927960,1944,0.5,0.24,0.23,0.01,0.0,19555220,16232000,3043000,34101785,20
45840442,819118,37846377,89361,42443719,104825,197855,1721412,70823994,7636,43550146,9945,4621,146229006,1944,0.49,0.22,0.22,0.01,0.0,19308230,16048000,3009000,33813659,20
95139471,524427,62999908,96938,62949402,97844,159368,1129493,104515541,6881,93420778,6559,796,282921104,518,0.71,0.35,0.34,0.02,0.0,28218380,24949000,2993000,42593837,20
76963065,169878,43426116,65047,43543729,55575,116520,725444,88110802,4581,80752259,5500,1191,232530598,324,0.62,0.31,0.3,0.01,0.0,23691630,21518000,1956000,38266459,20
29364665,165823,18071900,58534,18098909,58282,120255,552040,41929083,1747,32698599,2112,962,101545946,329,0.28,0.13,0.13,0.01,0.0,11184193,8948000,1988000,25434113,20
43958201,905101,41205568,103563,47158935,113928,252220,2059883,79421657,9957,43091414,18896,5936,142663066,2814,0.53,0.26,0.26,0.01,0.0,21572265,17192000,4045000,36329925,20
38772641,509512,25736482,89174,23216589,85862,274917,1108724,51127947,11263,38763040,2079,471,141917040,916,0.37,0.18,0.18,0.01,0.0,13954988,11438000,2079000,28688896,20
1303271,81303,1021465,29981,1020843,29918,57653,321626,6408265,4268,?,?,?,?,136,0.05,0.02,0.02,0.0,0.0,1749729,1494000,0,16136274,20
1013570,82443,980029,28262,979407,28195,54187,307909,6184513,2911,?,?,?,?,129,0.05,0.02,0.02,0.0,0.0,1744546,746000,746000,16232120,20
95016880,960137,66343937,114670,66073385,116426,228932,1557049,111776505,5725,103115687,3770,898,290345588,911,0.8,0.39,0.38,0.02,0.0,30645755,28273000,2019000,44975038,20
44909607,274157,39941755,80191,43139862,102859,140581,1067300,65609042,4294,48240985,3583,1144,174577383,521,0.46,0.22,0.22,0.01,0.0,17840354,17612000,0,32328756,20
494243,78095,987967,28435,987345,28373,56296,309917,6339687,2701,?,?,?,?,128,0.05,0.02,0.02,0.0,0.0,1724350,756000,756000,16174833,20
97097885,502361,63420784,119877,62609171,118776,169630,1127883,101206393,7722,92765638,4950,953,285217524,518,0.7,0.36,0.36,0.02,0.0,27460853,27044000,0,42087259,20
81712511,174806,45804482,66702,45414533,66510,145392,821776,93247432,6511,85976128,2688,1318,244929061,519,0.65,0.33,0.33,0.01,0.0,24841958,22477000,1954000,39472087,20
103258099,731647,74628381,130382,75405985,142959,388949,1832797,126662162,7333,102662721,2755,2087,343677659,910,0.87,0.43,0.42,0.02,0.0,34631291,31136000,3013000,49189121,20
97286556,485126,69495501,114663,67073581,120084,165065,1376327,115293371,6888,95223093,12859,1918,293884663,1035,0.81,0.39,0.38,0.02,0.0,31800622,28550000,2953000,46318030,20
38618619,243323,26769301,56337,26463316,56553,171192,868962,59804947,5169,41614924,5035,1276,157905664,976,0.4,0.2,0.2,0.01,0.0,16476256,13137000,3031000,30785468,20
28751445,298776,18170526,61227,18786212,62157,162493,749185,45483134,4564,32312711,4971,2373,102577050,1042,0.32,0.15,0.15,0.01,0.0,12338733,10996000,999000,26793363,20
96897763,505190,69746060,112612,67708697,114568,169594,1374623,116103642,7566,95503308,11442,2824,291410111,1035,0.83,0.41,0.4,0.02,0.0,31429164,28002000,3000000,46029868,20
86620340,581478,53123021,80207,51016913,81345,215488,1611431,108887638,10088,85955295,16289,3725,270075017,1897,0.77,0.38,0.37,0.02,0.0,29534479,25256000,4040000,44030506,20
77848156,2399062,50751919,134937,46957337,136161,2860596,4507562,283748825,73641,67662157,137963,44192,276327180,31043,1.95,0.93,0.88,0.06,0.0,77021906,21188000,55494000,91683050,20
60616142,1152652,46483386,344810,43794804,345230,441743,2913601,130123242,20665,52822850,38334,13235,220752074,1391,0.57,0.3,0.31,0.01,0.0,18576506,13941000,2987000,34341250,20
44633768,509128,39134897,94588,40035516,100402,131163,1051650,67356539,5891,44917051,6916,5257,153429142,1042,0.45,0.22,0.22,0.01,0.0,18354859,15055000,3011000,32882146,20
1093036,77173,1003814,29246,1003192,29184,58376,314692,6846434,3695,?,?,482,1402297,128,0.05,0.02,0.02,0.0,0.0,1689412,1415000,0,16048636,20
96684328,452808,68009429,115164,66171744,115314,155874,1188345,110997530,5456,99363563,6769,818,289037408,520,0.79,0.39,0.38,0.02,0.0,30662286,29283000,1009000,45172259,20
95455057,485944,67624315,110173,67789467,109844,155444,1174375,111249641,5458,103143622,5329,820,289335163,518,0.77,0.38,0.38,0.02,0.0,30223910,27961000,1997000,44653518,20
31225763,1990781,18580004,85570,20478890,85407,1758811,3774007,125127694,29650,35774377,53790,13999,121249013,12063,0.84,0.39,0.37,0.03,0.0,34020897,16336000,17357000,48679071,21
2818867,140054,7113313,30950,7065828,30789,53682,322885,12578243,1354,9157486,1525,671,1515511,136,0.1,0.05,0.04,0.0,0.0,3466440,2139000,1069000,17765640,21
335376277,343712,416165737,651110,416226098,649057,161494,3325574,775009583,21604,336844583,2494,5971,2263124084,139,5.02,2.41,2.34,0.12,0.0,208557228,208109000,0,223181804,21
501482590,319791,662956018,641424,664825666,647259,121406,2847739,705330383,20317,502869161,2669,5937,3350683547,137,4.72,2.33,2.25,0.11,0.0,190209334,188955000,999000,204697087,21
67246514,3382171,68566618,183647,69970088,198955,1245536,5004422,123201851,28219,63008315,30435,8356,216753942,6140,0.85,0.41,0.39,0.03,0.0,33335316,25025000,8008000,48044069,21
2032511,183724,6500214,38955,7907694,33808,54588,360079,19167650,1440,13814580,980,2870,26174447,136,0.13,0.06,0.06,0.0,0.0,4958133,3729000,932000,19590703,21
7256274,199974,5343012,49177,8129679,33599,65613,385515,21774854,1538,17320552,568,1150,56222046,134,0.14,0.07,0.06,0.0,0.0,5655569,5457000,0,20109734,21
2247371,206034,7022922,38502,10204042,33379,56743,354774,16967963,1453,15554808,878,3360,17047428,136,0.12,0.05,0.06,0.0,0.0,4679630,2643000,1762000,18797456,21
3410916,205331,6883453,38516,7057570,33292,55721,351522,18000162,1325,9975518,1012,3312,12781736,137,0.13,0.06,0.06,0.0,0.0,4904909,3747000,936000,19330493,21
68778131,1789876,85059597,189763,86252763,186425,383552,2978314,124593811,14387,65282105,18234,5636,296132319,3333,0.85,0.41,0.38,0.02,0.0,33902880,28652000,4940000,48690450,21
335208551,228249,498155674,590333,498788227,607734,105817,1951728,427550278,12087,337652136,1865,3319,1852807967,129,2.83,1.35,1.3,0.07,0.0,118721285,116460000,1990000,133379049,21
21932746,129886,11976172,55976,11359119,56516,89984,654917,51196168,1615,20106628,162,343,84969170,138,0.34,0.16,0.15,0.01,0.0,13584063,13364000,0,27820245,21
3968538,169945,5846036,37154,6632753,34790,61614,365311,16602638,1257,16875553,981,594,469015,138,0.13,0.06,0.06,0.0,0.0,4581942,4267000,0,18757705,21
69271130,1528583,88394905,199747,94009990,201972,313693,2634017,129098219,11977,64002498,11111,9357,298101784,3138,0.87,0.42,0.41,0.02,0.0,34977838,27677000,6919000,49688436,21
337517619,229958,498634477,615550,498161988,639517,114301,2230262,534866444,14492,336239137,2457,4017,2353131097,138,3.53,1.71,1.66,0.08,0.0,144886392,144607000,0,159250265,21
165246535,24479857,109382511,954998,109950068,962764,1446179,5904704,768381936,33576,162644955,65641,13022,509772762,7938,4.69,2.1,2.01,0.13,0.0,209034139,195678000,12978000,223827502,21
839565249,613585,1667767856,2441538,1667688435,2443307,237872,6459347,1779435502,44565,839779484,6904,12218,7521202162,134,11.6,5.61,5.42,0.26,0.0,480751265,478351000,1997000,495476369,21
26251560,941128,13101221,76147,12484889,71792,617449,1579085,88979586,15643,24639416,29074,7218,84639379,6205,0.58,0.27,0.27,0.02,0.0,24259532,14474000,9305000,38915315,21
1235551,175395,6472718,36542,8733882,32698,53273,340384,14782137,1362,14197939,1277,4012,3535378,131,0.1,0.05,0.05,0.0,0.0,4056041,3831000,0,18521540,21
17118193,900139,10968528,62503,11597615,63984,721907,1739362,62063568,13686,17411846,17948,16355,63802297,6094,0.41,0.19,0.19,0.01,0.0,17272363,9531000,7413000,31989928,21
13515939,303908,10020617,66757,8823775,59208,207365,888790,36255655,5325,14470481,9663,3635,50069537,2134,0.25,0.11,0.1,0.01,0.0,10028149,7777000,1944000,24444050,21
670301517,275535,498331429,622431,499712508,619837,134475,2740750,706662317,18798,671068482,2792,5328,2683206822,136,4.64,2.23,2.16,0.11,0.0,190674495,190414000,0,205384652,21
17250044,925596,11031365,64206,11523012,66681,756551,1796403,64679051,14242,18255055,29608,7342,62719197,6093,0.44,0.21,0.19,0.02,0.0,17312693,8023000,9026000,31814525,21
2960172,215158,6651115,41612,9029022,33693,55603,353820,18183273,1434,15229541,990,2181,26190350,138,0.15,0.07,0.06,0.0,0.0,4949496,3779000,944000,18954725,21
334078979,255993,498120553,585591,499863684,595068,101900,2223071,544226180,14673,336029566,2657,3988,2181240860,136,3.59,1.69,1.63,0.08,0.0,148099782,145834000,1997000,162524568,21
13267168,205407,5273866,51796,8136327,35781,61688,372216,20041223,1846,15636918,614,1261,52776724,130,0.14,0.06,0.06,0.0,0.0,5879878,4669000,933000,20125578,21
336209643,261415,499163226,584806,499695529,590169,100656,1981793,493813088,13273,337018543,1844,4094,2022377593,136,3.22,1.56,1.52,0.07,0.0,133199544,130987000,1999000,147653142,21
336188348,398682,499945814,712703,499243492,708181,147713,4000654,1047287655,28187,336367251,4022,7050,2851097861,133,6.89,3.36,3.25,0.16,0.0,282683299,280408000,1995000,297202701,21
335821462,252518,495852620,608221,496062261,600337,140075,2019753,468752099,12147,340144811,1780,3533,2031418260,138,3.12,1.53,1.48,0.07,0.0,125710088,122426000,2986000,140140271,21
344781149,246139,501694036,758107,503542639,764293,100080,2155968,551518227,14699,345942156,2438,3963,2219340921,138,3.63,1.76,1.71,0.08,0.0,148490975,148215000,0,163083868,21
24423844,532058,15185545,66518,15587845,66126,333931,1338340,56276736,11632,15580376,17237,5728,70097848,4140,0.37,0.17,0.17,0.01,0.0,14577166,10180000,4072000,29171415,21
3547527,215639,9953518,42145,12716101,32219,60906,377475,22055926,1579,22546632,850,1257,62953286,135,0.15,0.07,0.07,0.0,0.0,5977365,4789000,957000,20346143,21
339428809,366785,499414523,669562,499807025,664597,129299,3403207,879171120,22460,340768160,3232,6496,2353619689,131,5.83,2.84,2.74,0.13,0.0,237366426,236076000,1000000,251710718,21
16043377,137118,6343402,61220,5445182,61370,92938,502859,40865331,1184,15068594,490,669,48268376,130,0.26,0.12,0.12,0.01,0.0,10862919,8649000,1922000,25259175,21
23786016,531026,11220030,60776,10550226,59917,636288,1418561,74141347,13188,20744520,15420,5294,75194338,4200,0.49,0.24,0.23,0.01,0.0,19619663,13143000,6066000,34449672,21
335848091,230168,499313981,595620,499230100,607759,134083,2306262,538205689,15119,336259131,2610,4388,2189714240,138,3.54,1.69,1.63,0.08,0.0,146626219,146238000,0,161232421,21
41465916,116038,14724178,66378,14921613,57140,89587,644368,83637808,3398,43237586,750,1022,114126249,137,0.58,0.26,0.24,0.01,0.0,22497973,22160000,0,36855596,21
90860569,4579423,111485024,456576,109725795,445556,1388608,5839107,198145588,31124,86180156,29157,22272,396461593,8093,1.36,0.65,0.63,0.04,0.0,53844663,42377000,11098000,68409289,21
336780827,234553,498028339,608297,496785119,625647,302659,2425886,545211318,13900,338492199,2066,3779,1526614060,132,3.65,1.8,1.74,0.08,0.0,144497799,143013000,1000000,159145606,21
335371820,279689,498130254,619592,499744237,625371,126773,2748364,705183624,18513,335786513,2975,5618,1347540754,145,4.64,2.23,2.16,0.11,0.0,190115999,189816000,0,204649918,21
2251548,165226,6936647,31707,7086011,32600,56652,348440,13383824,1329,8583621,2005,?,?,138,0.1,0.05,0.04,0.0,0.0,3651315,1718000,1718000,18051950,21
19582879,313489,8541557,56939,8386282,58778,570386,1153607,58701509,11427,12487793,12448,4683,57411257,2196,0.39,0.18,0.18,0.01,0.0,15764061,10320000,5160000,30367290,21
674268531,273251,498374277,628423,498524862,624030,116066,2517811,626168818,15331,678878717,1707,4269,2709985014,135,4.16,2.04,1.96,0.09,0.0,168874428,167480000,996000,183305265,21
1139995,160052,4341738,34441,7047749,32598,55766,351100,17040565,1438,11554201,1179,4741,4320445,135,0.1,0.04,0.05,0.0,0.0,4268330,3946000,0,18499248,21
17824642,389943,12583476,67148,14292597,68809,176510,871967,42586421,5750,21527260,10103,3559,61346731,2141,0.3,0.14,0.13,0.01,0.0,11170367,7827000,2935000,25642141,21
22137087,209173,13744874,63364,11487198,63743,241988,960584,40823568,6071,21344071,10174,2861,67168280,2138,0.27,0.13,0.12,0.01,0.0,10799859,7349000,3149000,25464786,21
336533818,343007,662945037,629990,664208423,637450,210497,2889345,705636268,18471,337634686,3049,4934,2855206362,142,4.63,2.22,2.14,0.11,0.0,190275323,188871000,999000,204850937,21
2393897,154986,5912644,31309,6589596,30964,58286,339819,13360341,1608,8816346,5216,?,?,135,0.1,0.04,0.04,0.0,0.0,3613294,2220000,1110000,18247482,21
1317603,180131,5360891,43478,9640332,34697,53843,344534,17381193,1452,17987585,910,1246,36803482,134,0.12,0.06,0.06,0.0,0.0,4744625,4487000,0,18999178,21
437769,78874,1368145,28893,1367523,28831,53655,310212,7300237,2404,313578,735,680,1397428,144,0.05,0.02,0.02,0.0,0.0,1911465,1667000,0,16065209,21
3107984,203985,7069853,41820,8797562,33489,61145,360931,19072785,1500,17523644,836,1909,41760643,136,0.14,0.06,0.06,0.0,0.0,5368601,4101000,1025000,19912738,21
23732578,535259,11183487,59939,10455603,60503,634196,1358700,74284286,12895,20795774,18776,7674,75785037,4198,0.49,0.23,0.22,0.01,0.0,19742549,13282000,6130000,34313344,21
2198571,159413,6985394,35551,9579668,34046,57768,352155,18256792,1502,19946160,1190,4296,3671268,134,0.13,0.06,0.06,0.0,0.0,4561134,3236000,1078000,19080326,21
674480217,50100566,502075046,651458,500266106,644403,128208,2632034,631421934,17610,674597442,3105,4434,2539463423,149,4.26,2.06,2.0,0.1,0.0,171792899,170464000,1002000,186442818,21
336112695,259684,333993720,611382,333670703,628391,150427,2374214,536511288,14815,336983133,2274,3901,2358196860,131,3.53,1.71,1.65,0.08,0.0,144793647,142534000,1993000,159319737,21
76802677,1582017,42208592,101410,37234366,86569,825009,2903459,72699551,13496,55225470,8189,1993,196086224,2082,0.51,0.25,0.23,0.02,0.0,19576739,14173000,5061000,33961019,21
10249110,128783,5382626,61673,4667135,57789,86257,475611,37464245,1174,9366395,479,703,32285909,131,0.25,0.09,0.09,0.01,0.0,10206584,8924000,991000,24556837,21
1734946,167509,5938698,34126,7727978,32709,56148,346508,17063116,1278,16289003,1874,3912,4447081,154,0.13,0.06,0.06,0.0,0.0,4333943,3066000,1022000,18868978,21
334880219,363408,498884601,690514,498970339,678744,137242,3445419,879094665,22668,336568711,3252,5988,2348887002,137,5.81,2.84,2.76,0.13,0.0,236544923,236268000,0,250935388,21
335350513,266889,498882641,596125,499135440,611959,118815,2341690,594750154,15253,337175760,1918,4131,2523114634,139,3.9,1.87,1.81,0.09,0.0,160418383,158060000,2000000,174895599,21
22830438,538292,11221206,61349,10626900,58890,635459,1427420,75530139,13421,20404150,19786,5271,73101455,4200,0.51,0.24,0.23,0.02,0.0,19954716,11731000,7820000,34654262,21
11663152,283397,6901966,71869,6317007,55949,192868,856976,33851845,5709,12720437,11200,3199,42326355,2135,0.21,0.09,0.09,0.01,0.0,9308249,5013000,4010000,24012990,21
336579587,230213,498850944,767766,498569517,784160,130746,2274334,540605184,14433,336688016,2309,3956,2191160831,136,3.53,1.7,1.65,0.08,0.0,146207532,143883000,1998000,160716072,21
340089168,195185,499686714,586662,498586972,602147,122366,1908532,430690694,12319,340508323,2009,3479,1873447688,129,2.88,1.39,1.35,0.07,0.0,116595075,115323000,1002000,131233587,21
17389982,928031,10993512,62031,11476986,62801,727721,1809458,65306585,14170,19320197,29313,8350,64888364,6097,0.44,0.21,0.2,0.01,0.0,17373197,7000000,10000000,31881225,21
36391544,1836275,24847585,84307,18324099,69870,766291,2151159,51027054,7018,31191688,8577,2773,132259608,2082,0.36,0.17,0.16,0.01,0.0,13339074,8060000,5037000,27684914,21
344555735,989598,507621858,676654,508815134,667645,389346,3554516,918558729,58898,343205618,19544,11452,3696890964,4034,6.0,2.86,2.76,0.14,0.0,248049111,238709000,9026000,262601919,21
177732642,8805811,166371367,333449,164404188,337377,5643386,14316510,299985551,57840,189422399,66040,14171,704369726,9995,2.13,1.03,1.0,0.08,0.0,80841813,64410000,16102000,95299877,21
25622150,646368,14588594,79211,13394985,77830,1678871,2552141,118069983,25636,19602552,42606,10183,93546910,8644,0.73,0.29,0.29,0.03,0.0,34654096,17689000,16706000,49120141,21
2307940,172793,5425148,33811,7579332,33051,57048,341579,14272849,1504,10358217,1866,?,?,136,0.12,0.05,0.04,0.0,0.0,3943495,2800000,933000,18528288,21
3490627,138998,7444340,33010,7206000,32542,55089,343583,14596500,1431,7757537,1047,3884,3436827,129,0.1,0.05,0.05,0.0,0.0,4043028,3745000,0,18575659,21
336712547,416560,499268709,675567,499416862,671257,314334,3564631,885639307,20811,337558889,2193,6009,2355522953,142,5.8,2.8,2.71,0.13,0.0,238687429,234804000,2984000,253367643,21
2007067,180456,5404853,37128,7191660,33870,62269,358655,17040836,1578,11856280,1254,5111,8492341,136,0.13,0.06,0.05,0.0,0.0,4457290,2116000,2116000,18895348,21
2422710,168522,5702079,33513,7591371,31518,53285,327571,16102972,1313,15863689,1611,1343,14840328,130,0.12,0.05,0.05,0.0,0.0,4455822,3125000,1041000,18865106,21
171062191,205927,497298918,586602,497162948,607753,109045,1897398,433334112,12059,171318418,1897,3414,2023665306,136,2.84,1.37,1.33,0.07,0.0,116907978,114644000,1993000,131317241,21
336150518,222344,331004456,603686,331192106,595715,100924,1887202,418563129,11205,339099956,1425,2857,1863336835,139,2.76,1.31,1.27,0.06,0.0,113612299,112280000,1002000,128220767,21
334436934,297595,333338454,612356,334298441,622276,139796,2732839,703822231,18306,335426815,2904,5161,1845865154,129,4.68,2.24,2.16,0.11,0.0,190543549,190281000,0,204952708,21
58223265,1613766,67157196,205519,74525887,222958,347037,2557754,93686724,10494,54190590,13256,6758,197102821,3135,0.63,0.3,0.28,0.02,0.0,25373904,18019000,7007000,39791039,21
16124288,948439,11254840,61978,11253667,63482,725094,1769260,63738869,13661,17670546,28680,7216,62689845,6093,0.45,0.21,0.2,0.01,0.0,17057215,6880000,9829000,31581804,21
1296309,187181,5501631,37586,7469527,33089,56159,356474,15783939,1437,11428194,1080,5295,6055126,134,0.1,0.04,0.05,0.0,0.0,4262801,3047000,1015000,18622590,21
28050423,238406,14302830,58881,14613917,58525,156059,625907,41518488,4415,33298373,838,889,101962229,524,0.28,0.13,0.13,0.01,0.0,10964747,8773000,1949000,25313974,22
77471824,197212,43235153,63291,43083943,64710,147328,813044,89092616,3598,82605413,2038,1350,234551803,518,0.61,0.28,0.27,0.02,0.0,25465665,22279000,2906000,40086316,22
28856176,293541,16319192,59539,17451326,61198,167067,738647,44966429,4420,31489161,5184,3452,98226110,1040,0.3,0.15,0.14,0.01,0.0,12133568,6889000,4921000,26630846,22
27216965,193568,15237092,59512,15185944,60784,125182,584763,40588364,2951,31498201,736,786,97021216,327,0.28,0.14,0.13,0.01,0.0,10893794,8666000,1925000,25185675,22
27711595,243055,14196297,61111,14180300,57992,147142,622063,40916277,3818,32859832,734,832,100424455,524,0.31,0.15,0.14,0.01,0.0,10908365,9595000,959000,25530907,22
28531538,225194,14027461,61198,14050588,60926,160806,632088,41201586,2583,33128899,827,861,99598281,526,0.28,0.14,0.14,0.01,0.0,10866824,9613000,961000,25391730,22
27468444,131892,15184254,61739,15186192,59494,100619,508037,38533042,1454,29954455,684,762,92442405,132,0.28,0.13,0.13,0.01,0.0,10316836,9088000,1009000,24541368,22
27124115,148104,14719421,62246,14327466,52023,92031,462812,36537167,1247,28809634,696,807,92310760,134,0.24,0.12,0.12,0.01,0.0,9870854,8699000,966000,24368035,22
78164525,236385,43510409,63186,43418223,56825,159284,819421,90059996,6197,80813089,2317,1591,233455888,517,0.62,0.31,0.31,0.01,0.0,24337371,21983000,1998000,38481036,22
27494322,242951,14377115,60791,14344120,59909,149376,616317,40354856,2093,32326103,712,910,99237820,524,0.29,0.13,0.12,0.01,0.0,10982765,7817000,2931000,25451985,22
77366092,130266,43881498,63721,43845145,61981,96627,679152,89731038,2633,80092906,4298,1207,225936374,127,0.61,0.3,0.3,0.01,0.0,24392065,23009000,1000000,38846421,22
49447510,933749,34985351,78104,30833851,70506,637375,1905325,88665012,12723,56816656,9906,7054,195392374,3260,0.6,0.28,0.27,0.02,0.0,24560656,18229000,6076000,39135941,22
76416166,243763,44516010,65474,44258242,57425,123316,718305,88920167,2983,78060367,4257,2637,227951352,516,0.62,0.31,0.3,0.01,0.0,23991390,21678000,1970000,38377014,22
78231825,232093,42850732,66310,42943458,58010,142009,790082,89386819,3714,80391373,2286,1278,232925663,519,0.62,0.32,0.31,0.01,0.0,23936604,22654000,984000,38652008,22
79091670,226580,43640949,67066,43440390,58579,148172,806921,89768752,6571,80836692,2802,1609,234580955,517,0.62,0.31,0.3,0.01,0.0,24237180,22942000,997000,38654493,22
29267924,165208,15542930,59917,15633482,58543,131609,591176,40901395,2009,31523322,518,850,97301523,329,0.27,0.13,0.13,0.01,0.0,11154612,9819000,1091000,25403627,22
139501945,3349556,90058673,171436,85657305,167433,3629968,5788305,401142994,93677,126087910,170980,124577,456321668,39192,2.69,1.29,1.25,0.09,0.0,107831181,36167000,71330000,122205798,22
28027029,241737,14687026,59096,14680065,57327,144482,604262,40897572,3563,33116046,728,785,99532207,524,0.3,0.14,0.13,0.01,0.0,11158560,8886000,1974000,25667103,22
76193602,212853,42815931,65091,43525236,56977,143361,797123,89194738,3809,80462929,2491,1312,230894816,519,0.62,0.31,0.3,0.01,0.0,23922485,22593000,1026000,38550463,22
79688391,207946,43602849,65475,43253753,65191,153128,810476,90308401,6638,82294217,2453,1175,234407733,517,0.61,0.31,0.31,0.01,0.0,24527150,23175000,1007000,38778233,22
26866649,196405,15351752,60264,15309255,60042,130913,591692,41381781,1602,31713986,630,887,98035940,329,0.3,0.15,0.14,0.01,0.0,11128717,8879000,1973000,25609317,22
29966008,363821,15373149,57798,15026130,57609,228891,734835,45566099,2763,35782386,1369,2346,101852328,915,0.3,0.15,0.15,0.01,0.0,12347663,9085000,3028000,27013873,22
26198897,155395,14965101,59721,15026107,52114,90654,474285,38630713,1174,28987993,611,778,91781642,133,0.28,0.14,0.13,0.01,0.0,10235264,8981000,997000,24712783,22
72903456,5228531,40178562,255226,37411164,254763,444376,1964051,192618190,12373,82649070,7079,10290,251503009,3260,1.25,0.58,0.55,0.03,0.0,52275148,47975000,3997000,66683384,22
26686979,202817,14745290,61368,14866840,60530,122300,570797,41151181,1559,31757344,671,944,99364210,328,0.28,0.14,0.14,0.01,0.0,10919135,7701000,2888000,25426815,22
78167290,195175,42793860,60896,42625490,56574,149644,776389,89673202,3742,81235499,3125,1308,235321409,518,0.64,0.33,0.31,0.01,0.0,24122015,21791000,1981000,38362914,22
79271658,229512,43644167,65768,43696930,59765,145296,789671,89620456,6539,81764550,2496,1177,235124967,516,0.62,0.31,0.3,0.01,0.0,24257442,22959000,998000,38358967,22
77912258,235676,42891010,67664,43067640,68945,165685,862192,91595496,6668,82325836,2205,1261,234512515,515,0.64,0.32,0.31,0.02,0.0,24614493,23260000,1011000,38936057,22
28175438,235332,14068826,60912,14239574,59938,152848,606840,40894172,2378,32635372,733,926,99197182,524,0.28,0.14,0.14,0.01,0.0,10829370,8686000,1930000,25131809,22
75922166,198386,43361767,63781,43584110,54964,116898,721170,90095509,3885,80763153,4806,1186,234702397,321,0.64,0.32,0.3,0.01,0.0,23983886,21725000,1975000,38655970,22
28516536,211342,14612798,60805,15337404,61816,199089,708837,41360265,3336,32666392,414,840,96706933,523,0.25,0.11,0.12,0.01,0.0,11620535,10486000,953000,26172879,22
32121359,299348,16619359,57244,14503381,58329,256837,748018,45785118,9440,34397657,475,722,110198585,914,0.31,0.15,0.15,0.01,0.0,12108631,10857000,987000,26438177,22
78555201,222923,43404913,63862,43417882,57206,151708,796103,90063229,3885,80951041,2167,1305,236167614,520,0.64,0.33,0.31,0.01,0.0,24164441,21896000,1990000,38625232,22
72036626,3093872,52879353,304897,54394382,313216,567006,1701882,140050434,11054,81172840,10970,7635,254133366,2867,0.94,0.45,0.43,0.03,0.0,37741275,30327000,7076000,52525016,22
76450722,177352,44014983,62910,44226776,62345,123435,768624,89432597,4292,81344465,4176,1262,230128050,322,0.62,0.29,0.27,0.02,0.0,25121042,22884000,1989000,39429753,22
76424717,198274,43856342,63467,43898613,56954,116470,728027,90730122,3054,79576332,7396,1370,231683116,324,0.64,0.31,0.3,0.01,0.0,24387680,22135000,2012000,38698987,22
26305085,232881,15310025,59471,15152932,59226,126626,536887,41508521,1861,31089721,1867,2691,97416026,524,0.3,0.15,0.14,0.01,0.0,10920220,9744000,974000,25331762,22
27944847,227783,13812096,61368,13822028,60496,149602,615241,41765295,2570,33438679,786,946,103716701,525,0.28,0.14,0.13,0.01,0.0,10838477,8634000,1918000,25376378,22
75229969,153622,43316659,63834,43813661,53273,88161,641431,87298163,2959,79410983,2370,1125,228068688,126,0.61,0.31,0.3,0.01,0.0,23450247,22237000,1010000,37706214,22
26500056,154506,14192685,59482,14314874,49394,86725,454254,37503993,1345,29436320,649,744,93153534,133,0.26,0.13,0.12,0.01,0.0,9811042,7664000,1916000,24092574,22
29211585,90477,14016400,63167,14142048,54881,97995,487409,35518564,2056,30332484,729,822,95587599,132,0.25,0.12,0.12,0.01,0.0,9808446,9551000,0,23951800,22
30209688,202585,14603918,58511,14032400,57041,151899,629887,41249743,2942,33805851,768,883,104474736,524,0.28,0.13,0.13,0.01,0.0,10979675,10723000,0,25430162,22
29262558,218362,14254020,58351,14426829,59156,153624,620177,41951662,5050,34238906,756,777,104817941,522,0.28,0.14,0.14,0.01,0.0,10900519,8738000,1941000,25306534,22
81279257,167284,45690847,62746,44625745,62682,167032,1027110,96565116,8286,80283624,2600,224949,235070759,516,0.69,0.35,0.34,0.02,0.0,26614091,24367000,2030000,40899095,22
28186313,233931,13912249,61295,13888816,61211,148733,631695,41424603,2667,33184630,736,855,101609248,523,0.28,0.14,0.13,0.01,0.0,10848655,7673000,2877000,25539880,22
76718816,218401,43723872,65149,43807848,59080,129218,730857,89939217,3533,79572098,5477,2481,230547715,516,0.62,0.31,0.3,0.01,0.0,24072968,22815000,1037000,38275612,22
26857595,227756,15305166,60966,15342741,61323,129498,572732,41202144,2086,31340171,2420,1259,95359455,523,0.3,0.15,0.13,0.01,0.0,10913913,7778000,2916000,25275428,22
28706980,326836,16789339,68840,17398537,69437,316288,921860,50470531,4842,31899809,4683,4623,100454487,1042,0.33,0.16,0.15,0.01,0.0,12292762,9869000,1973000,26905884,22
25829989,152968,15139338,60250,15167646,51629,93236,470690,38866870,1237,29292149,643,847,93870978,133,0.28,0.13,0.13,0.01,0.0,10277747,9063000,1007000,24713687,22
30419383,196356,14817951,60772,14191203,58917,169721,642555,40344970,2667,32612876,837,982,102527396,525,0.28,0.13,0.13,0.01,0.0,10942220,9636000,1070000,25178692,22
77381622,232538,42799451,64126,42980128,56247,142161,782062,90105812,3797,80974004,1957,1287,232757952,518,0.64,0.32,0.31,0.01,0.0,24142251,21866000,1987000,38915506,22
76042927,204699,43836962,71482,43901084,61728,137228,778839,89873084,3813,79033356,7221,2441,228409343,516,0.65,0.32,0.3,0.01,0.0,24002190,18768000,4938000,38446568,22
46174375,362011,27667496,63921,25600241,67084,389671,1426658,71978309,9284,34945231,12475,9696,144682031,2993,0.5,0.23,0.22,0.01,0.0,19137749,13930000,4975000,33619484,22
26447357,152559,14446395,61121,14435808,51726,91040,470652,37662657,1363,29333930,660,743,93085090,132,0.28,0.12,0.12,0.01,0.0,9946492,7777000,1944000,24183273,22
27621107,238067,14192664,59876,14144800,59880,145081,593843,41745371,4027,33470562,733,808,105403153,523,0.3,0.15,0.13,0.01,0.0,10944660,8779000,1950000,25726994,22
27619959,233077,14231368,58215,14261293,59757,148497,608696,41530255,2329,33406208,731,1007,104318457,524,0.3,0.15,0.13,0.01,0.0,10924100,9736000,973000,25240851,22
28323005,201826,15193811,57258,15516344,57983,175583,661138,42235598,5504,33076276,422,741,101983311,522,0.28,0.12,0.12,0.01,0.0,11754033,10554000,959000,26285662,22
36267721,208782,18368520,56130,18505593,55207,161592,841203,48295685,5878,41123019,435,380,117448879,524,0.36,0.17,0.16,0.01,0.0,12828480,10655000,1937000,27221425,22
27708028,240953,14014318,58535,14036590,59827,154075,611195,41127515,2240,32941161,795,897,101633463,525,0.3,0.14,0.13,0.01,0.0,10919444,9728000,972000,25416886,22
76323042,254660,42897976,64717,43337755,57824,137253,799426,90009252,3316,80089924,2774,1358,231408866,519,0.65,0.33,0.31,0.01,0.0,24204782,22908000,996000,38686544,22
73032354,154841,43549359,64335,44943860,54034,90009,646451,86715054,3100,77787494,3221,1365,222354409,128,0.62,0.31,0.3,0.01,0.0,23412443,23191000,0,37698217,22
82613323,321159,45847258,69837,43473179,75309,300833,1093736,99417366,11843,84469945,4792,1509,250473553,907,0.72,0.34,0.33,0.02,0.0,26379068,22033000,4006000,40591447,22
26863067,214271,15566567,60004,15613316,59151,129424,568483,41213979,1882,31539393,804,887,97356893,328,0.3,0.14,0.13,0.01,0.0,11025082,9834000,983000,25445188,22
84106537,436517,46204243,63082,43023023,66183,369354,1087951,101828159,15833,86738562,4974,876,255397434,1297,0.72,0.36,0.34,0.02,0.0,27216703,23906000,2988000,41857954,22
35293039,116915,18437883,55723,18548667,58653,115565,568592,42421850,1535,37335197,342,788,107033977,133,0.3,0.15,0.14,0.01,0.0,11517737,11214000,0,25957569,22
77025347,124981,43107771,63944,43289757,55489,94997,657397,86282002,3192,79531901,2901,1229,228289048,126,0.59,0.3,0.29,0.01,0.0,23274095,21981000,999000,37438278,22
28531196,228700,14150360,61498,14176780,60551,160702,641304,41208407,2717,33248389,688,912,99403198,524,0.3,0.15,0.13,0.01,0.0,10965762,8724000,1938000,25353996,22
37083339,465037,23303549,75655,24265373,75996,147249,964861,56625688,6298,40478395,6181,5078,137607911,1041,0.4,0.19,0.19,0.01,0.0,15509751,14159000,1011000,29890641,22
27733508,232039,13908546,59923,13820263,59924,143048,593193,41642170,2317,33220344,680,906,103197743,525,0.28,0.14,0.13,0.01,0.0,10908492,8690000,1931000,25372891,22
79667817,214576,43536424,64497,43352707,59146,142771,794670,89511222,6997,81356408,3334,1213,233069741,517,0.61,0.31,0.3,0.01,0.0,24191239,22940000,1042000,38463511,22
77465320,247661,42945439,64417,43154105,62029,223484,880395,92276989,3531,81474652,3198,1700,234316439,519,0.65,0.32,0.31,0.02,0.0,24144705,21792000,1981000,38879259,22
29336065,293378,16398520,57654,17389624,60133,167643,724125,45493309,4676,32278236,5048,4516,99669955,1041,0.31,0.15,0.15,0.01,0.0,12101002,7888000,3944000,26524657,22
77045175,239157,42988453,63190,42925983,55529,139494,770337,90255629,3708,80495320,3054,1603,233099433,519,0.64,0.32,0.3,0.01,0.0,24230803,21969000,1997000,38729353,22
29057849,227153,14622048,58792,14451020,59556,156513,630038,41697977,4962,33916622,761,1048,105194567,523,0.3,0.14,0.13,0.01,0.0,11206495,8993000,1998000,25766924,22
29701609,204186,15027893,61201,14716173,61289,165673,648662,40489658,2814,32344344,750,872,99703798,524,0.28,0.13,0.13,0.01,0.0,10807122,9533000,1059000,25310472,22
77641399,231430,42746232,64698,42965670,57528,141698,776206,90221252,6344,82176550,1805,1193,237908908,517,0.63,0.32,0.32,0.01,0.0,23934854,20718000,2959000,38271800,22
74879169,203158,43626131,63916,45104132,55771,89420,666772,95011845,2546,77701798,4640,1213,224676899,127,0.66,0.33,0.32,0.02,0.0,24191650,22382000,973000,38606188,22
27743910,241754,14734094,59288,14719587,59772,149720,632872,42014883,3706,33026547,756,762,100048888,522,0.3,0.15,0.14,0.01,0.0,11221117,8987000,1997000,25519430,22
27858844,181704,14134294,58716,14720614,58617,164023,646857,40618222,2698,33184243,759,976,98947714,524,0.26,0.12,0.12,0.01,0.0,11489585,9183000,2040000,26150369,22
28909053,214828,14236662,59628,13996748,57534,150885,620111,41787342,2933,33225012,820,1103,103242157,524,0.28,0.13,0.13,0.01,0.0,10976718,9642000,1071000,25204814,22
111830552,3802624,86976022,595838,87276045,596600,1778473,8959807,263321062,55185,105271903,45560,10128,385370669,7150,1.83,0.87,0.84,0.06,0.0,71560993,59097000,12019000,86061084,23
310380862,3138902,189624655,1154468,192385018,1024518,1067022,8147845,436064274,45447,319457960,23975,6736,939115273,1864,3.08,1.51,1.46,0.08,0.0,117865848,107477000,9951000,132429919,23
320353922,2922396,196297880,1376923,189329714,1411734,1482360,9809779,448424168,48602,315831344,26731,7815,965325891,3043,3.17,1.58,1.53,0.08,0.0,120814953,114347000,5965000,135410210,23
306411301,3224654,189450877,1176653,192170376,1080893,1044527,8542208,438054407,45119,316187631,24062,5188,926692630,1870,3.09,1.55,1.5,0.08,0.0,118388966,112081000,6004000,132929043,23
110378753,3119621,74426795,717972,71106971,733058,1822066,8192081,246795854,108925,113892568,15241,5578,386409119,2471,1.69,0.8,0.78,0.06,0.0,67049251,61703000,4976000,81468106,23
311153881,3418585,190497543,1270405,191036435,1173196,1050116,8817756,442083195,43811,316395534,34642,8634,935870382,1863,3.11,1.55,1.5,0.08,0.0,119671756,111345000,7953000,134022803,23
311615220,2954684,193766794,1167111,192763024,1151590,1208862,8031640,450573144,48356,314719601,24752,12815,941937610,1955,3.15,1.56,1.52,0.08,0.0,122027512,117555000,4019000,136605009,23
82374298,961503,58452276,264501,58774582,282661,150784,2242690,128453266,5623,79624445,2085,3002,260996882,379,0.91,0.45,0.43,0.02,0.0,35089812,32745000,1984000,49428406,23
100925527,2663345,69452519,750680,74642367,660579,1274694,7859829,225901454,36003,112934804,15289,4703,361472962,2025,1.58,0.74,0.71,0.05,0.0,61861164,56577000,4962000,76572221,23
107683718,3393099,73901472,793713,72930224,723923,1305872,7930896,241488187,44822,110310570,30472,7208,376099339,2601,1.65,0.78,0.76,0.05,0.0,65411141,59014000,6001000,79992295,23
108467356,3124390,74624161,697331,73573827,711185,2232829,9279254,262711515,118997,113934283,37860,14112,379377009,2563,1.8,0.84,0.82,0.06,0.0,71299464,66792000,4048000,85939290,23
124769798,2859902,82360846,695425,82234387,638529,1857109,8943519,274800058,128012,123690614,14654,9824,417998158,2430,1.88,0.89,0.87,0.06,0.0,74516075,67158000,7016000,88782952,23
116974838,7347427,78637777,1748671,78213550,1821597,2673305,19257546,303300910,304481,124447390,19211,6905,399315181,2655,2.13,1.01,0.98,0.07,0.0,81920226,78465000,3017000,96382234,23
107652118,3106043,73087908,702225,71304235,737831,1871434,8266832,250063936,110672,112548133,18035,5753,380022180,2474,1.74,0.8,0.78,0.06,0.0,67249782,59943000,6993000,81670813,23
107105809,3070090,73253197,710991,73736083,761548,2030765,8411732,260134218,115005,113471864,16153,13775,380494775,2496,1.75,0.83,0.81,0.06,0.0,69648137,62384000,6931000,84311396,23
109392253,3292208,73024723,743890,69111193,799797,1895585,9272042,238808368,111941,112747567,15540,5565,383724718,2373,1.66,0.79,0.76,0.06,0.0,65070213,60630000,3975000,79568858,23
111842066,3456003,78141275,649012,74707395,710959,2433048,10772919,263369104,167877,109675702,17646,13825,387511033,3121,1.8,0.84,0.8,0.06,0.0,72285772,68867000,3038000,86779755,23
104418603,2988115,72861403,839261,74020735,746409,1203114,7380634,244653438,45072,111252142,13741,10025,373516715,2108,1.67,0.8,0.78,0.05,0.0,65875450,58531000,6944000,80562966,23
309558083,3268158,189910973,1175608,190895876,1076931,1095179,8555861,442442442,45065,316942613,23740,8465,935707171,1890,3.15,1.57,1.52,0.08,0.0,119179905,113699000,5030000,133649146,23
151299601,4714961,110786188,1353327,110131284,1347307,2987923,14395475,475426646,95242,149485640,118590,58383,552792694,2578,2.25,1.14,1.1,0.07,0.0,71586040,61283000,9884000,89248026,23
313736092,3162353,191114918,1139783,188071787,1158713,1610263,10384200,443473749,53583,321116079,26802,7211,953826009,2053,3.11,1.54,1.5,0.08,0.0,119722984,110155000,8931000,134366447,23
97925553,3163212,70615060,710778,74235677,640920,1287710,8073773,223348210,43639,108362167,15151,3673,345899119,2080,1.56,0.74,0.72,0.05,0.0,60355380,56050000,4003000,74898878,23
100918200,2590120,67667098,737407,73067303,646656,1239914,7844112,229462485,35015,114645255,11488,3452,364097370,1959,1.58,0.75,0.73,0.05,0.0,62115808,54813000,6976000,76628210,23
125665334,3618371,83853208,762171,79203519,774387,1323986,8092850,250393893,45841,131154422,11803,4474,420787047,2209,1.71,0.8,0.77,0.05,0.0,68920638,64671000,3979000,83409421,23
285186708,914138,172622322,948745,175407176,880428,162656,2683679,346453710,10450,292644628,23177,4201,830350569,284,2.42,1.18,1.14,0.05,0.0,96262833,93977000,1999000,110613327,23
149939015,9876042,103521497,5035968,103499218,5080791,2829395,22620737,621376339,350356,155609071,19791,10408,506149553,3599,4.15,1.94,1.87,0.13,0.0,167788362,156426000,10959000,182363925,23
107225930,3307401,72110505,726983,68947524,772140,1889445,9034764,242163064,102897,112609360,17302,7591,378090245,2407,1.68,0.8,0.77,0.06,0.0,65346974,57885000,7108000,79989443,23
108004989,3303279,72865699,726748,69361159,767989,1879302,9072179,239293668,102944,112438060,15363,4575,381429272,2384,1.65,0.79,0.77,0.06,0.0,65092297,62746000,2024000,79555467,23
314085919,2968109,191766962,1113669,188543268,1175285,1316923,10025840,439846925,50004,320921630,23378,6051,948750946,2036,3.05,1.48,1.44,0.08,0.0,121014623,111690000,8975000,135631984,23
104182944,3301206,69627658,779793,71374754,670390,1137803,7779421,235464188,45572,112243053,22079,4232,367469411,1889,1.64,0.78,0.76,0.05,0.0,63659447,58208000,5017000,78420937,23
316417622,2860709,197029262,1145917,192796173,1206103,1345903,8474898,460196606,51926,318575976,23290,53255,957888862,2554,3.23,1.6,1.55,0.08,0.0,124050312,115770000,7984000,138527767,23
112330850,3556649,87167445,597303,86788568,600247,2185829,9950551,277994815,57630,106523477,42348,18168,385838738,7125,1.92,0.93,0.9,0.06,0.0,75018197,59800000,14950000,89637091,23
314275398,3373229,194621500,1188870,192060764,1202348,1479137,9445495,457573627,59250,317652671,28151,14152,945116015,2055,3.23,1.58,1.54,0.08,0.0,122384993,116934000,4997000,137057474,23
147767249,10380743,111222892,5872863,113174285,5761559,2658830,22856895,600610922,167211,153297797,22126,6906,495620174,3117,3.92,1.86,1.79,0.11,0.0,156649087,152279000,3981000,171254732,23
312467980,2939385,194445317,1140140,192249891,1171231,1269310,8299444,454579956,54007,318073127,22720,14422,948616957,1953,3.18,1.58,1.53,0.08,0.0,122753046,117443000,4976000,137133166,23
312094896,4183397,194089853,1408247,191486723,1427729,1323687,9376525,463962919,56341,324139004,22980,13301,947343696,2048,3.27,1.64,1.6,0.08,0.0,125034876,117729000,6983000,139862514,23
101329495,3164735,69659287,761060,74155932,665313,1387787,8301790,228221652,42906,112854714,15188,4491,360852993,2258,1.57,0.75,0.73,0.05,0.0,61868188,56534000,4959000,76467735,23
316653555,3492058,195269580,1246112,194525670,1196462,2298613,11058308,474674311,163661,314440557,22592,7055,954888477,2540,3.32,1.65,1.61,0.09,0.0,127497625,121250000,5963000,141908744,23
310776671,2721987,189473046,1141131,189353240,1127820,1318394,9043572,443150631,41467,320802588,25602,5678,948883905,2034,3.14,1.55,1.5,0.08,0.0,119507666,111188000,8013000,134285046,23
318148337,2723704,194760874,1083455,189728164,1135644,1285407,8633240,438453243,42560,317569825,23559,5611,958139720,1953,3.05,1.48,1.44,0.08,0.0,121176800,117796000,3020000,135866446,23
108795600,3095169,74435816,704624,74182851,720572,2118258,9075252,261481455,119106,113641910,16306,14631,384755669,2539,1.82,0.87,0.84,0.06,0.0,70739855,62502000,7936000,85417215,23
313396088,3178848,194365760,1211499,191221562,1272099,1438267,9390686,455286442,56662,318897567,24536,14628,946546130,2048,3.23,1.6,1.55,0.08,0.0,123026783,118696000,4023000,137263532,23
321195201,3302736,197411062,1294464,195471274,1323808,2223130,10669687,490462319,176629,313061391,23684,11626,953730584,2659,3.45,1.7,1.65,0.1,0.0,131934601,123605000,7974000,146494384,23
99423880,3068620,71583839,698502,75523565,631983,1160667,7980606,223601887,43102,110067699,13252,3420,350750839,1992,1.56,0.75,0.72,0.05,0.0,60538080,55203000,5018000,75233299,23
108464716,3150707,73349373,701413,71271646,724401,1836799,8231740,248086574,113433,112799164,16610,5579,382555335,2536,1.7,0.8,0.78,0.06,0.0,67136897,60790000,5979000,81762507,23
101005588,2683403,70754074,722964,74022644,646466,1293337,7890247,224993875,35118,109596933,12217,3507,359715613,1961,1.54,0.72,0.7,0.05,0.0,60356250,53041000,6875000,74982678,23
98841724,3214122,70764056,702021,74104282,635934,1249470,8224779,223849828,50480,109232507,12813,4228,350104825,2066,1.56,0.75,0.72,0.05,0.0,60504908,55165000,5015000,74987994,23
99065841,3118591,70341240,747228,72890960,663282,1106419,7779788,219281829,35687,107097545,11593,2839,344871877,1875,1.54,0.73,0.7,0.05,0.0,59413643,55058000,4004000,74013855,23
104934024,2629951,69317048,744009,72342795,663094,1316085,8187377,231549868,42725,114293554,15986,4174,374440886,2026,1.59,0.76,0.74,0.05,0.0,62263455,58883000,3045000,76567038,23
322816066,3229376,197601959,1234220,194482993,1175271,2035045,11121808,476767364,162952,313558697,19616,12820,964972262,2561,3.39,1.67,1.62,0.09,0.0,129602242,123277000,6013000,143938432,23
97804628,3233651,69777138,720967,73980906,652499,1222851,8160681,224393507,44815,109006780,14493,3936,343974171,2061,1.56,0.75,0.73,0.05,0.0,60558776,57216000,3011000,74825243,23
113073674,3153051,77888209,690735,76943098,693557,1804062,8090953,256800463,113544,119252242,17002,4678,393568995,2405,1.81,0.83,0.8,0.06,0.0,69619579,65247000,4015000,84221774,23
98912777,2655276,72177896,684783,76023689,639940,1229094,7718417,224362568,36848,108895817,12941,4049,353916930,2026,1.56,0.75,0.72,0.05,0.0,60560947,57202000,3010000,75021279,23
102276772,3152296,69436549,762801,73640552,665036,1391722,8647030,229794303,50521,113388834,15047,4833,361242860,2141,1.6,0.77,0.74,0.05,0.0,61909862,57574000,4040000,76542950,23
111473789,3496271,77078384,659749,74126649,699918,2442675,10568285,266043723,156143,112444220,38834,17811,383876038,2861,1.87,0.88,0.85,0.06,0.0,71980040,66662000,5050000,86561734,23
311508426,3358112,192533612,1169457,193676395,1137372,1242021,8547536,452696198,55998,316427518,23955,12277,935869332,2132,3.22,1.6,1.55,0.08,0.0,122029271,114646000,6978000,136586182,23
144627307,8153427,103631488,1998822,100077803,1930302,3006473,17451979,422634774,219576,138617313,25062,6806,504800625,3513,2.86,1.31,1.26,0.09,0.0,115723723,110400000,5018000,130303160,23
102472838,2659935,69628361,754224,73736820,660219,1318302,7942529,224233115,36250,112149033,11911,4071,365455109,2025,1.55,0.74,0.73,0.05,0.0,61250195,57861000,2992000,75722319,23
107469723,3104072,73632685,708655,74123939,742065,2230308,8921490,260710640,120536,113549326,11260,13520,380808665,2605,1.81,0.85,0.82,0.06,0.0,70311702,60994000,8999000,84805347,23
314952676,2924412,196134590,1114217,192039290,1162855,1410896,8382122,458757892,46543,319004362,39220,14662,958098621,2556,3.22,1.6,1.56,0.08,0.0,124093226,117705000,5985000,138652246,23
313128308,3111769,202009952,1273870,206660579,1181009,1885672,9513769,498144163,55558,314800872,49823,13517,964257893,7059,3.5,1.72,1.66,0.09,0.0,134482130,118060000,16008000,149007032,23
100176060,3186562,71029486,716632,73879168,643005,1212201,8074728,222112143,44480,108972990,11974,3279,351285623,1987,1.54,0.74,0.72,0.05,0.0,59984734,56694000,2983000,74368310,23
316962079,2792801,197370883,1197665,193339254,1262703,1523455,8677098,462841644,48541,318670683,23919,23826,958980949,2555,3.25,1.62,1.57,0.08,0.0,124399204,118090000,6004000,139209265,23
108548536,3105453,72217622,726199,69688728,770147,1716219,8176497,245821272,104754,111747282,16718,6449,381276468,2376,1.67,0.8,0.78,0.06,0.0,66101652,60678000,5056000,80551056,23
102892171,3041040,74158488,599351,77067049,479335,883285,7091775,205028418,34627,103373344,11928,2871,356897390,1805,1.44,0.69,0.67,0.04,0.0,55591833,52192000,3011000,70125354,23
311208370,3373094,192544697,1388843,190661420,1409819,1358046,9128552,456484763,59798,317845353,23628,14956,940802223,2061,3.22,1.61,1.56,0.08,0.0,122758028,119310000,3007000,137548287,23
103007655,2663782,69099181,750829,72402341,669431,1390552,8080689,228853804,38042,112802143,13987,4336,368711406,2094,1.6,0.76,0.73,0.05,0.0,62336807,59022000,3001000,77106783,23
289145534,990755,179209572,694696,178701852,695442,173034,3104702,337572384,18870,281605006,16536,10625,827495361,338,2.41,1.22,1.18,0.05,0.0,91539753,87156000,4007000,106067799,23
102300583,3302273,71589350,748707,73307184,656327,1102864,7896205,230451480,53213,108531220,18539,3257,357897910,2039,1.62,0.78,0.76,0.05,0.0,62702709,55362000,6920000,77151041,23
305689136,3338685,188694364,1141805,193347836,1062106,1387131,9161420,435882384,46656,317809716,24412,5500,921626691,2048,3.13,1.55,1.51,0.08,0.0,117815822,114496000,2986000,132148306,23
104705209,3431970,70996040,769403,73257986,671338,1118061,8102307,235055417,48638,109795268,27610,9376,363128369,2093,1.64,0.79,0.77,0.05,0.0,63983144,62647000,1010000,78310401,23
102832637,2841162,67772924,751735,69231544,711627,1201987,8187639,219832476,32626,115888305,13271,3700,365056455,1936,1.48,0.67,0.65,0.05,0.0,62015268,55741000,5972000,76583592,23
107239869,2958445,73080858,754263,74062455,669777,1039659,7474524,238685029,42952,111767637,28515,7516,380057057,1957,1.66,0.8,0.77,0.05,0.0,64302393,58874000,5075000,78965948,23
107614404,3660260,72851455,1002346,71538425,958530,1973737,9890666,241882648,97904,113873732,14414,5096,378822870,2508,1.7,0.82,0.8,0.06,0.0,65003388,55741000,8958000,79624482,23
288301993,1686468,173385901,1007963,175836990,941138,178318,3951930,360181923,10954,297153761,18119,3706,841879620,478,2.61,1.27,1.23,0.05,0.0,97604373,94279000,2977000,112166379,23
311269937,3447363,190687545,1209374,191198260,1120098,1207070,8910752,443850013,45148,316689957,27562,7703,935634516,1847,3.13,1.54,1.5,0.08,0.0,120103149,113815000,5990000,134649729,23
315084526,3452838,195382108,1206965,190709478,1185283,1193337,9144092,450172515,51861,314574277,29711,33305,946347959,2604,3.2,1.59,1.54,0.08,0.0,121776741,113444000,8031000,136460747,23
308553080,2580067,190646358,1183487,190782318,1089725,1155379,8418845,428773325,32306,315220469,15897,6292,928875716,1776,3.07,1.53,1.48,0.08,0.0,116568583,112244000,4008000,131058482,23
110948795,3544346,76797815,695079,72091109,716605,2136093,10160704,254024174,150479,111960566,19584,5688,382538391,3316,1.75,0.83,0.81,0.06,0.0,68338959,61031000,7003000,82602088,23
88915961,1121264,59567222,250406,58182512,286174,182337,2895080,134096628,5542,86881637,2593,1671,284119282,583,0.92,0.46,0.45,0.02,0.0,36301818,35020000,1000000,50890804,23
304909812,2703567,192422198,1021165,196427100,853922,921145,7322192,413954102,31050,310614732,23387,5602,921884429,1857,2.93,1.48,1.44,0.07,0.0,111467489,107187000,4007000,125969588,24
106209755,2550933,74784795,815867,76618929,593200,1041293,7278675,209467341,23532,107006248,9986,4376,366785249,2057,1.46,0.72,0.69,0.04,0.0,56460309,51093000,5009000,71073370,24
114117489,3548995,84993970,602910,87025321,472933,2291314,8586250,270160181,32244,117542400,44756,26071,421682302,9017,1.88,0.9,0.86,0.06,0.0,73185420,58785000,13949000,87692428,24
111200128,2755765,74726726,819116,73777605,763476,1857485,8743925,230555991,71004,115950352,17251,6379,391731574,2486,1.59,0.76,0.74,0.05,0.0,62170641,53736000,8111000,76893911,24
103986278,2448031,75261535,598546,77344641,461709,934647,6713554,202777800,23635,103481732,10310,2616,370357162,1865,1.45,0.67,0.65,0.04,0.0,55138105,51897000,2937000,69795080,24
111580015,2589652,76656966,725447,74276647,660187,1081679,7665111,214389192,29171,112617872,14880,3483,380486428,2819,1.47,0.71,0.69,0.04,0.0,57841547,51475000,6055000,72335805,24
308686008,2616139,191415181,1295874,191561561,1149251,1099995,8321114,418133377,30552,317859913,25083,5842,929257518,2002,2.95,1.47,1.42,0.08,0.0,114416604,108109000,5951000,128969213,24
106714629,2504232,74134729,674550,74908056,511167,1039512,6979645,205951255,24311,107630180,7747,4852,370733624,1887,1.42,0.69,0.67,0.04,0.0,56169299,52762000,3044000,70613800,24
305891620,2669616,191250536,1141831,192577865,964796,1117773,7830618,416238088,30111,314719095,20266,6060,929680204,1883,2.91,1.45,1.4,0.08,0.0,112630653,109262000,3007000,127103744,24
114107706,2860819,76817586,838030,74638690,782537,2044275,8845688,235420470,73329,114661954,14955,5547,401669484,2879,1.66,0.79,0.76,0.06,0.0,63930563,54499000,9083000,78498431,24
108693730,2523933,75249683,718933,75359141,571446,1148180,7463683,210786269,33130,108797546,11825,3172,371545599,1958,1.48,0.71,0.69,0.04,0.0,56660596,51243000,5023000,71383502,24
104188721,2544159,74804856,592384,77879118,435057,920029,6572964,203843129,29033,104848672,11866,3748,360792834,1958,1.41,0.69,0.67,0.04,0.0,55155720,49800000,4980000,69620566,24
106720415,2548201,74378041,640143,77237379,528740,1097696,7312755,210865096,25451,110069127,12218,3647,373638485,1963,1.47,0.72,0.71,0.04,0.0,57118004,52732000,3979000,71780749,24
156321982,8552964,114439163,5667042,114749368,5740028,6055607,22585312,687479686,748873,159193899,23713,12660,530786874,3397,4.52,2.09,2.02,0.17,0.0,186216837,180883000,4996000,201006261,24
306483793,2603283,190755090,1127582,192840720,977707,1091007,8039682,419965014,28474,315742117,22494,5784,928219614,1859,2.96,1.5,1.46,0.07,0.0,112815397,108509000,4018000,127396227,24
194030401,11342908,164116148,691029,166600273,649835,9394141,19955279,721976676,150507,198840353,232543,64752,829473209,60164,4.96,2.38,2.29,0.18,0.0,194519854,107582000,86663000,209211011,24
112282885,3744726,76589670,896668,76062095,818527,1887015,9316672,250115114,85361,116087395,14979,5265,404812845,2523,1.72,0.83,0.81,0.06,0.0,67448436,63041000,4002000,81896818,24
320098005,2851905,202153637,1176377,197612912,1298500,1896566,9504997,457594431,84985,308706355,20311,12674,955589853,2864,3.24,1.6,1.54,0.09,0.0,123163067,117817000,5034000,137846133,24
112557010,2872495,76333204,833631,75354532,781628,1962608,8953460,229898253,74633,115408567,12230,4694,395140978,2680,1.63,0.8,0.76,0.05,0.0,62338894,54942000,6992000,76690848,24
105472309,2517960,74672917,630746,76933731,460053,981684,6670050,207397842,22233,106849489,9492,4207,371156274,2055,1.44,0.71,0.69,0.04,0.0,55852028,52578000,2976000,70640479,24
309664982,2550924,192451854,1231948,190457830,1163047,1089648,8282504,423122404,31892,318099052,22102,6133,937676799,1952,3.0,1.52,1.47,0.08,0.0,114369030,111115000,3003000,128906112,24
106250468,2546755,75000223,637250,76226521,447703,920333,6740684,203547262,29918,104828298,9564,2770,369064952,1959,1.45,0.71,0.68,0.04,0.0,54966119,51588000,3034000,69530924,24
110320122,2825300,74900459,1042993,74832354,973940,1785475,8719572,233861294,73966,117832175,15060,4831,387614842,2679,1.63,0.79,0.77,0.05,0.0,63196307,57927000,4993000,77971242,24
132841177,3980346,94358301,1403873,91239901,1428973,3729715,12475987,331397340,241918,130996191,20061,6574,456558804,3720,2.33,1.11,1.07,0.08,0.0,90018713,83623000,5973000,104580158,24
110638712,2857297,75436172,828812,74539649,775751,2156426,9022751,232981481,73119,116129986,11951,7200,390553566,2684,1.63,0.78,0.75,0.05,0.0,62458063,58209000,4014000,76806126,24
103063344,2631085,73808168,632407,77118628,501202,1037575,7093704,207800739,23915,107310225,19996,6183,360586437,2348,1.46,0.7,0.68,0.04,0.0,56425003,50047000,6005000,70810871,24
302791054,2753928,191698090,1004639,196108914,843631,939801,7347055,413931131,30468,310345794,22167,8677,919596959,2066,2.94,1.48,1.44,0.07,0.0,111502046,103182000,8014000,126165652,24
386284885,7499969,253224920,1043605,255602316,1013909,9219946,21443689,844971237,619592,385974030,75118,17448,1213203136,8566,5.86,2.72,2.63,0.21,0.0,228478013,212152000,16011000,243401289,24
317857315,2948468,202138576,1215138,203926967,1223943,1509266,8986183,450824397,42646,324936975,28787,13136,986225443,3320,3.2,1.59,1.54,0.08,0.0,121711582,116431000,4975000,136143279,24
304573583,2668815,192064355,1098648,196236146,922335,913182,7381597,413955126,28361,310556880,23391,5819,920847821,1956,2.95,1.5,1.45,0.07,0.0,111501178,106173000,5008000,126093221,24
111074118,2398476,77834418,675974,80376020,599528,1258503,7907846,228227949,32409,117589641,11101,7117,401842697,2431,1.57,0.77,0.75,0.05,0.0,61388458,55062000,6006000,76323256,24
111906632,2818782,75473907,816679,74044141,783225,1960754,8901299,239802864,75914,116688489,17332,7741,395998874,2685,1.68,0.81,0.78,0.06,0.0,64042347,58695000,5059000,78611801,24
105060352,2466270,75297987,612351,77505992,488688,987064,6905927,202972662,22983,105293961,10868,3174,369585676,1865,1.43,0.69,0.67,0.04,0.0,55698825,52378000,3021000,70257969,24
107952471,2239792,72813710,1040445,75460779,854594,1082042,7746641,222671995,32776,115080472,13076,4045,377199470,1960,1.54,0.75,0.73,0.04,0.0,59877633,57579000,2020000,74367273,24
304697603,2769838,190685219,1068782,194329702,931450,1027597,7786574,416338386,31473,313135958,26524,6112,923761801,2150,2.97,1.5,1.46,0.08,0.0,112679141,108386000,3977000,127243332,24
321031906,2802276,199358923,1270234,196358230,1402247,1864298,9670877,450205299,81572,309199703,19299,10234,958356715,2671,3.2,1.62,1.57,0.09,0.0,121640696,116210000,5009000,135991457,24
102950852,2418742,73217873,874076,76164076,709719,1106494,7454627,217534826,27809,110664206,13079,3291,364072590,1963,1.51,0.73,0.71,0.05,0.0,58678104,54397000,3956000,73457211,24
104293091,2460447,74269695,609590,77991177,482997,969228,6960744,209436804,25815,109096697,12113,2695,366845648,1959,1.47,0.72,0.69,0.04,0.0,56558406,49337000,6907000,71069710,24
318874352,2592560,197825995,1245278,195940685,1318223,1676715,8923258,449013125,72738,309406360,27246,7174,956800381,2673,3.18,1.61,1.56,0.08,0.0,120904800,112495000,7964000,135450725,24
104265158,2560473,73833926,612932,77020022,441121,978752,6714098,206361839,29810,106775217,10953,3552,360737740,1863,1.44,0.7,0.68,0.04,0.0,55549858,51227000,4017000,70060557,24
113555745,2816578,78415009,836161,76180155,778967,2015734,9004323,235665494,74034,114516928,10249,11696,403739077,2991,1.66,0.8,0.78,0.05,0.0,63601717,57247000,6026000,78232917,24
305689785,2666350,190048782,1103867,193611493,941243,1111082,7713656,419563378,27192,315612680,26382,6155,926131842,1856,2.98,1.52,1.47,0.07,0.0,112924231,102581000,9959000,127640342,24
103503119,2524604,73721212,632091,76659788,443708,968445,6516953,204307957,23719,104762227,11164,3885,359715115,1861,1.44,0.71,0.68,0.04,0.0,55337385,53031000,2001000,69682780,24
324155383,2703731,208249667,968831,204379570,1100586,1602463,9865961,446969637,60120,303690638,33215,10710,962289095,2874,3.18,1.59,1.54,0.09,0.0,121542012,115220000,6011000,136016590,24
105735490,2484324,73902821,649219,76950524,518387,1215135,7272784,216396212,23623,109619290,9679,3320,373356247,1868,1.47,0.72,0.7,0.04,0.0,56924147,47573000,8920000,71720755,24
103875136,2595257,74921789,563312,77399972,435390,936657,6533905,202100006,23148,104658320,10149,3776,360894141,2004,1.41,0.69,0.68,0.04,0.0,54823034,48560000,5946000,69163140,24
106536338,2538687,73634132,680994,75351649,511349,1066035,6860849,208965751,27969,109407345,10541,6460,372631707,2059,1.47,0.72,0.69,0.04,0.0,56297372,52004000,4000000,70705160,24
311503115,2409746,191512625,1234729,189891764,1197251,1196278,8564223,428909965,31685,321983566,23370,6073,948776690,1858,3.04,1.52,1.48,0.08,0.0,115474954,114120000,1001000,130200449,24
109567470,2819947,74227061,1130733,74110093,1062845,1847020,8751655,232520101,72438,118272814,17349,6333,387572243,2532,1.64,0.79,0.77,0.05,0.0,62734821,55393000,6924000,77468969,24
135997103,2420398,102235264,3223369,102888443,2985052,1142915,8413506,313909881,25888,137169917,10723,4246,519790255,1954,2.15,1.04,1.01,0.06,0.0,85034258,80684000,3984000,99622552,24
114004025,2808575,77219460,855433,75528474,803403,1981608,8981399,236196805,76320,114401274,16681,4986,397975496,2681,1.66,0.8,0.78,0.05,0.0,63807569,58529000,4960000,78371372,24
111917137,2792892,76276828,875831,74790972,819398,2019100,8976744,231601026,76140,114305792,16229,6820,392778063,2680,1.63,0.79,0.76,0.05,0.0,62962873,56647000,6069000,77388022,24
104515985,2530300,74488000,586891,77149737,438350,956899,6530982,203988360,24706,105483638,10840,3524,362978379,1856,1.42,0.7,0.68,0.04,0.0,54889370,47589000,6940000,69598874,24
103985645,2505203,73749871,663498,76389377,472873,1019441,6505246,204906115,22371,104927397,11324,3370,362214753,1862,1.44,0.7,0.67,0.04,0.0,55156796,53803000,1015000,69708395,24
305185315,2697785,191044186,1140092,193159014,962961,1061724,7732309,416056697,28429,313268108,19489,8603,923737464,1882,3.0,1.49,1.44,0.08,0.0,112331287,110985000,1008000,126660154,24
104067334,2551190,74271186,591197,77625667,443267,1047400,6617688,207627889,24602,107465250,10572,6080,363417869,1984,1.45,0.71,0.69,0.04,0.0,55942277,53574000,2021000,70557531,24
108430495,2659779,75115255,735002,74443874,588955,1247183,7230884,213065726,28000,109009420,12579,3600,372104107,2446,1.5,0.73,0.71,0.05,0.0,57650102,53260000,4019000,72448176,24
112148967,2500213,75257474,656076,77803232,554141,1108841,7435290,213972643,26180,115078996,10831,4378,387653348,1961,1.51,0.73,0.71,0.04,0.0,57778537,49550000,7928000,72373131,24
100526364,2192984,70315754,622464,73006088,450070,874360,6245919,197866541,24201,101925046,11991,3275,344805395,1920,1.39,0.69,0.66,0.04,0.0,53471108,50143000,3008000,68031388,24
104357746,2548091,72976600,631120,75915360,492358,1089625,6965748,209677705,24725,108265403,12799,3325,364266218,2003,1.46,0.71,0.68,0.04,0.0,56376109,50937000,4993000,70679928,24
104190560,2498496,74058615,607659,76473955,443967,1001243,6604880,205200916,24167,105298389,10490,3407,364674226,1879,1.44,0.71,0.68,0.04,0.0,55214229,51833000,3049000,69708510,24
112970597,3167683,86994225,502287,85178358,709088,1551082,8287512,254395331,39457,108639375,21113,27081,399068533,7233,1.77,0.86,0.82,0.06,0.0,68346829,56061000,12013000,83043313,24
103956842,2477268,73058958,650915,76011067,529993,1089462,7214103,209537562,26244,108211545,11441,3564,367541014,1865,1.46,0.71,0.69,0.04,0.0,56994741,52691000,3976000,71230386,24
406926106,7306302,266947932,2848631,263676014,2703737,5170420,21434599,857259696,111926,397712487,233042,167153,1316457558,5963,4.27,2.27,2.21,0.11,0.0,130720373,119985000,7999000,145093673,24
122287499,3378380,87106144,763540,86366319,584148,2446892,9211118,270501703,83557,123408707,23418,7825,444690746,4227,1.9,0.91,0.88,0.06,0.0,73019928,60609000,12121000,87770593,24
110449628,2797892,75080403,853108,74579871,808612,2157268,9055364,237596356,74262,116082931,12138,7080,392801507,2683,1.66,0.8,0.77,0.06,0.0,63323398,55035000,8005000,77932886,24
323554483,2863594,202581615,1171019,203540204,1127141,1337280,9097257,450919711,41259,327223351,24560,6892,993929277,2519,3.19,1.61,1.57,0.08,0.0,121128132,111717000,9058000,136013347,24
111827305,2408591,77901465,1628242,78665290,1583930,952487,7565316,241896794,28118,113925777,11754,4876,405008569,1959,1.66,0.8,0.78,0.05,0.0,64359780,59927000,3995000,78918582,24
310765190,2639419,192348430,1168675,190556953,1093040,1185631,8171149,420484614,30400,318841474,22906,5673,937210192,1953,3.0,1.52,1.47,0.08,0.0,113674472,109285000,4010000,128168042,24
114408598,2750188,78423406,858257,75637880,807311,2014432,8937194,232308346,72602,111614818,16143,5194,399512921,2682,1.62,0.78,0.76,0.05,0.0,63217288,58902000,3926000,77800272,24
116206350,2873280,78974974,770907,75104974,811613,1772150,8631186,241360376,76057,112687947,12477,5427,406381490,2489,1.67,0.8,0.78,0.06,0.0,64997541,56540000,8077000,79452940,24
307738543,2555523,190412035,1119795,192319212,1013259,1165440,8172983,422569806,30180,318775796,22912,6154,933063463,1860,2.98,1.51,1.46,0.08,0.0,114011925,109596000,4021000,128486527,24
329709702,3073952,205338413,1034439,207236096,1037619,1586130,9527444,478270539,40065,331352515,25474,8260,1003555031,3161,3.35,1.7,1.66,0.09,0.0,128689761,123292000,5011000,143373239,24
129692190,2944967,94315360,1544388,92883374,1494661,1909632,8760722,284049956,82644,128657888,15706,5881,447666773,2682,2.0,0.92,0.89,0.06,0.0,77798390,72504000,4966000,92068196,24
307171181,2580325,191182537,1098198,192563615,993971,1113999,8162455,421152174,32746,316621108,19196,5358,937980587,1858,2.99,1.51,1.47,0.07,0.0,113660890,109249000,4009000,128382982,24
306251128,2724934,190522967,1120028,193270048,981908,1123218,7901941,416576240,31135,314042523,22164,8897,925131323,2052,2.96,1.5,1.46,0.08,0.0,112792113,108461000,4017000,127293827,24
240766663,11951903,183802104,8185265,183900555,8199586,9464198,27766294,1029958194,1002869,239805338,45415,16255,812676125,8736,6.87,3.17,3.05,0.25,0.0,277969080,265778000,11990000,292493641,24
305713716,2636431,190249882,1096083,193055997,977221,1057133,8021250,420435223,28788,317397156,21442,5257,933042744,1853,2.98,1.52,1.48,0.07,0.0,113698604,108271000,5012000,128533434,24
121927553,3210477,89459186,468610,91107874,430743,3111543,8470531,281716567,261373,127438792,27799,7316,438810313,3992,1.99,0.95,0.91,0.07,0.0,76147739,66870000,8982000,90790390,24
107514719,2491900,73977825,691264,75829666,540482,1043244,7133215,207077090,31777,109316367,14907,3092,368608328,1977,1.45,0.7,0.69,0.04,0.0,56277056,52864000,2992000,71065377,24
117942587,3516017,77297861,783864,79137837,791259,1435019,9210082,251170459,57320,133627859,16770,5921,430357470,2684,1.73,0.84,0.81,0.05,0.0,67411192,61067000,6006000,81909642,25
130844105,3130534,85688490,640740,77685627,742197,1635912,9770934,255795044,55230,132123440,16667,4891,453397030,3071,1.76,0.84,0.81,0.06,0.0,69315533,64008000,5000000,83904679,25
117675920,3317026,76692888,775528,79462405,754397,1329457,8449040,244024935,51598,132670277,18225,5089,425287565,2635,1.7,0.82,0.79,0.05,0.0,66109577,62636000,3030000,80850539,25
130294801,3477832,84005138,741374,77268224,776812,2020551,9994367,256893322,104434,137484952,16273,5055,455143530,2522,1.76,0.83,0.8,0.06,0.0,70258500,66855000,3038000,84883824,25
127805027,3302044,84940079,618241,80109416,714136,2297313,10233740,264128787,132685,133571460,16494,5380,443218910,3088,1.83,0.88,0.84,0.06,0.0,71318508,65020000,6001000,85836637,25
118634280,3383744,77546474,768280,79596957,748975,1298439,8534802,248243799,50649,131725367,21834,4030,428576166,3119,1.71,0.83,0.81,0.05,0.0,66768714,61505000,4960000,81309202,25
131440352,3617115,88506594,590904,84807277,614477,2184487,10357329,272691439,164187,125224280,19846,5559,454616650,3235,1.88,0.91,0.88,0.06,0.0,73615698,68160000,5011000,88139103,25
317956574,3508965,199740768,1194354,205187849,1088373,928533,7931340,449498708,40041,329513404,25669,5576,964116843,1966,3.16,1.59,1.54,0.08,0.0,121340847,116027000,5001000,135703312,25
322126335,3693444,200150636,1249410,201787759,1236321,1523762,9477387,469112036,38144,340971411,28249,6165,990322165,1905,3.21,1.6,1.55,0.08,0.0,123251302,119938000,2998000,137778671,25
131712417,3643059,89147296,660042,87779397,596776,2082939,9747810,277411433,159870,117881178,20104,6429,433188305,3635,1.94,0.94,0.9,0.06,0.0,74906284,65523000,9072000,89439982,25
128702467,3779059,88343447,630784,87575875,602122,2050059,9843239,279876341,152131,117265835,20965,6058,435196709,3438,1.92,0.91,0.88,0.06,0.0,75569213,68246000,7025000,90027057,25
115096594,2862283,99552915,630270,94783558,743005,1544246,9693098,260666628,51324,118460922,15778,4607,509335517,2528,1.82,0.9,0.86,0.05,0.0,70243071,65890000,3993000,84564903,25
118869338,3358943,77551756,741269,79210522,734507,1299096,8612433,249575203,48777,133879057,15112,4013,429203034,2440,1.71,0.84,0.82,0.05,0.0,67095684,58824000,7976000,81618228,25
122955190,3989112,88020101,677690,87155567,632942,2329490,10156511,286279920,153736,120240298,14888,6186,413672998,3233,1.99,0.95,0.91,0.07,0.0,77286897,69858000,7087000,91747091,25
346255361,3075359,212466309,1273943,205331376,1336353,2245016,12951395,479505156,151529,327680893,21738,15000,1029835848,2535,3.38,1.69,1.64,0.09,0.0,130127120,121777000,7985000,144985850,25
324287748,4903055,203512843,1429803,204716059,1366727,1746047,11878345,496705415,84638,334018227,32341,6825,980312656,2656,3.48,1.73,1.68,0.09,0.0,134728234,129281000,5010000,149453873,25
110593891,4357716,80111588,785093,84300404,661628,1297982,8603811,239170025,36284,124106604,15719,4038,393954509,2658,1.67,0.81,0.79,0.05,0.0,64607641,58367000,5935000,79390637,25
114204388,3806307,73813183,794126,79236279,746191,1209676,8888417,244158614,47442,133036759,14245,3994,412932756,2240,1.68,0.81,0.79,0.05,0.0,65818435,62521000,2977000,80097562,25
327192725,3336911,201359036,1250087,200337505,1251040,1185723,9435797,449436536,36729,342273760,24266,5567,1003050961,1969,3.15,1.54,1.49,0.08,0.0,124130826,122859000,1007000,138439710,25
118890871,3729449,76134432,818200,78867123,789329,1660464,8997499,244637368,87817,135585889,16415,5169,426772830,2517,1.72,0.83,0.8,0.06,0.0,66703567,61346000,5028000,81039969,25
112336415,3858606,83011372,768747,88302125,668308,1051921,7656197,235290294,44210,119859725,10559,3014,382569030,1926,1.63,0.8,0.77,0.05,0.0,63481088,60166000,3008000,78163386,25
334974358,3257347,204343805,1042514,201317084,1152807,1782293,11833759,472112719,78440,337341718,28459,6336,1019604315,2728,3.31,1.67,1.62,0.09,0.0,127602139,120257000,7015000,142426822,25
325012062,3200381,198461937,1146796,199940453,1163539,1454452,9677232,462630942,56873,341948246,27141,6950,1001766988,2429,3.26,1.63,1.57,0.08,0.0,125461600,119149000,6007000,139952319,25
331273453,3284475,207617928,1059538,207695267,988143,1403358,10182635,477313332,75285,330863664,28822,6568,1000788030,2951,3.28,1.61,1.55,0.09,0.0,131794253,124566000,6975000,146219161,25
114124903,3279502,83302190,697985,87111780,568953,1023263,7111067,225193268,39321,115819443,13945,3783,384505427,1973,1.55,0.76,0.73,0.05,0.0,61839967,57484000,4033000,76106288,25
327319021,3308699,200219494,1107208,199190058,1166580,1600017,10526154,468384242,58961,341580823,27459,6223,1014637831,2455,3.28,1.66,1.61,0.08,0.0,126103476,119802000,5990000,140720804,25
116492984,5021671,91387365,762676,95551218,729334,2087207,10368778,302221316,80478,127044335,47396,12072,423293087,8200,2.08,1.0,0.97,0.07,0.0,81741325,70358000,11056000,96320884,25
325745315,3349886,199799487,1140308,200557311,1158544,1354430,9944914,463047601,54661,339723850,25803,6373,1001814566,2280,3.28,1.63,1.58,0.08,0.0,125337153,121019000,4000000,139845776,25
115054993,3301146,84066265,686167,87411775,556233,1107590,7114550,228225757,39786,113514145,10072,3053,386865908,1878,1.59,0.77,0.75,0.05,0.0,61597590,58261000,3013000,76255759,25
112757263,3500825,75015467,764490,81018565,726245,1232123,8434543,241501525,46015,130404778,12941,3969,406875387,2436,1.7,0.82,0.79,0.05,0.0,65290450,60811000,4054000,80141893,25
117972151,3513906,77318658,757620,79467140,744052,1333388,9048564,248463843,55220,133180611,15021,4197,426059558,2685,1.71,0.83,0.81,0.05,0.0,67209824,58901000,7986000,81753188,25
124740097,3858879,89769528,679489,87787169,611571,2171222,9516009,285284737,142036,117230529,21683,6389,421367949,3437,1.95,0.93,0.9,0.07,0.0,76502751,71178000,5012000,91026069,25
117528736,3281825,76528119,773142,79035033,748530,1257646,8554117,244605075,55674,131862231,16863,4988,422907454,2436,1.73,0.83,0.8,0.05,0.0,66252640,62782000,3037000,80808457,25
332074108,3120379,202753664,1090315,199822744,1183330,1636341,10563656,466907779,55808,338786478,27086,6417,1017071208,2604,3.3,1.63,1.59,0.08,0.0,126239988,120996000,4999000,140732505,25
122702770,3061350,81284240,833784,79406369,879386,1431430,8992170,255180913,51082,132224391,16864,4163,441624777,2435,1.77,0.86,0.83,0.05,0.0,68293150,60838000,7097000,83047518,25
115967584,3488002,76143821,778076,79451710,754327,1413038,8853863,247078831,57874,131881198,19500,4984,421794015,2727,1.72,0.84,0.8,0.05,0.0,66250657,59811000,6082000,81172209,25
329690116,3256172,201865247,1061321,202186542,1172112,1700205,11663163,472273722,78698,339622375,33349,7082,1015533785,2922,3.3,1.66,1.62,0.09,0.0,127361665,119052000,8003000,141871242,25
116776770,3211294,75800339,765410,79119747,747536,1363394,8530805,247423821,49825,131568788,15507,3900,418804266,2436,1.73,0.83,0.8,0.05,0.0,66345763,62964000,3046000,81200719,25
125420176,3172173,82246970,699396,79283263,740478,1524884,8912261,254204037,57910,132467595,20363,7011,443232320,2840,1.75,0.85,0.82,0.05,0.0,68524118,63222000,5017000,83035357,25
129748694,3052964,83651688,723950,77402961,800890,2247868,10411396,250543683,120215,133512199,13207,4396,449833151,2518,1.7,0.78,0.76,0.06,0.0,70402138,66135000,4008000,84843339,25
112695100,3308835,82274491,726243,87896585,603895,1226418,7501134,235783150,37890,119202090,12978,4675,377004880,1973,1.63,0.8,0.77,0.05,0.0,62619773,59038000,3001000,77386179,25
115304206,4542005,92750383,758459,98443170,721691,2182197,9886525,299108892,69585,122025132,51260,11739,403446946,7761,2.06,0.98,0.94,0.07,0.0,80559675,64209000,16052000,95128575,25
344792596,2962127,213486680,1379423,205232155,1487424,1672774,13071137,476093233,74797,327898105,24201,5618,1036318645,2656,3.38,1.7,1.65,0.09,0.0,128508432,127193000,1001000,143259847,25
115465714,3679630,79186542,661468,75160567,661094,2042778,9812770,259507533,135546,122694667,17280,6800,395746036,3113,1.78,0.85,0.82,0.06,0.0,70196792,62818000,6979000,84733254,25
331838176,4013419,211216317,1412365,213795925,1392027,1925881,11239519,503567238,149103,325515986,23956,8724,990280715,2787,3.56,1.76,1.7,0.1,0.0,135615762,125263000,10021000,150181609,25
343337301,7158835,211752747,1592312,210650773,1630151,5636079,18178296,716644548,522757,354142538,42511,11444,1064477818,4578,4.89,2.3,2.22,0.16,0.0,194789163,184495000,9972000,209343960,25
121729131,3147713,77479923,761617,77561313,756473,1481709,9033764,253571794,51303,132652409,14658,3817,438219556,2435,1.71,0.83,0.81,0.05,0.0,66337158,60812000,4984000,81166500,25
328431419,3290562,200607101,1091095,198771923,1160351,1580747,10823862,467006387,57894,340658320,28989,5985,1015440259,2480,3.29,1.65,1.61,0.08,0.0,125799789,121446000,4014000,140466844,25
118714615,4010333,76688710,820255,78849535,780203,1668730,9532823,253788772,92024,136735040,18717,4629,428188419,2718,1.76,0.86,0.84,0.06,0.0,68210823,61918000,5992000,82828923,25
130531763,3612752,88203430,627246,87123296,579033,2188292,9999715,275221321,168075,119089104,20134,6599,438425846,3435,1.88,0.88,0.85,0.06,0.0,74788850,68494000,5956000,89379570,25
111445204,3683888,81381953,746775,87292465,621093,1134659,8016560,234022248,42004,122721354,14752,4540,380056602,2063,1.63,0.8,0.78,0.05,0.0,62851441,61520000,1008000,77322686,25
334341442,2899056,205230300,1042770,201675058,1134935,1856362,11098524,476303741,67562,340128577,25848,6267,1022175164,2830,3.37,1.69,1.63,0.09,0.0,128126302,121819000,5991000,142726615,25
120080800,3652745,76264494,825794,77341862,803365,1815974,9423945,253169835,95807,137637986,16508,7401,431963864,2516,1.76,0.85,0.83,0.06,0.0,68372759,59060000,9009000,83113443,25
171955836,11207955,122511375,5850528,122852189,5832974,5174246,27636389,766751974,783476,164395950,33585,18484,563185484,5361,5.13,2.39,2.31,0.17,0.0,207217168,194928000,11995000,222050536,25
123821411,3328750,79128520,710864,76694838,760092,1615820,9631560,255111448,59418,134904526,15934,4860,441126733,2684,1.77,0.86,0.82,0.06,0.0,68078161,63714000,4045000,82767770,25
115465278,3348525,76367780,781317,80953572,761069,1348896,8674510,248468120,52376,132266595,19095,5903,416355037,2731,1.73,0.84,0.81,0.05,0.0,66580166,60397000,5940000,80991274,25
324996268,4239218,202894753,1260611,205358772,1273692,1614588,10036472,500114671,63608,338142676,30699,7018,1002545584,2718,3.49,1.75,1.7,0.09,0.0,135315497,129096000,5958000,149908243,25
117270269,3349300,76400812,771967,79991241,753004,1338745,8452516,249115522,51249,132782383,17723,4196,425324298,3115,1.71,0.84,0.81,0.05,0.0,67113240,59816000,6978000,81767480,25
133448061,5500255,98016654,777195,100344072,679212,3700109,13091712,336866891,248422,120063849,65822,15021,456646891,9101,2.33,1.1,1.05,0.09,0.0,91241184,72718000,18179000,106017628,25
339166545,3016027,212465256,983404,207827816,967216,1704951,10603869,482126984,80910,326808497,32507,8108,1019998535,3113,3.4,1.65,1.59,0.09,0.0,130747205,126470000,4014000,145126735,25
334967304,3145646,208655626,995168,204014324,1115658,1714490,11727553,478753079,75284,335820648,30028,7756,1019436036,2831,3.38,1.68,1.62,0.09,0.0,129207285,117902000,10990000,143799938,25
112922914,3512825,74842656,789970,80803665,747191,1162530,8379448,245032676,40991,132081960,12572,3809,411971702,2217,1.7,0.82,0.8,0.05,0.0,65826314,60618000,4968000,80445349,25
333962372,2877165,203660052,1195320,198840179,1303548,1568504,10799483,470672509,53511,341903120,28383,5506,1019862874,2233,3.32,1.66,1.61,0.08,0.0,127143992,123846000,2996000,141435267,25
337446363,5091589,228894995,1175834,231118894,1109493,2612804,10646321,572754260,105439,325048466,92512,18757,1045463847,13662,3.99,1.95,1.9,0.11,0.0,154037896,136750000,16969000,168657230,25
330285424,3024193,202056730,1533706,199647346,1538686,1290452,10000960,464063143,42099,341920470,24939,7744,1012277270,1873,3.29,1.67,1.62,0.08,0.0,125373042,118057000,7003000,139933080,25
116788765,3203059,75434403,772037,78507989,747955,1326790,8429477,242966703,53921,131987974,16317,4264,422675919,2531,1.7,0.81,0.78,0.05,0.0,66131583,63809000,1994000,80335068,25
331090628,3912577,208134845,1094463,208858804,1052940,1498704,10576623,492426527,80379,330997437,28249,7122,1003534874,3133,3.46,1.72,1.67,0.09,0.0,132594908,125305000,7017000,147308424,25
328723400,4035906,205466237,1385256,207583886,1326042,1870337,10014364,511160207,152622,330192247,27656,11813,993572828,3029,3.57,1.78,1.73,0.1,0.0,137229025,128952000,7997000,151598749,25
129926303,3119174,85123632,684955,79154014,808856,1654977,9092562,257691263,51016,132674525,16455,3771,452850518,3199,1.79,0.87,0.84,0.05,0.0,69555094,64261000,4943000,84084527,25
170940115,14206217,119593568,5535595,113490871,5595834,8473466,34538830,869477260,1118978,171211111,34311,13242,578569149,4853,5.79,2.68,2.58,0.21,0.0,235538369,224238000,11011000,250193555,25
115999373,4726041,88277988,790145,93321712,732739,2353423,9843708,290388056,127780,120014845,32798,8374,384663122,4665,2.02,0.96,0.92,0.07,0.0,78614439,65228000,13045000,93293911,25
328200661,3054231,200970159,1087075,199436336,1155648,1606930,10194386,467958451,55804,340634190,27649,6043,1016488980,2429,3.3,1.65,1.61,0.08,0.0,126029605,118750000,6985000,140512589,25
126762079,4347810,92908369,740647,90656883,654513,2463294,10016950,286483489,171709,113776913,23660,7074,417017071,4597,2.0,0.95,0.92,0.07,0.0,77723413,65486000,11906000,92432052,25
121017607,3632074,77305294,832117,77476695,807763,1877139,9171243,250357669,87501,136745495,14459,4879,433897514,2518,1.74,0.84,0.81,0.06,0.0,67934463,62643000,4971000,82430136,25
355309739,5688634,224855575,1271065,227501259,1278060,2899035,17271776,581962356,144241,360990788,42174,11074,1109109829,4544,4.07,2.01,1.95,0.12,0.0,158025329,146608000,11045000,172485555,25
118274878,3103349,86374289,591582,89462329,489137,922856,7598379,224694650,47628,110251632,13518,2925,396950617,1878,1.59,0.77,0.74,0.05,0.0,60948327,57574000,3030000,75585365,25
116445618,3730860,105871243,743290,109797795,698064,2037575,9294814,295615922,120570,118837427,15284,5845,488618261,2997,2.04,0.96,0.93,0.07,0.0,80092192,75830000,3991000,94519963,25
114995730,4696502,85270843,856373,87861210,772659,2684569,10861362,295205749,155162,125723545,15582,6808,400750274,4411,2.04,0.97,0.94,0.07,0.0,79705131,71217000,8024000,94108486,25
203341804,11567932,168419350,12743721,164385363,12852197,2900531,26576936,929235985,329307,205327903,31682,12114,751694615,4843,6.17,2.97,2.87,0.17,0.0,251815929,246438000,5008000,266395884,25
153236590,16487990,100103581,2641216,97669205,2573165,2516967,37189064,410318498,235660,162539257,17887,5286,536191051,2430,2.89,1.42,1.37,0.09,0.0,110719318,106327000,3974000,125347688,25
305371177,2314375,189678225,890018,191091910,898066,754912,6769684,406334212,29532,308681436,24589,5640,916195085,1853,2.85,1.46,1.42,0.07,0.0,109010518,104755000,3990000,123580447,26
309717528,2381511,193418982,883981,190835308,892552,931592,6854005,413119227,34442,308780414,29283,5559,927464138,2723,2.88,1.46,1.41,0.07,0.0,110730715,105396000,4971000,125286980,26
309142519,2429982,191242696,915114,191260191,917014,1172769,7774689,419454919,34773,316979828,23063,8231,932218841,2818,2.96,1.51,1.47,0.07,0.0,112608763,109299000,3008000,127307936,26
103670798,2173084,72761247,479207,71093116,479854,740505,5809372,190240799,25174,100921075,10120,2983,352680354,1943,1.33,0.66,0.64,0.04,0.0,51696215,47265000,4022000,66329258,26
112742969,2645089,78732899,538814,75887598,513714,1966997,8062035,229095233,64851,106353875,26918,6819,383904962,4597,1.6,0.78,0.76,0.05,0.0,61899341,53700000,7955000,76472454,26
103978575,2157196,72080041,487550,71340941,482073,719571,5970295,189792123,24351,102082049,10164,2670,352139284,1955,1.34,0.66,0.63,0.04,0.0,51108528,48762000,2031000,65862248,26
307864758,2284176,192109506,885099,191356135,893725,679129,6599273,397771025,29074,305637000,21758,5486,916470577,1873,2.81,1.41,1.38,0.07,0.0,108649683,105367000,3010000,123324993,26
310822101,3510279,193692598,999828,194726970,1085490,1570828,10247912,455480395,83349,314520851,32195,6820,932431526,3289,3.23,1.61,1.56,0.08,0.0,123169062,111784000,10978000,137759997,26
101031363,2509311,70074685,503461,70813344,490334,1174356,6655685,206143663,59926,106725200,21352,5379,350936989,2627,1.44,0.69,0.67,0.05,0.0,56001008,46679000,8938000,70411034,26
98304363,1839744,68555071,479112,69380955,463412,660459,5552706,184282242,22736,99101955,12127,6558,339634284,2062,1.29,0.64,0.62,0.04,0.0,49967096,45718000,3975000,64586932,26
101257868,2552189,70423857,500319,71614950,491942,1192427,6687188,209352365,64194,106386056,17228,4336,351616872,2459,1.44,0.7,0.68,0.04,0.0,55700734,50267000,5026000,70440321,26
102756397,2536496,71448875,503743,70500494,492169,1244608,6621415,208965556,59759,106675452,12773,4003,356058701,2643,1.45,0.71,0.69,0.05,0.0,56065646,48802000,6971000,70602629,26
15575802,562403,9529130,141701,9771896,64852,216847,1063273,37365816,3749,16930389,2478,1504,72886485,1129,0.28,0.14,0.13,0.01,0.0,9871314,4784000,4784000,24515636,26
103264373,2543360,71935790,503059,70735738,489584,1291643,6707968,209109745,59379,106600489,13740,6094,356969171,2643,1.45,0.71,0.69,0.05,0.0,56305452,48883000,6983000,70692280,26
119017759,3748952,85877041,556427,85667118,528919,2820301,11847578,332642572,201920,118640509,22258,5916,411554683,3032,2.25,1.06,1.02,0.08,0.0,89815116,88531000,1006000,104335170,26
109592615,2898146,73016589,599336,71625264,597143,1550254,9625456,222728913,69473,111185003,16386,5243,373422331,2455,1.56,0.75,0.72,0.05,0.0,60545207,54177000,6019000,75287353,26
104251773,2539475,71634599,512704,70598864,497008,1377111,7062198,206307615,59576,107302332,15558,4872,360533591,2550,1.43,0.67,0.65,0.05,0.0,57459765,50132000,7018000,71845602,26
101082724,2521892,69966346,497374,71583631,500146,1159090,6424527,205878480,60806,106877042,13690,4257,347791237,2462,1.45,0.71,0.69,0.05,0.0,55484517,53068000,2002000,70006611,26
311142792,2292987,193744725,884769,190109074,880822,802318,6958342,408023151,29556,308425532,27702,7503,926099308,2593,2.89,1.46,1.43,0.07,0.0,110122758,106771000,3021000,124873155,26
101080651,2186637,70522044,493949,72089736,479997,716783,6268408,191007368,23470,103236132,7761,3665,351864288,1854,1.34,0.66,0.64,0.04,0.0,51726172,49459000,1978000,66280217,26
101651579,2179299,71501137,494127,71315009,495751,770957,5838420,193147132,24537,102386696,13962,3493,348981819,2041,1.34,0.65,0.63,0.04,0.0,52777347,47382000,5040000,67561487,26
102603384,2171423,71393341,485410,71685697,477879,723060,6039569,189866979,23851,102398207,9720,4953,349999146,1850,1.34,0.65,0.63,0.04,0.0,51343257,46986000,3998000,65703714,26
305335787,2270420,190377292,883782,191949030,891511,663468,6646520,399799201,28650,305666075,21938,5247,910947793,2032,2.82,1.44,1.41,0.07,0.0,108548648,105202000,3005000,123192682,26
303762850,2318947,189297915,886981,191532166,901513,717056,6681054,404680024,31699,308183540,23126,6595,912790395,1932,2.97,1.45,1.4,0.07,0.0,109222312,104913000,3996000,124056980,26
101665952,2992401,71030534,586895,72768471,498813,767580,6416257,197075280,26008,104635916,13517,3323,351066714,1949,1.36,0.67,0.65,0.04,0.0,53343434,50976000,1999000,67788524,26
306820493,2285045,191557400,884039,189817236,881205,833322,6766552,404886441,28439,309303826,25060,5756,915991890,1938,2.84,1.42,1.38,0.07,0.0,110826400,107476000,2985000,125440735,26
84965271,849709,54174744,93128,51384175,96654,281942,2044763,115917882,8500,79879652,5675,1488,272684881,1610,0.81,0.41,0.39,0.02,0.0,31696517,28485000,2946000,46368667,26
100997643,2166198,71145637,485429,71629381,475777,724839,6096100,189153955,22831,102296915,12750,3699,348798031,1895,1.32,0.64,0.62,0.04,0.0,51285034,43992000,6998000,65664218,26
100920775,2175182,71453203,492021,71666830,480520,704400,6049565,190427846,24153,102857665,10402,3831,350595861,2059,1.32,0.65,0.62,0.04,0.0,51346894,47040000,4003000,65846406,26
322113861,3994593,202514942,988080,205109816,984642,2628901,12059378,548162134,228367,318545532,33175,11252,965483526,3114,3.82,1.89,1.83,0.11,0.0,147931970,139640000,8036000,162578519,26
10521471,509246,4539398,66602,6621290,57667,190529,1289088,27762821,4073,11774837,3804,1316,46872030,1133,0.2,0.1,0.09,0.01,0.0,7473540,4158000,3119000,21883761,26
100894254,2511305,70048907,498510,70487930,490804,1185794,6511993,206707247,61488,106987596,14988,3933,351213664,2457,1.41,0.69,0.68,0.04,0.0,55577611,52277000,3016000,70218511,26
101665384,2152312,71629316,485256,70880055,479610,766271,5849068,190850744,24166,101677825,9600,3586,348629607,1895,1.33,0.65,0.63,0.04,0.0,51610479,48354000,3022000,66247001,26
105539822,2796917,73800193,554116,71573020,540995,1279822,7823823,211964205,39883,107271102,9870,2395,364204700,2467,1.47,0.71,0.69,0.05,0.0,57113388,49846000,6978000,71723089,26
101538041,2164020,71521810,481656,70792542,481381,710356,5843222,190594215,23081,101269201,13627,5850,347759709,1949,1.34,0.63,0.61,0.04,0.0,52102569,48844000,2990000,66560429,26
108308276,2980065,81347531,233074,84630871,215573,2692927,7907055,268245354,224545,118216815,25015,5833,397606260,4042,1.85,0.86,0.82,0.07,0.0,72259281,63962000,7995000,86854809,26
102597507,2501012,70862916,511830,70826403,496370,1295004,6888581,207561319,61420,107348212,14513,4346,353999723,2268,1.45,0.68,0.66,0.05,0.0,57011499,51748000,4975000,71558708,26
316152155,2329529,197747344,1156340,193157235,1137725,1584760,8498965,438503026,72450,302940320,26223,12436,939077377,3392,3.09,1.55,1.5,0.08,0.0,119784696,111426000,7959000,134314425,26
118599415,3806246,80525572,745189,79825298,723321,2408017,10084535,264283137,139874,116951897,26710,21100,409050784,3892,1.83,0.87,0.85,0.06,0.0,71946087,63599000,8076000,86225638,26
325363500,4050431,203493225,1078338,203738979,1080943,1221034,8266141,476665054,33922,334396385,27621,7196,994115455,3009,3.35,1.67,1.62,0.08,0.0,129185700,123726000,5029000,143669994,26
102127654,2152825,71517887,488918,71706755,480107,706035,6024311,189272016,23860,101738275,11455,3679,348929675,1854,1.33,0.65,0.62,0.04,0.0,51102431,46739000,4064000,65304611,26
325507369,3443375,199984945,1210056,197289898,1153428,1974437,10364763,476854632,183481,313520262,28191,9776,973419963,3201,3.37,1.68,1.63,0.09,0.0,130044312,122754000,6986000,144779176,26
100826219,2533125,69738143,493481,70773784,490550,1263507,6763059,210254121,60117,108358692,15161,5653,353097224,2658,1.48,0.72,0.69,0.05,0.0,56398241,52087000,4006000,70954157,26
103899358,2980053,70771729,801972,71400861,808183,1499162,9560939,233662499,63074,108911128,15879,5687,368336459,2539,1.65,0.79,0.76,0.05,0.0,62956625,57586000,5051000,77768368,26
102966592,2156522,72037311,483780,70522779,485153,751421,5893887,191066940,25381,101377418,10130,3493,350531626,1943,1.35,0.66,0.64,0.04,0.0,51594210,47275000,4023000,66215278,26
101367406,2530540,70160725,501182,70751190,499573,1311438,6822478,207488909,60503,107345615,22610,6134,351990605,2795,1.46,0.72,0.69,0.05,0.0,56481357,53057000,3003000,71080702,26
320046288,4001311,201906463,984434,204955050,977998,2546123,11885772,550871000,231632,317535369,34604,16032,962448451,3025,3.86,1.89,1.83,0.11,0.0,148664579,137410000,10953000,163292633,26
107201403,3165176,72326377,613144,70807996,598595,1380580,8894841,214097995,62827,110496012,15397,7532,372428598,2457,1.49,0.71,0.68,0.05,0.0,58725309,49362000,9066000,73470216,26
314778036,2360721,192109545,1087397,189737198,1076127,1508342,8500907,432530353,67475,313460388,21984,9007,948967514,2653,3.07,1.56,1.52,0.08,0.0,116672880,109429000,6963000,131302637,26
304782312,2368053,190266256,888146,192166791,894214,704680,6792792,403661324,32817,308595027,22304,5773,918440092,1946,2.87,1.45,1.4,0.07,0.0,109507774,104231000,4963000,124072194,26
101479746,2159672,71230523,477494,71120556,475887,722590,5902008,191784122,23296,102290017,12526,2939,348672193,1916,1.34,0.65,0.63,0.04,0.0,51821106,47550000,3962000,66535743,26
104851837,2517059,72310591,508088,70248487,491200,1368920,6911848,208055973,57933,106542678,17127,4900,361879875,2643,1.44,0.7,0.69,0.05,0.0,56520650,51200000,5019000,71073933,26
305505183,2335363,189811481,886866,191371914,899568,913886,6875088,404535097,30856,308601668,21673,6276,918812891,1848,2.88,1.46,1.42,0.07,0.0,108846124,102313000,5960000,123499050,26
306069109,2306051,189800221,879626,190327593,878594,902976,7174852,403858177,25645,315742355,23778,4773,922624676,1890,2.84,1.39,1.34,0.07,0.0,112140502,105916000,5995000,126934692,26
111769147,3132124,74159514,595158,71852166,653028,1937409,8937147,253086156,149172,118232335,25002,6752,389788861,3264,1.76,0.84,0.81,0.06,0.0,68433867,58128000,10022000,83057284,26
101784909,2173705,71313343,486848,70823949,479473,702443,5992226,193708923,21896,102794536,10694,6198,353776346,1806,1.34,0.66,0.63,0.04,0.0,51551641,48157000,3009000,65891620,26
103029647,2531591,70632158,499429,70082920,493789,1402568,7023076,208710819,60355,107883328,17025,5590,356455591,2855,1.48,0.72,0.69,0.05,0.0,56632405,52278000,4021000,70977230,26
102195272,2525445,70377943,499982,69984803,491563,1317336,6978324,208557731,63477,107680797,13626,5271,354871754,2652,1.46,0.7,0.67,0.05,0.0,56347413,50878000,5087000,71195702,26
305489554,2278057,190537360,886183,192035488,895004,718079,6696835,402319730,30196,305521018,27405,5872,911361627,2050,2.87,1.44,1.4,0.07,0.0,108514540,104202000,4007000,123437220,26
309582678,2357919,192048667,1067132,190183921,1063710,1089469,7582133,418448924,28189,313098632,20938,4984,929154799,2433,2.99,1.49,1.45,0.07,0.0,113320259,106037000,7002000,127910987,26
104120669,2266116,73050380,482747,71652120,489128,813925,5953544,198270303,26532,102669020,8278,4448,356818007,2452,1.37,0.68,0.66,0.04,0.0,53114121,46835000,5978000,67819630,26
101666068,2494710,70581038,503086,70482814,493662,1190765,6512309,204633024,59376,106406387,13019,4390,349941719,2267,1.44,0.69,0.66,0.05,0.0,55209117,52819000,2031000,69898782,26
104377985,2591059,72357546,510408,70986970,494093,1404661,6979745,212701441,58646,107654486,14694,4924,361698541,2911,1.49,0.72,0.69,0.05,0.0,57439712,52140000,5013000,72197968,26
305142348,2284879,190684887,887762,191426262,893340,689663,6718070,400827889,27979,306180015,20653,5870,915042440,1850,2.85,1.44,1.4,0.07,0.0,108002452,102709000,4985000,122912898,26
311224203,2473395,190628952,1101206,189412657,1100496,1444525,8295947,426183680,59615,315876364,22409,7444,937223088,2482,3.04,1.52,1.47,0.08,0.0,115312368,108994000,5999000,129749524,26
358492459,10745704,242522515,6493522,242956234,6453628,8869145,26194383,1068292156,1175355,358216484,56638,16934,1106204693,6970,7.28,3.45,3.33,0.25,0.0,289681286,280442000,9014000,304242236,26
93041923,2204853,85466624,473612,85029207,462359,937155,6719308,200993547,21882,95300541,11476,4531,412799142,1934,1.39,0.62,0.6,0.04,0.0,57889200,53599000,3970000,72451258,26
100793098,2159652,71315376,493493,71301486,486537,755843,5939972,191777238,23859,102449585,14645,3956,348259947,2061,1.35,0.64,0.62,0.04,0.0,51807590,45475000,5931000,66402563,26
45073857,574569,31390711,148044,29438093,139060,430689,1813307,77797027,13802,37689999,19348,3972,136527872,2946,0.53,0.26,0.26,0.02,0.0,21313736,16704000,4176000,35864610,26
111525319,4241903,78706493,907426,76259330,867857,2768447,12426556,284880580,151135,113993615,22424,6418,384290591,4041,1.98,0.94,0.91,0.07,0.0,76744946,70401000,6034000,91367865,26
110449272,3363258,75048935,867463,75841977,858941,1378167,9031682,244996523,58201,118983362,21063,5128,400907265,2800,1.7,0.82,0.8,0.05,0.0,65991074,59715000,5971000,80565527,26
306626747,2244209,190761918,882664,190480982,892776,796705,6810517,407043306,29821,309306514,23278,6721,914344555,1856,2.89,1.44,1.4,0.07,0.0,109786719,105513000,4019000,124608937,26
305532755,2298666,190408070,888045,191499819,902817,867512,6779341,406465321,29619,308455656,27762,6805,913075223,2072,3.0,1.45,1.41,0.07,0.0,109923931,105661000,3987000,124363956,26
102422072,2505006,70926650,499879,70343598,491751,1236939,6666195,204362575,61284,106239051,15586,4897,353894813,2469,1.44,0.69,0.67,0.05,0.0,55568753,46345000,8874000,70325249,26
318176957,4054332,202503263,1042020,204492115,1043237,2486567,11731128,554900039,233271,317565448,26666,8239,957537905,2936,3.91,1.91,1.84,0.11,0.0,150002319,145648000,3990000,164629121,26
102485090,2504173,71520748,500920,70548713,486086,1254494,6667011,209460967,60626,106902341,12520,4407,357624099,2656,1.44,0.69,0.68,0.04,0.0,56426187,50094000,6011000,71042935,26
310066637,2233540,193844593,1165817,192443410,1143185,1452086,8441651,430176244,63898,306473853,18583,8434,924759571,2260,3.0,1.45,1.42,0.08,0.0,118784911,113492000,4977000,133398946,26
284972350,2650456,180109825,1291516,177881901,1287484,1405059,7599679,415077170,62936,290181841,21103,8455,871621267,2647,2.97,1.47,1.42,0.08,0.0,111831548,105400000,5966000,126303192,26
103209129,2594164,68044548,737096,67115477,720399,1230714,8749246,217885588,33767,114007899,8588,3970,370954022,2053,1.47,0.66,0.64,0.05,0.0,62425788,58100000,4006000,76797752,26
108781944,3447144,85621027,522132,84194187,533016,1854130,7515999,266151928,79925,110935666,68768,12379,390575130,8088,1.83,0.88,0.85,0.06,0.0,71203474,54933000,15980000,85639760,26
162482280,2094218,109986838,1124116,112251006,937469,1063256,4719702,301020031,37290,174027549,17239,6240,578006362,2827,2.06,1.01,0.97,0.06,0.0,81440920,75024000,6001000,95936548,27
181964040,1976422,124359577,1088749,120658552,1250363,1296083,5569820,315715446,33053,181580111,10499,7023,622823332,2338,2.14,1.03,1.0,0.06,0.0,84818389,79438000,4964000,99456382,27
156103540,1888210,113543170,833694,117382202,791736,1004609,5319019,289513186,40082,161569141,10784,7371,532707379,2264,1.97,0.94,0.91,0.06,0.0,78795724,70504000,7944000,93471803,27
520339840,2164304,326644982,1726289,327513165,1641291,1106044,5992809,669076489,44271,523876937,29254,10615,1557317691,2820,4.68,2.38,2.31,0.11,0.0,180097318,175756000,4017000,194632638,27
166074596,1956501,111359346,1201659,108748525,1089592,1059660,4878550,292876403,37860,175015299,11283,7604,598006409,2243,2.0,0.93,0.9,0.06,0.0,82416569,78101000,4005000,97116972,27
184975418,1826689,125815949,1298134,122823453,1350581,785364,4299801,302780395,15959,189168376,8373,5856,642753617,2023,2.07,1.02,1.0,0.05,0.0,82260735,76894000,4993000,96821887,27
179400665,2347319,122313236,1366150,117753528,1505257,1296500,8190759,321410154,37450,173887459,11199,10476,636012176,2287,2.22,1.08,1.04,0.06,0.0,87521753,82111000,5006000,102026407,27
159961562,1833326,115794840,924984,117807606,882765,1038150,5367064,288258167,33582,158058238,10213,7474,530392793,2245,1.99,0.97,0.93,0.06,0.0,78268527,72969000,4997000,92693269,27
159854368,1744430,115949077,811454,117896053,776322,1029205,5444399,283717121,32441,156637885,11091,5003,528571063,2288,1.95,0.94,0.91,0.05,0.0,77669548,74382000,2975000,92507875,27
529126929,3089627,333199748,1838031,333773167,1815013,1386038,7856544,703877145,56474,533001234,35846,9296,1593173630,3426,4.9,2.43,2.36,0.12,0.0,192892718,186624000,5987000,207601344,27
160041380,1797342,114954534,889928,117539785,849413,1127439,5416212,290560048,33758,158802979,7582,9380,532885348,2239,1.97,0.98,0.95,0.06,0.0,78211135,72907000,4993000,92934082,27
570839762,3407901,364987552,2029120,366406913,1950950,3753806,10321298,860816905,365965,563529183,42322,85885,1744553531,4907,5.95,2.94,2.85,0.17,0.0,232972284,218733000,13982000,247599963,27
156239966,2000887,113100905,959197,116532762,923629,1028936,5214268,293080531,34615,162584242,12015,9543,538590196,2630,2.0,0.98,0.95,0.06,0.0,79115074,71837000,6984000,93765815,27
522581864,2119130,326964328,1737484,326775413,1730414,1219710,6298572,672846508,48393,527000766,29382,10182,1568554201,2257,4.71,2.38,2.31,0.11,0.0,180539929,176117000,4002000,195283843,27
210953460,6276978,158955099,2255373,159737895,2127936,1458700,6060487,457691609,53906,219999460,24826,11888,729811680,3994,3.09,1.5,1.45,0.09,0.0,123681370,116433000,6966000,138203799,27
184134770,4310751,133964016,1126902,136448830,935576,3542656,8372966,431257961,53816,195654320,50536,52351,693735676,17091,2.97,1.43,1.37,0.1,0.0,116005804,90556000,25154000,130660297,27
155644747,2036588,113002592,959795,116109381,923971,1011472,5176793,294606439,35507,162996118,12393,8901,542388507,2630,2.03,1.0,0.96,0.06,0.0,79256171,72961000,5996000,93637575,27
160112106,1821500,114969724,915638,117463893,872707,1026998,5523139,289714260,38005,159815592,10599,7337,533984861,2240,2.03,1.0,0.97,0.06,0.0,78305252,73000000,5000000,92692993,27
156222063,2037157,113843179,882179,117850188,844122,987522,5127463,292608610,34325,163412640,11714,5708,542881555,2241,2.03,1.0,0.97,0.06,0.0,79237668,74892000,3994000,93665840,27
176565586,1962960,121078053,1382003,119474816,1382459,821326,4597042,304686645,19109,181415469,8079,6701,615085096,2026,2.1,1.02,0.99,0.05,0.0,82264725,77041000,4938000,96933832,27
222458119,3200048,150205692,1077829,145389416,1125818,3729961,8620538,463789078,328913,227191846,25173,10619,791781899,4209,3.15,1.49,1.43,0.11,0.0,126010157,115735000,9977000,140626647,27
157836294,1955029,113663117,773500,115530558,745803,984429,5074977,290493764,32396,159831564,8941,5587,548354855,2242,2.0,0.98,0.95,0.06,0.0,78719350,73298000,5020000,93579043,27
169037009,1395175,118952252,724812,118152186,695610,808528,5135874,272632872,19646,150768800,7459,6494,558194445,1827,1.86,0.92,0.89,0.05,0.0,74520412,72205000,2005000,88994003,27
155848158,1951575,113919500,933404,116635203,896388,1033088,5089756,291814807,34370,161229745,10082,5926,537583173,2243,2.01,0.97,0.93,0.06,0.0,78998945,71733000,6974000,93442585,27
521443183,2065266,320868507,2080601,322378495,1911740,1266989,6608959,674382867,42562,535836495,30585,8774,1582255378,2240,4.77,2.4,2.33,0.11,0.0,182285165,180979000,999000,197023114,27
157911453,2115761,111450021,980829,114786007,829933,1039567,4829585,297018297,37470,166223623,15044,7431,552694833,2833,2.02,0.99,0.96,0.06,0.0,80324864,74018000,6001000,94962250,27
153397079,1976267,112329430,928514,117849080,847610,962834,5050765,295626997,34540,163860658,10069,7983,537073734,2286,2.04,1.0,0.97,0.06,0.0,79530990,74176000,5011000,94102823,27
515013474,2193678,322107404,1820111,327187644,1735818,1269353,6219363,673809647,42067,532002556,26986,9566,1552052751,2240,4.75,2.39,2.32,0.11,0.0,181808768,173402000,7972000,196354248,27
164487977,1664536,117027709,560165,117339209,532091,1170148,5605018,282735135,34293,153818771,10773,7489,544600800,2242,1.95,0.94,0.91,0.05,0.0,76866786,63636000,12926000,91612122,27
519467008,2172645,326118751,1671477,328133735,1629664,1254998,6116025,672009395,41285,530032326,26010,12338,1565631684,2237,4.8,2.39,2.32,0.11,0.0,181282548,175808000,4994000,196038062,27
170387355,1461273,116680473,868719,116917504,828344,854732,5326601,275735695,24953,155625318,9782,4372,561074990,1828,1.91,0.92,0.89,0.05,0.0,75274424,72011000,3000000,89566606,27
159010004,2141127,111065456,1067169,114541404,915384,1058888,4793009,298802133,38074,167688301,13345,6513,555939602,2873,2.06,1.0,0.97,0.06,0.0,80790894,73459000,7044000,95509296,27
156357136,1857867,114431034,893784,117777824,855459,1056676,5369234,288609944,33028,158384158,7489,9524,526372247,2246,2.0,0.97,0.93,0.06,0.0,78407225,73054000,5003000,92953413,27
158936116,1820789,115169328,839630,118184234,798556,1080991,5539373,288806002,36845,159271216,11019,7395,530301064,2338,2.06,0.98,0.94,0.06,0.0,78404876,73053000,5003000,93042345,27
139837918,1406683,141004828,742154,140821334,704934,814237,5160492,285107914,18892,133701832,9698,7054,647480932,1875,1.99,0.98,0.94,0.05,0.0,76326508,71058000,5004000,91102054,27
163651452,2662676,117263077,649322,121410469,592291,1212940,6606584,296950700,50610,157044255,10746,7441,545000631,2497,2.08,1.01,0.96,0.06,0.0,79987722,74699000,4979000,94463583,27
167948509,1411641,117988780,700306,117587429,677664,816937,5242114,276206103,18335,152389787,8244,7061,564085704,1832,1.92,0.94,0.91,0.05,0.0,74927028,70432000,4024000,89492964,27
520599695,2216387,322834152,1720045,324191258,1556091,1263811,6538133,674944869,43628,536744950,31962,11682,1587076102,2874,4.8,2.42,2.35,0.11,0.0,182561185,174149000,8006000,197299227,27
542227202,1986419,335867577,1703512,331975659,1838191,1349188,7426534,682239498,46150,536722771,29198,7518,1624915343,2234,4.82,2.43,2.37,0.11,0.0,184205807,177902000,5996000,199005315,27
154616934,2028190,112473488,964433,116511948,887408,987274,5014447,293160864,36299,162452731,10925,4666,538833540,2340,2.01,0.97,0.95,0.06,0.0,79367579,73053000,6004000,94064911,27
518965799,2155233,323396402,1850391,326640546,1731963,1190481,6125038,671273584,41383,530675606,33424,8004,1556861260,2432,4.74,2.4,2.33,0.11,0.0,181209854,176750000,4017000,195955393,27
155133476,2007359,112121298,944145,116121569,885011,943839,5041264,290047980,32809,162657781,11415,8029,538657357,2240,1.97,0.94,0.92,0.06,0.0,79157668,70646000,8073000,94017323,27
529734174,2244462,324757658,1725645,325792408,1725645,1445330,7721941,686375240,50565,539933157,45538,13230,1617550649,2234,4.86,2.38,2.31,0.12,0.0,184766405,178519000,5983000,199043089,27
156650286,2111165,111226885,983889,116639207,848165,1026048,4855076,298205326,35253,168248357,13240,11776,553298637,2442,2.06,0.99,0.96,0.06,0.0,80435242,76089000,4004000,94903370,27
516053854,2156152,320384094,1908322,324221366,1736832,1166269,6605760,665195631,47861,536183414,28894,9093,1575809736,2282,4.71,2.31,2.23,0.11,0.0,182416961,177141000,5003000,197050644,27
182148253,1899494,127605701,1035715,125395062,1071483,1381694,6084725,324410538,36218,177771975,10495,9286,627602839,2437,2.24,1.08,1.04,0.06,0.0,87719717,82397000,5024000,102280505,27
164453149,1429320,117558272,788710,117870992,747265,788453,5152030,276697032,21240,154347390,7528,8823,549421199,1827,1.91,0.94,0.92,0.05,0.0,75422568,69013000,6001000,90162944,27
162443795,1771942,116145148,899787,118174318,856741,1165431,5504505,288448203,34629,157476336,10481,7843,539089173,2244,2.0,0.98,0.96,0.06,0.0,77954749,67702000,9956000,92745774,27
587136395,5092903,373836353,2266135,374127393,2298523,4908243,15819137,902997053,409113,571391522,63714,32928,1767916424,7401,6.29,3.06,2.96,0.18,0.0,243753703,226414000,17031000,258372977,27
155771542,2081551,112341929,959655,115783779,934345,982692,5106636,294496909,36288,163258356,12776,14748,541510236,2632,2.04,0.99,0.96,0.06,0.0,79672388,76338000,3013000,94368191,27
531938833,1749106,330025001,2023954,328658352,2087712,1433882,7641660,702449233,52401,525560445,32067,11914,1587155949,2432,4.98,2.52,2.44,0.12,0.0,189104821,179753000,8987000,203844011,27
156838234,1863656,114758577,846404,117971944,803984,1057715,5302824,290352445,34676,158922738,11745,5034,530423312,2243,2.0,0.97,0.94,0.06,0.0,78623397,72241000,6020000,93371001,27
171209472,1437575,119227346,465465,117311249,531491,824569,5276179,268165832,18707,153828944,7693,6259,573699834,1827,1.85,0.91,0.89,0.05,0.0,72953539,67602000,5044000,87553862,27
518198442,2101917,323186686,1811668,325976346,1706897,1079111,6021528,668695533,43035,529448436,29179,7039,1555558932,2236,4.71,2.37,2.3,0.11,0.0,180757291,177363000,3006000,195167717,27
168628202,1411506,117186560,726800,117423254,704145,823491,5111452,276942843,17625,153778002,8793,5473,561905582,1826,1.92,0.94,0.91,0.05,0.0,74787925,69450000,4960000,89282138,27
533942331,1443442,330002978,1338466,328185330,1355983,816465,6641463,643484312,29241,517395196,25326,11291,1577906675,1818,4.53,2.3,2.23,0.1,0.0,174093734,165790000,7989000,188570705,27
524384932,2209995,322643680,2018227,321994208,1840825,1469630,7001613,680680451,45549,536928463,34605,10772,1598073252,3016,4.82,2.43,2.36,0.12,0.0,183105901,176806000,5993000,197765094,27
520508479,2132285,318352844,2048430,320674732,1929093,1312015,7056984,670851726,43478,539600983,32096,8493,1590953405,2237,4.72,2.33,2.25,0.11,0.0,183603389,176298000,7011000,198434455,27
163300881,2272839,111844508,1106379,112630518,931076,1256569,4997889,308280613,43921,173816710,18876,10219,581823961,3804,2.12,1.04,1.01,0.06,0.0,82794705,72449000,9924000,97466452,27
186613959,1817933,131985948,1056227,128183618,1089045,1400538,6053383,322023191,37752,172338915,9890,9958,624899482,2830,2.24,1.09,1.05,0.06,0.0,87592906,81267000,6019000,102173619,27
157678857,1859304,114529677,898173,117942920,852479,1072012,5382213,290525290,34276,159362862,11636,5329,527431009,2241,1.99,0.97,0.94,0.06,0.0,78164454,76829000,1010000,92819076,27
162038687,1811279,116699947,898828,117490723,857030,1059486,5450064,287061618,34462,157278148,10592,5174,535721895,2244,1.99,0.97,0.94,0.05,0.0,77890417,76517000,1006000,92575132,27
542585674,1861426,337130791,1860542,335185903,1851632,803757,5818160,666210970,28014,539139328,26065,10014,1617374063,1822,4.73,2.37,2.3,0.11,0.0,180655268,180387000,0,195182589,27
518999334,2117302,322291670,1978016,324092471,1816924,1387798,6882381,673626084,49086,535073623,34224,9163,1582649503,2235,4.77,2.4,2.33,0.11,0.0,181874531,177184000,3981000,196423349,27
535081812,1986438,332620378,1930885,330015886,2119766,1452745,7646093,685642325,45488,531519850,30252,11771,1628676648,2235,4.9,2.43,2.35,0.12,0.0,185372826,179058000,6001000,200059531,27
157306147,2068575,109917298,995997,114629063,841116,1070435,4790097,299780501,36557,170649023,13411,6891,561838014,2244,2.03,0.98,0.95,0.06,0.0,80488801,79243000,1003000,95096386,27
185766382,2295656,123465614,1147863,118512209,1393014,1957264,6919912,321490598,52499,182304130,30736,9801,654530095,4140,2.23,1.07,1.04,0.07,0.0,86589571,75376000,10909000,101230792,27
520739713,2225172,328743107,1704653,332157465,1510875,1203272,6235687,658693038,29997,526912910,26511,8535,1570158320,2686,4.7,2.34,2.26,0.11,0.0,178921160,173560000,4987000,193467542,27
164502471,1412993,117321004,759406,117365616,720600,832481,5183381,278058212,20890,155179318,7677,6237,549354488,1829,1.92,0.94,0.9,0.05,0.0,75483852,71122000,4006000,90063769,27
162749626,1443394,118299201,835035,117868690,798161,835893,5116811,278974769,20239,154338358,7452,5153,545674872,1835,1.93,0.94,0.91,0.05,0.0,76092080,72713000,3029000,90579661,27
154650717,2057554,111940657,921149,116760324,830427,935819,4887732,297672071,34919,165635903,12785,5314,544248614,2241,2.05,1.0,0.96,0.06,0.0,79699275,74353000,5023000,94354403,27
530125334,1549016,330626535,1411019,328170320,1385549,853235,6647514,650404056,30511,515569479,29006,11226,1569485715,1821,4.62,2.34,2.27,0.11,0.0,175541463,170189000,5005000,189952854,27
165811080,1671039,118327289,572174,117851857,542708,1214510,5629986,283151383,34771,152337708,9662,5091,552598085,2243,1.97,0.96,0.93,0.05,0.0,76705434,70278000,6023000,91632166,27
155460314,2003446,112983222,879598,116948752,840907,975832,5128060,294854478,35794,164916511,10943,5107,546450823,2239,2.02,0.98,0.96,0.06,0.0,79314395,75043000,4002000,93982462,27
159078762,1779539,114683088,899499,117589515,859036,1054479,5418821,288227288,33078,158804920,7768,7493,527827106,2287,1.99,0.97,0.95,0.05,0.0,78036792,71755000,5979000,92579366,27
159800292,2031259,114723208,1038769,116291310,1009879,923032,4847846,294865635,35169,163856585,11031,4874,553737654,2241,2.05,1.0,0.97,0.06,0.0,79486562,73075000,6006000,93893384,27
168577472,1982676,114725095,1078980,113104960,994411,1118167,4755552,304396237,40095,175417396,16309,8098,593346228,2437,2.12,1.03,1.0,0.06,0.0,82321918,73126000,8893000,96967688,27
535109024,1763468,326004481,2016817,319864828,2201179,1371067,7427869,678106645,45806,538662773,25234,11766,1613605770,2233,4.76,2.37,2.3,0.11,0.0,185910005,179725000,5990000,200465801,27
156262478,2053147,111330180,986135,115299467,860435,972558,4839641,292854503,36990,164814597,13584,5441,545127949,2442,2.09,1.0,0.96,0.06,0.0,79404318,74095000,5006000,93970020,27
523925203,2147633,322124550,1870432,322821120,1745454,1332406,7020467,677712318,47237,537365636,29273,9561,1598543823,2258,4.83,2.45,2.38,0.11,0.0,182993977,174737000,7988000,197443482,27
428337427,15790187,158100587,416554,156684510,412665,185610,34464066,399741487,15874,431301978,2587,3072,1450494925,629,2.85,1.46,1.41,0.06,0.0,108138028,104767000,2993000,122520396,28
335370188,8850792,273567174,779863,278427997,779829,216216,25262489,672151934,115795,343325145,5658,107240,1356558841,625,4.54,2.24,2.17,0.1,0.0,181744597,169553000,11968000,195973201,28
551357661,6722228,362524820,964306,359629864,973462,433355,15908472,674505294,121067,539545555,4336,106008,1686134703,1123,4.48,2.19,2.11,0.1,0.0,181001690,152723000,27949000,195484525,28
636701101,6422449,495253083,838947,495009522,838613,216997,17262326,1119931481,135252,633138321,8878,110032,2515522828,616,7.6,3.73,3.6,0.17,0.0,302881020,295732000,6993000,317375736,28
281580162,6287838,342232283,670290,346112101,671219,237348,15338958,496840397,18630,283296394,2916,3792,1337212716,622,3.35,1.64,1.59,0.08,0.0,134392307,131188000,3004000,149069519,28
550735159,17717698,225084635,677933,222112567,672632,990586,37719152,751078933,126190,528443186,97751,104787,1798920480,2120,5.2,2.58,2.5,0.12,0.0,202637116,189340000,13023000,217365828,28
554378321,205037929,156102889,551024,156743235,561685,332361,69208203,1217173249,33439,556728889,5361,8896,1699492123,629,8.15,3.97,3.84,0.18,0.0,329940553,326609000,2996000,344713567,28
563775732,16372802,158859917,419222,157733002,419006,210040,32712559,417540919,12619,565234189,2260,2885,1468729636,630,3.0,1.52,1.47,0.06,0.0,115251843,110991000,3963000,130198483,28
526043595,15921468,218883075,783644,220129390,783174,431832,35656128,721648779,119144,537888196,6592,109026,1615928244,1117,4.89,2.42,2.34,0.11,0.0,196402024,185104000,11006000,210552817,28
349215582,6350509,331187278,539482,328011028,537027,293367,15295896,489542321,66773,343218535,14091,4389,1927259228,2114,3.37,1.63,1.57,0.08,0.0,133632401,129351000,4010000,148155472,28
429401517,16612037,283264721,551043,283020521,547731,248658,37162344,556526920,16134,428474066,3213,4310,1195530401,809,3.81,1.9,1.84,0.08,0.0,149968515,148725000,998000,164496174,28
421031942,15422610,169340138,425720,167435082,424187,312232,34139778,415247170,13660,435275718,2905,3252,1488607806,622,2.96,1.5,1.46,0.06,0.0,112210478,109971000,1999000,126692240,28
451252098,16206879,173566408,659813,174325798,662169,248440,34387787,626007609,117954,455024831,4643,107868,1395211494,630,4.25,2.1,2.04,0.09,0.0,169086297,134884000,33970000,183701365,28
590788140,16330676,176017907,666722,175719613,669702,263799,34798927,673035434,118652,597154558,16763,192912,1564491693,632,4.6,2.25,2.18,0.1,0.0,181634924,157491000,23922000,196228782,28
539222449,16610958,347644448,794806,343196177,801068,224513,34830003,797481106,123812,532446429,203743,104665,1649998310,620,5.42,2.66,2.58,0.12,0.0,216408099,192166000,24020000,231092293,28
650625543,16294129,213087504,690499,213259243,688143,320079,34601765,783765655,121343,658167938,202135,103704,1738485706,624,5.48,2.73,2.64,0.12,0.0,211488403,184215000,27031000,226124242,28
534910406,16406614,218472882,663462,217528731,666836,258779,38065143,731077223,117073,544769583,97526,104441,1770458545,832,5.08,2.57,2.48,0.11,0.0,197869543,170555000,27088000,212423242,28
588909328,16973697,180572727,674528,179680264,673082,656546,34821077,688376135,129836,570372566,120647,116161,1540114118,3373,4.68,2.28,2.2,0.11,0.0,186278352,149002000,37000000,201066660,28
417943386,6666052,360571016,799647,360752879,796868,248504,16485917,822538386,123624,410633252,5272,106221,1537790978,642,5.52,2.68,2.59,0.12,0.0,222462559,178192000,44047000,237097245,28
535577641,16429479,219430422,690946,219666254,690432,306961,34645767,797882478,126216,534323707,9220,102745,1775736984,622,5.49,2.72,2.65,0.12,0.0,215600675,178162000,37033000,230246388,28
539769072,16110239,341027196,818391,332695959,823659,341266,34438192,685527510,125819,549121206,9413,104513,1399169281,1108,4.63,2.27,2.2,0.1,0.0,185110559,143701000,41201000,199691624,28
932300008,16436514,156805364,506792,156147293,510715,359333,38044805,1018197953,27260,930273948,4430,7395,2200995458,645,6.81,3.3,3.19,0.15,0.0,273754180,272490000,1001000,288481745,28
569082651,6281666,380364514,822821,384044339,824021,262038,17605111,933363338,123526,579410993,7124,211726,2198440277,623,6.37,3.15,3.04,0.14,0.0,252981801,230781000,21979000,267676787,28
339245518,9072200,217024489,768719,219835080,767371,304896,24878194,672518780,119033,346271821,109797,212830,984574375,623,4.54,2.23,2.16,0.1,0.0,180480744,151077000,29014000,194865723,28
426724725,15775700,281920432,639522,282348109,641544,191491,34443781,558665685,15250,430058978,3792,4328,1191265321,623,3.85,1.93,1.87,0.08,0.0,150870759,149630000,997000,165507206,28
371514372,6599793,361940686,785562,362097454,782780,223577,16462728,778356685,121089,365118379,4601,107875,1482952821,634,5.22,2.52,2.43,0.12,0.0,211902987,181704000,29951000,226521013,28
452748293,16205841,173844902,661581,174071826,664367,246174,34258222,627675219,118958,455101077,3874,107181,1400506959,628,4.32,2.15,2.08,0.09,0.0,169371577,135084000,34021000,183875269,28
384878555,6081252,398807207,972235,400183577,974059,287305,16920752,725936273,118368,389175203,100941,106634,1712413479,821,4.84,2.36,2.28,0.11,0.0,197291890,166036000,31006000,211779538,28
370022805,6506996,589924899,791296,592904558,787276,230714,17017648,837326648,122318,367891570,4928,108825,1963021176,632,5.61,2.76,2.68,0.13,0.0,225559366,198339000,27046000,240251612,28
583361556,190294978,174606508,709311,174418832,711293,310800,52269107,973976094,127230,577227831,6055,105790,1660559472,629,6.65,3.29,3.18,0.15,0.0,262624935,230251000,32035000,277388848,28
450847379,6529370,406252951,833381,401907655,837405,351128,16950449,948357843,123128,454818999,10277,104963,1725151795,1118,6.36,3.1,3.0,0.14,0.0,256122975,223717000,31959000,270762332,28
537158304,217663795,359529914,1248479,360462452,1258246,339196,30223858,947224592,125675,540262782,6426,109255,1822209749,629,6.4,3.16,3.06,0.14,0.0,255501504,224188000,30888000,270187569,28
427621778,15855194,275932416,532304,277191857,531650,220545,34508352,356170499,10206,439525808,1963,3186,1199581686,628,2.51,1.27,1.24,0.05,0.0,95981435,93695000,1993000,110624322,28
418751230,15630958,168732961,424208,166954511,424469,225714,34581476,412933586,12209,431854888,3093,3184,1474190518,631,2.97,1.52,1.47,0.06,0.0,111406894,109152000,2002000,125929875,28
565385053,16713145,159048524,420210,159038312,422732,269723,34790065,427222945,13508,566964700,2531,2863,1475155553,648,3.04,1.54,1.5,0.07,0.0,115592333,112418000,2984000,129973773,28
536667581,55685746,421044786,1057092,419851582,1108242,781582,28364103,987893231,140725,534142721,308908,110471,2094998511,1998,6.51,3.17,3.08,0.15,0.0,260380452,229139000,31018000,274911219,28
555302412,16040770,158639582,443205,158573441,442597,232540,33722511,471126291,14226,567371149,2906,3821,1454202514,632,3.43,1.78,1.74,0.07,0.0,127276573,125995000,999000,141920372,28
427549181,15939312,157836145,418796,156465741,416190,177837,34213609,403360763,13296,432844479,3165,3692,1445298886,645,2.87,1.47,1.43,0.06,0.0,108885372,105608000,2988000,123473751,28
310724853,6584396,360245982,921242,360344622,922266,213475,15450305,671203121,119810,305406099,79398,106633,1623100439,624,4.46,2.18,2.11,0.1,0.0,181332928,141099000,40028000,195921878,28
537692954,16727357,345145006,819391,342400456,817000,255747,34033192,799653792,124141,535739633,7840,104628,1377047007,623,5.46,2.7,2.61,0.12,0.0,216761775,182582000,33922000,231390362,28
431893262,15938569,158959481,429659,158429303,426173,209645,33475773,403740092,13574,437618296,2541,3533,1464701928,628,2.84,1.39,1.35,0.06,0.0,113033318,111746000,1006000,127508728,28
437764926,16188784,158328901,414513,157588422,415103,240985,32628704,366172099,15901,438344022,2302,2442,1348900645,624,2.67,1.38,1.34,0.06,0.0,99710707,97424000,2008000,114191064,28
390004946,6522383,406647867,848926,398612332,849127,306383,15467807,744907036,122135,389973719,24969,103200,1753948588,1104,4.95,2.42,2.33,0.11,0.0,201411392,167119000,34024000,216068077,28
821925935,16244652,421005459,911150,423312427,912130,267428,38318689,1104503154,128907,832826363,5568,310059,2396625081,630,7.58,3.8,3.68,0.17,0.0,297707591,265528000,31943000,312413646,28
429044181,15883381,159357748,449115,158111803,448165,262374,34241882,411106889,12093,432688467,9411,3103,1450360554,635,3.04,1.48,1.43,0.06,0.0,108364628,106081000,2001000,122672398,28
427120613,15779724,158166562,425797,156780887,420560,178897,33976923,402845877,11774,431876234,2579,3299,1445584927,630,2.91,1.5,1.46,0.06,0.0,108821565,106382000,1988000,123541594,28
244895436,9773030,160765749,667372,158543324,674739,189779,18352191,231658237,8623,240297168,2295,2111,696282112,660,1.59,0.8,0.78,0.04,0.0,63247000,60958000,1998000,77723333,28
457428339,6759330,450860218,1022974,438088503,1003634,575335,17512881,734974912,121156,460041432,24035,105010,1658757893,1636,4.89,2.39,2.32,0.11,0.0,199219654,161858000,36967000,213998600,28
432030604,16475937,157478686,412177,156745518,408186,182580,33365974,389867987,12899,427986026,2865,4033,1323395394,628,2.78,1.4,1.35,0.06,0.0,106208419,102932000,2998000,120623987,28
447692762,16903525,175756903,490240,173238372,490828,211018,32295167,324677437,11471,433624624,1951,2391,894949004,630,2.28,1.14,1.11,0.05,0.0,88142754,85944000,1975000,102688143,28
431399032,31773346,159792473,430941,157929575,426879,1728143,64073461,460686942,15037,433182343,3295,3630,1457537389,1123,3.38,1.71,1.66,0.09,0.0,123674055,118387000,4974000,138395642,28
432018023,15963387,159295464,425371,157712896,421785,188360,34755282,400488084,13607,430799584,3544,3484,1451348028,641,2.9,1.48,1.44,0.06,0.0,108695054,107416000,1003000,123417865,28
345769499,6226316,383032986,762263,388997413,766937,221254,15954512,401780088,12462,343934424,3393,4254,1321842874,630,2.72,1.34,1.29,0.06,0.0,108355386,107076000,1000000,122887082,28
426015337,15591928,158011850,424332,156784320,418179,179990,34420499,403903084,11544,433640513,3193,3882,1447657076,624,2.89,1.5,1.46,0.06,0.0,108879394,105606000,2988000,123647334,28
345679910,6291981,340701070,636353,341099731,635098,210383,15456380,407347796,12164,347654294,2380,3359,1408090215,629,2.81,1.39,1.34,0.06,0.0,109743965,107452000,2008000,124604950,28
585621661,16413678,173395118,661388,173349307,659734,225523,35162174,669535199,119264,584304182,3802,105950,1542352984,628,4.56,2.25,2.18,0.1,0.0,180774507,150590000,29918000,195551277,28
524949223,15749250,217019672,671168,217756025,672419,216739,35778816,724326064,116668,540231179,6010,107111,1749005042,624,4.99,2.46,2.39,0.11,0.0,196911955,168673000,27945000,211477543,28
342944511,9702494,219128812,822709,219022849,811545,197916,23373369,554398662,118437,340909737,7492,105388,995272225,624,3.76,1.85,1.78,0.08,0.0,149215656,115954000,32986000,163836653,28
428302449,15869162,171250623,419271,168576556,411195,297304,34873236,416318862,13878,435578663,2952,3378,1503017322,1062,2.98,1.53,1.48,0.06,0.0,112634201,111270000,1002000,127309549,28
557116673,16083652,158651910,429302,158662446,431496,218867,34350464,472128914,12895,567921003,2096,3151,1458131113,630,3.45,1.81,1.76,0.07,0.0,127233108,124850000,1997000,141739971,28
514712892,6764984,530167048,819178,524936291,818468,253824,16183291,847403779,124333,511356113,6249,102931,2127016556,635,5.71,2.78,2.69,0.13,0.0,228869138,203611000,24952000,243257940,28
452443746,16000113,291139324,784998,292215393,780609,200441,34800190,598910127,114679,468108381,5712,106129,1158136952,633,4.04,1.99,1.92,0.09,0.0,161336017,130046000,31010000,175910221,28
458665023,16263606,173137943,651534,172648746,647601,192184,33670346,610164739,120756,462285728,53757,284935,1430026520,632,4.21,2.08,2.01,0.09,0.0,164644432,134500000,29888000,179040154,28
229165292,6586864,261524750,653640,256382997,673332,216601,14495481,466775641,115286,222496375,4623,105606,982122020,628,3.12,1.5,1.45,0.07,0.0,126665800,92281000,34103000,141244847,28
444622363,6281513,397526104,1004000,401076446,1002837,223207,17363218,723613121,117682,452597895,10091,108276,1698650700,623,4.89,2.4,2.32,0.11,0.0,195599434,166307000,29053000,210125782,28
305572949,809212,405404769,1068559,408616447,1074798,276649,2819394,561839947,15635,307925498,3413,4508,1202705931,645,3.82,1.89,1.83,0.08,0.0,151089665,147797000,2995000,165365527,28
436132974,16711944,161000803,426445,158791564,423271,348420,36967822,412205580,17798,434559282,5981,3919,1473062062,1547,2.92,1.47,1.43,0.06,0.0,111102790,108852000,2015000,125737739,28
454134043,16197583,173647572,651349,173555600,651382,219509,34143900,671960876,119971,453897896,4464,106861,1524687794,625,4.63,2.29,2.22,0.1,0.0,181665376,145319000,36079000,195974657,28
353382399,12280873,449344737,1730907,444118597,1683397,1664390,25278307,909379936,83131,351289467,187901,63620,1620295692,2050,4.7,2.41,2.35,0.1,0.0,159970719,156697000,2994000,177381233,28
689801755,23789727,458456112,3432800,453642517,3402693,4311440,56196561,1370146300,273407,688689421,355926,251034,2035209953,6488,6.41,3.37,3.29,0.14,0.0,197603296,168844000,27974000,212073236,28
535757815,17414419,348296084,797185,343884519,802835,777066,39118242,806373445,127639,526478372,9787,106161,1505023625,1118,5.54,2.73,2.64,0.13,0.0,217473683,183115000,34021000,232019335,28
346001267,6320812,340261590,710849,343409735,715896,228615,15826947,404206695,13476,346039723,3407,3727,1402482368,629,2.74,1.34,1.29,0.06,0.0,108845399,107659000,1006000,123496668,28
525793004,270313558,221684808,761662,225526079,762119,289487,82052396,1157836376,135043,529151565,12863,112174,1855242964,1082,8.05,3.97,3.84,0.18,0.0,315138218,282877000,31986000,329896588,28
434373811,141446606,161259154,552480,157271120,538141,771125,75532074,1166943350,38599,430895870,14641,13144,1707494988,2092,7.5,3.48,3.36,0.18,0.0,317528475,310331000,6984000,332093045,28
429039519,15889343,157757457,414131,155860520,408800,189368,33856217,400079674,12979,429402516,2927,3598,1444742561,631,2.9,1.48,1.44,0.06,0.0,107849737,106629000,996000,122261963,28
558652506,16271051,280933376,544020,280196764,545672,241246,32824717,471672779,14868,565636178,2600,3454,1329277902,630,3.27,1.61,1.55,0.07,0.0,129010100,127551000,1004000,143847269,28
520052198,15575799,215939234,678128,217910371,681878,231514,36232682,726858791,117340,539807829,9172,107976,1735783233,622,4.98,2.47,2.39,0.11,0.0,196747236,176579000,19952000,211246638,28
429535908,15878803,159139611,418987,157492291,420462,194663,33976191,401696008,12741,431332649,3053,3569,1447739091,628,2.86,1.45,1.41,0.06,0.0,108681539,107470000,995000,123051470,28
287614511,6404695,235372250,379567,234099730,378279,283348,14685186,393797998,14716,284201819,2689,3446,1086145783,1125,2.91,1.45,1.41,0.06,0.0,106520381,105279000,1002000,120931546,28
586573378,16451963,298405408,779569,297265910,782896,208527,34055296,714130235,121591,581469185,5712,104741,1287972824,629,4.92,2.44,2.36,0.11,0.0,192954081,159593000,33123000,207224326,28
89170388,1105191,57866816,76434,59442519,71970,636859,2102823,133093649,20110,81791261,29869,6332,322580303,3876,0.98,0.46,0.44,0.03,0.0,35952779,33564000,2034000,50760838,29
67325813,572098,40189770,71470,36345406,68909,427476,1323439,90687465,6045,68053160,8019,3288,234864658,1958,0.63,0.3,0.29,0.02,0.0,24500294,20122000,4024000,39045053,29
68875784,594477,40579406,72207,36479914,70426,394630,1312876,89542429,5892,69007619,6948,3432,234491762,1957,0.63,0.3,0.29,0.02,0.0,24554207,20133000,4026000,39276954,29
179586603,552558,105968953,563234,102529448,564566,645575,3614740,650096199,223427,176447271,497521,203498,583312768,1950,4.15,1.99,1.92,0.1,0.0,174794983,93200000,81174000,189148238,29
93038596,1243467,60119993,80352,57037080,74162,610932,2026156,134064675,16940,82950982,26495,8572,323847700,4136,0.93,0.45,0.45,0.03,0.0,36967152,24498000,12249000,51403939,29
126779976,662349,72916254,78443,70266943,81302,662704,2157260,160824751,12267,124512767,10557,3017,400025096,2599,1.07,0.53,0.52,0.03,0.0,43309591,38988000,3998000,57755499,29
73623754,650455,40281308,75677,36856868,76733,694876,1811106,100442706,8973,79082338,6158,2653,266315308,2928,0.67,0.33,0.32,0.02,0.0,27072935,18803000,7917000,41704875,29
100350287,1273039,62520879,82554,60081637,82540,1205163,3302266,160754033,15222,102557509,25674,6042,369009558,4289,1.11,0.54,0.52,0.03,0.0,43725707,34527000,8878000,58358908,29
71112247,617192,41246876,69761,37489330,71784,492234,1452156,93496536,6264,72822636,9676,3090,247989016,2154,0.65,0.32,0.3,0.02,0.0,25317491,21932000,2990000,39898739,29
66143147,622800,39132552,71418,36735115,64690,384927,1266048,90171051,6599,67731581,6385,2832,231687623,1958,0.61,0.31,0.3,0.02,0.0,23971996,19784000,3956000,38381456,29
54774831,357241,33871337,53301,28766612,56915,377076,1460688,65141059,12048,42408590,8497,3976,184357170,1957,0.45,0.22,0.21,0.01,0.0,17513172,12180000,5075000,32019185,29
122534261,541894,71892964,77457,69356212,80455,469754,1638247,154137376,8225,123530205,10057,2130,381001428,1948,1.04,0.52,0.51,0.02,0.0,41361490,34051000,7010000,56057569,29
67654876,225307,56495422,63378,54926042,60977,423649,1585023,121822577,12730,67223198,6372,173793,284756325,1951,0.8,0.38,0.37,0.02,0.0,33942096,27696000,5934000,48357955,29
72468632,196736,58952251,67083,51915290,70809,480274,1681213,113030084,12349,65251275,8734,2417,304999250,1953,0.79,0.4,0.39,0.02,0.0,30856044,27488000,3054000,45430036,29
90896639,1122905,58122389,74975,57874819,73566,760279,2237230,134438988,22324,83030677,25842,7517,327803067,4137,0.94,0.46,0.45,0.03,0.0,36079857,31694000,4089000,50391164,29
91413285,1362783,60097073,84176,55153588,77057,607453,1949207,139849822,18384,85430150,29838,9269,325733624,4527,0.97,0.47,0.46,0.03,0.0,37953487,25761000,11890000,52535458,29
68833584,695276,39846479,68904,36813399,70938,557805,1538606,95976234,7714,73204897,11143,4425,240258332,2605,0.65,0.32,0.31,0.02,0.0,25831909,22407000,3055000,40416780,29
94625381,819127,62574679,72642,60020342,72140,932353,2340582,130647451,23213,83806481,19225,3797,337415834,3684,0.92,0.45,0.43,0.03,0.0,35369471,30052000,5008000,49887008,29
144773527,1688874,101291732,112193,99100847,111307,1582156,3902353,250053870,38132,150162368,49117,12094,509603173,9537,1.76,0.86,0.83,0.05,0.0,67215620,52001000,15000000,81644292,29
123213557,559157,72416546,73057,69642802,76587,517732,1823424,156311686,8531,122999308,12578,2279,393433376,2146,1.09,0.54,0.52,0.03,0.0,42240235,37962000,3996000,56619154,29
68357378,679960,39444047,70740,36416356,72049,519149,1594640,97028393,7961,74902366,7612,3293,242364851,2605,0.66,0.33,0.32,0.02,0.0,25890189,18706000,6891000,40503613,29
70945366,618750,39790267,69822,36558513,73134,552749,1604416,95331165,8683,73142696,10009,4612,242489507,2603,0.66,0.33,0.32,0.02,0.0,25753575,18595000,6851000,40109690,29
71605264,586117,41820199,76151,37627186,72528,452118,1586085,93772695,17453,69703616,10600,2883,238059400,1955,0.65,0.32,0.31,0.02,0.0,24814938,22424000,2038000,39418635,29
162951055,2764498,99550894,650498,95822463,652583,1353665,7556143,314268171,37256,159239027,95167,28384,549283853,2930,1.44,0.78,0.76,0.03,0.0,43337650,40124000,3009000,60055512,29
66565966,737237,38440344,73169,35967815,74020,509386,1583845,97339041,7078,74441871,7715,3155,239619467,2603,0.66,0.33,0.32,0.02,0.0,25990251,21722000,3949000,40616173,29
117989529,1525878,78185286,96475,82797330,94599,669480,1772322,201748748,17952,123430051,50570,11210,390884034,7420,1.38,0.68,0.66,0.04,0.0,54683522,43403000,11103000,69083838,29
92320667,1361983,61601936,89964,57982758,91337,1220135,2463310,140533218,17019,89478940,29259,6130,321342222,4526,0.98,0.45,0.42,0.03,0.0,40096607,34832000,4976000,54694961,29
140396338,1214615,90052684,85796,87163491,85435,497698,1731485,195499180,22437,142691580,17924,4964,473887523,3677,1.35,0.65,0.62,0.04,0.0,53396392,48082000,5008000,67915880,29
90814888,978578,59434315,81344,57953088,72540,718352,2135938,134361831,20135,81067781,27079,8250,322492800,4135,0.96,0.46,0.44,0.03,0.0,36389848,30114000,6022000,51136109,29
141895132,1208127,91724743,86463,87939276,87612,528513,1966412,197290115,18741,141517179,24652,4637,477861996,3481,1.37,0.68,0.67,0.04,0.0,53055720,45806000,6970000,67715874,29
72282852,548456,41834730,69546,38454975,71735,537869,1659858,97508466,16411,76292635,5789,2203,255029619,1957,0.65,0.32,0.31,0.02,0.0,26329776,21998000,3999000,40841554,29
127750138,551978,74623107,77379,70513531,81130,633018,1988905,157111320,9493,122393414,12645,2279,405842426,2145,1.1,0.54,0.53,0.03,0.0,42722968,37245000,5033000,57510805,29
115401581,832159,68637193,78505,69035159,77768,473427,1770190,157540321,6840,131641650,15494,3604,379491973,2146,1.09,0.54,0.53,0.03,0.0,43111087,36745000,5958000,57569380,29
69089385,598949,40232971,73584,37275625,74086,425141,1355531,93575754,5279,71675720,6302,2881,242208088,1959,0.67,0.31,0.3,0.02,0.0,24931920,18766000,5926000,39290702,29
222475014,9603116,174575584,266589,176574492,266724,9241147,15709649,702024805,159932,230759443,217160,67678,901763973,60906,4.78,2.26,2.18,0.17,0.0,189903061,104743000,84792000,204566672,29
123706840,566800,72121365,82374,69859082,80550,561012,1898383,157718782,11495,123184699,11382,4508,394489753,2598,1.09,0.54,0.53,0.03,0.0,42743335,36308000,6051000,57199177,29
146996942,1338839,93907871,95030,90099814,98087,960196,2601856,206023471,28837,140749770,20234,11510,486270046,4717,1.44,0.71,0.68,0.04,0.0,55680501,47370000,8063000,70147997,29
202113669,17020087,145011674,640760,145629394,635124,4538058,21728990,799484654,110903,209032464,209944,111285,722764600,37389,5.14,2.39,2.3,0.16,0.0,215856871,154672000,60871000,230566454,29
163107909,8971965,113148357,1251739,110263424,1358881,2420853,7065144,404253152,44294,154870909,48624,10397,544054631,7261,2.65,1.24,1.19,0.08,0.0,109687464,98251000,11028000,124217627,29
68413250,585068,40265878,73074,36887254,64057,412995,1279070,89954888,6823,67117415,7256,2560,231319700,1957,0.61,0.3,0.3,0.02,0.0,24373966,19971000,3994000,38637157,29
100339627,1702957,64233362,90957,61532579,91042,1721887,3221317,156015817,16855,98536184,34018,8670,360456909,5849,1.09,0.54,0.52,0.03,0.0,41736127,33549000,7894000,56321703,29
73177845,518730,42270256,69226,38769676,70824,582623,1444122,95599156,8115,72429066,10117,2920,243202252,2349,0.66,0.32,0.31,0.02,0.0,25785566,19590000,5877000,40273682,29
121976095,590794,71843247,80359,68801735,80907,509891,1757608,155063124,8337,125343573,9768,2483,389946828,1951,1.09,0.54,0.52,0.03,0.0,41928766,38636000,2972000,56787725,29
86840634,1224461,55407589,83394,58835427,77539,787737,2341968,138534463,21274,84736246,24661,5615,321871942,4135,0.92,0.44,0.42,0.03,0.0,36882413,29562000,6897000,51726860,29
168193241,4561218,108402183,293727,107706377,297805,651740,2731157,302844975,21747,176457184,32518,7341,544575259,4852,2.03,0.98,0.95,0.05,0.0,81884899,69594000,11930000,96498183,29
126152660,486637,73978338,75966,69540902,77975,565278,1841374,154729558,9654,120982338,13031,2147,392868402,1965,1.08,0.54,0.52,0.03,0.0,41460772,39130000,2006000,55957999,29
67832459,587288,40420696,73722,36965295,71869,457777,1356472,94102524,6034,70516829,6181,2250,240900480,2056,0.64,0.32,0.31,0.02,0.0,24564857,19385000,4846000,39149650,29
188561380,1197380,121630264,573751,121825790,569884,974326,4297051,684914348,229264,194892255,280522,414035,632760524,3482,4.46,2.12,2.05,0.11,0.0,184828120,113689000,70806000,199293539,29
92409822,1191267,57284787,83018,58615688,76006,674815,2188634,137906135,21043,87527788,20344,7609,327719288,4137,0.96,0.48,0.46,0.03,0.0,36635966,27244000,9081000,51190993,29
92046432,1040373,60512711,76673,60818351,74006,604643,2305747,132453694,28732,82054084,16804,6530,324968039,3487,0.93,0.45,0.44,0.03,0.0,36020035,28751000,6940000,50325962,29
76341920,657770,42160558,79553,38191700,81196,710432,2075360,101338523,10799,80596558,5541,2940,272823297,2595,0.68,0.33,0.33,0.02,0.0,27172750,20880000,5965000,41757782,29
67763966,595579,38900724,74140,36069190,70652,403153,1345066,92922075,5902,70415900,6319,3572,237531806,1956,0.64,0.32,0.31,0.02,0.0,24586663,20256000,4051000,38993388,29
120586237,765911,67339068,82552,66808096,82702,645651,2090916,160541476,12178,136077495,6531,3826,389087309,2989,1.13,0.56,0.54,0.03,0.0,43860558,39504000,4051000,58238219,29
88339371,1263182,57307266,79358,57130808,75233,654974,2154090,135246060,20761,82785301,20806,16798,323727446,4135,0.95,0.46,0.45,0.03,0.0,36533319,27075000,9025000,51199950,29
68424491,577723,39714065,70170,36289982,65692,418889,1318131,91438144,6410,68670367,6933,2659,236381338,1958,0.64,0.31,0.3,0.02,0.0,24539315,22117000,2010000,38848117,29
129486773,488909,75025893,81280,70556674,83059,654402,1981643,156123384,10415,119124276,14137,2705,395777538,1961,1.09,0.54,0.52,0.03,0.0,42800685,39442000,3034000,57298744,29
171965889,876861,102247846,551419,102071274,556862,523385,3522756,638533341,222539,182351512,17235,208960,556568301,2369,4.15,1.99,1.92,0.1,0.0,172451239,109106000,63061000,186965197,29
67620836,746257,39031995,74930,36433893,77017,509524,1514768,95650446,7256,73399961,7359,3839,238960748,2604,0.66,0.32,0.31,0.02,0.0,25884115,20627000,4911000,40175612,29
64453589,868111,35060024,76324,34722263,76649,734621,2169529,102288635,7528,87225049,10852,6484,245646340,2996,0.69,0.35,0.34,0.02,0.0,27249431,20951000,5986000,41842035,29
88121343,933528,59916940,77008,61017277,71791,765478,2114743,128010667,19989,80361950,17406,4486,317911413,3487,0.93,0.44,0.43,0.03,0.0,35294210,28911000,5981000,49741983,29
63707345,1599443,48476257,87248,52652911,79714,672323,1958927,142507335,23235,70956933,38700,10405,247681415,7465,0.97,0.47,0.46,0.03,0.0,38229770,26950000,10979000,52770844,29
68700064,581039,39590511,70818,36634366,70899,413285,1362603,94891402,6015,73496678,5614,3063,244537607,1956,0.64,0.32,0.31,0.02,0.0,25123392,22822000,1984000,39782913,29
123550142,557482,72384617,77903,69325580,78798,559589,1932679,156581375,11410,121273711,11333,3015,393869250,2598,1.09,0.54,0.52,0.03,0.0,42633087,36410000,5904000,57184115,29
70618986,569716,40952870,69600,36493321,68143,438570,1338397,90935052,6541,70409418,9902,2733,240762889,2054,0.63,0.31,0.29,0.02,0.0,24575023,22310000,2028000,39235622,29
147026675,1153797,93618527,92880,90930947,92873,639356,2113210,197561845,26422,142211173,23095,6540,483100159,3481,1.4,0.68,0.66,0.04,0.0,54415693,45095000,9019000,69116679,29
129071349,605784,74437389,76256,71144910,77468,633299,2106876,161016288,12647,123597024,11098,3970,406871590,2598,1.12,0.56,0.55,0.03,0.0,43799979,41485000,2023000,58493168,29
128622390,525688,75016728,78963,70843114,79962,585340,2147620,156878818,21465,121076543,11861,2632,401158754,1950,1.1,0.55,0.54,0.03,0.0,42609081,36400000,5902000,57258426,29
70714700,564595,40255089,70696,37060220,73817,517525,1624747,95977518,18542,71816231,10342,3422,240575984,2602,0.68,0.33,0.31,0.02,0.0,26019484,19783000,5935000,40424787,29
124209844,558512,72998545,78986,69589183,82044,516097,1902246,154969572,8844,122437546,9886,2086,391172135,1950,1.07,0.53,0.52,0.03,0.0,41828651,37488000,4052000,56339042,29
124931969,519816,73462731,77384,70038935,80442,560745,1914872,157120203,9224,121615259,11899,2690,395191407,1952,1.08,0.53,0.52,0.03,0.0,42052278,37770000,3975000,56631219,29
69227073,575224,40404420,70212,37357693,65400,412401,1278992,90847841,6058,67859121,7732,2424,235455751,1958,0.63,0.31,0.3,0.02,0.0,24333244,19087000,5023000,38702179,29
142516714,1252316,91185283,88916,90953632,90128,619225,1925268,201431863,19884,142522567,34538,5575,481278830,3870,1.41,0.7,0.67,0.04,0.0,54144677,47763000,6097000,68381027,29
67985099,747593,38311870,71191,35462965,74354,501329,1565402,97769112,7850,74402641,8996,3869,243993085,2994,0.67,0.33,0.33,0.02,0.0,25895717,18698000,6889000,40651760,29
87761603,1012849,59338982,83367,61739438,78435,919351,2286826,133784456,20296,82288560,19741,4479,319038221,3489,0.93,0.45,0.44,0.03,0.0,35929575,25650000,9865000,50445316,29
124008340,532640,72509588,77197,69404039,79002,523661,1741657,153720697,9069,123071110,9303,2669,387837669,1949,1.08,0.54,0.52,0.03,0.0,41468447,38169000,3013000,56048432,29
96120876,1099828,61943671,78825,61269272,74535,632832,2214638,137018786,28847,87249957,22086,5086,330328055,3683,0.96,0.47,0.46,0.03,0.0,36707184,30315000,6063000,51328012,29
82915861,1332962,50470536,262717,46946640,302971,1074063,4493146,141019022,26259,83528471,37596,16078,292851043,2154,0.79,0.41,0.39,0.02,0.0,25218364,20766000,4153000,40775200,29
67197184,547073,39762777,78829,36904019,74069,405993,1374544,91909340,8499,66983553,5832,3377,231255327,1958,0.64,0.31,0.3,0.02,0.0,24332814,20899000,2985000,38799969,29
126155123,520442,74173459,79012,69730182,81052,554402,1886671,156223914,9585,121608407,12639,2430,402246464,2086,1.1,0.55,0.53,0.03,0.0,42403941,39966000,1998000,57000825,29
89425717,904903,60220586,75830,60737352,74377,830536,2185069,132771218,22493,82121298,15961,4753,324188205,3489,0.94,0.45,0.44,0.03,0.0,35576903,27419000,7834000,50028008,29
242299396,4232371,159808237,3870587,162875936,3850193,1525448,9218848,478976959,105453,247229095,23668,17704,884570066,2572,3.28,1.61,1.56,0.09,0.0,129764138,122420000,7024000,144382937,30
274497187,4716055,181090659,4303906,181127275,4306393,1702275,10277677,515289908,114151,278783436,43344,24893,1019372080,4611,3.48,1.69,1.64,0.1,0.0,139102279,133718000,4989000,153912633,30
222313289,6073764,150504500,3557059,151018444,3559558,1623799,11919924,457051507,129299,224393318,16382,11869,808793573,2186,3.06,1.45,1.4,0.09,0.0,126503231,118197000,8013000,141297354,30
405017580,24357003,210637597,7281243,215248263,7295319,7569707,46156041,905943080,765772,417968271,25721,27183,1480729710,5215,6.33,3.09,2.99,0.22,0.0,244677889,235413000,8977000,259330235,30
317581281,4344583,214873642,4327118,214503530,4243967,1298872,10024907,587552219,75750,319070910,15689,16848,1274604014,2572,4.02,1.99,1.93,0.1,0.0,158915032,152629000,5985000,173713201,30
284420351,4775337,181447553,3937473,182268038,3947687,1415546,10897237,757895145,184720,293747813,125983,112382,1036572903,2571,5.0,2.4,2.33,0.13,0.0,208029691,178764000,28961000,222729968,30
330290759,11340354,222712378,6084592,227125293,6141844,2654907,22886773,705821157,342697,337531579,24648,24603,1255036358,3505,4.88,2.4,2.32,0.14,0.0,190779024,183491000,6980000,205448802,30
223298482,3885505,148671817,3478898,152729779,3534622,970254,8187765,450375550,88455,229933523,12251,16951,812165304,2380,3.06,1.5,1.45,0.08,0.0,122622924,114237000,8016000,137178037,30
818662922,14030517,497125444,6020126,497149044,6029493,12090157,35005272,1605573236,836654,832520463,72466,132871,2512446564,7158,10.96,5.42,5.25,0.32,0.0,434073066,388707000,45082000,448750805,30
453081854,11166016,241271479,6518813,241816001,6490168,2451315,23052704,829601240,299423,458418699,15373,17030,1606558323,2379,5.7,2.83,2.74,0.15,0.0,223762566,218377000,5008000,238320735,30
222503392,13860150,198540660,2674342,198092371,2657738,4643765,25362621,588129302,1309298,221583305,22898,20123,984969872,3403,4.09,1.99,1.93,0.14,0.0,159197069,157724000,1004000,173801819,30
327414132,6843595,198887642,4826307,203315618,4862590,1682146,15153737,652532527,208564,333929990,15957,22354,1280997374,2963,4.49,2.22,2.16,0.12,0.0,176369384,171039000,5001000,191158063,30
219493172,4116943,161000008,3588506,165614051,3650882,1061495,8722940,451755664,74358,226034527,13915,17374,834980587,2576,3.05,1.5,1.46,0.08,0.0,121222220,117889000,3022000,135593899,30
410563517,7388807,241021164,5874512,240909030,5862856,1978751,16104989,727562568,178427,400729980,36772,24832,1484427141,4622,4.98,2.46,2.39,0.13,0.0,196311810,183033000,13002000,210693013,30
219326618,4170781,149194250,3873639,153306074,3909692,1029541,8722778,454775795,73645,226450602,14726,18436,790475651,2576,3.1,1.52,1.47,0.08,0.0,122779098,118446000,4015000,137463866,30
287384716,5857419,189723195,3715538,186893414,3708288,2875757,12648636,795259030,230144,293114688,46457,141928,1045107146,11861,5.29,2.53,2.45,0.14,0.0,214533047,167141000,47039000,228981101,30
381203988,13587562,230601450,5663127,230396964,5639201,6115996,29213060,790012564,798876,386785044,18529,21440,1387407488,5073,5.48,2.59,2.5,0.18,0.0,217276356,205973000,10998000,232157339,30
302955568,5579419,192790566,5313800,196848923,5329805,1815932,12170192,830836917,343377,312699791,16173,118969,1154356806,2963,5.53,2.66,2.58,0.15,0.0,224097646,185814000,37962000,239001085,30
813200000,8283419,472861432,5312448,465739384,5239015,4804443,19415970,1364559349,396882,809006067,62615,125753,2495004395,6616,9.41,4.63,4.48,0.24,0.0,368627281,324359000,43913000,383160824,30
353172364,4395324,217234223,4527479,218071236,4466308,1716944,10640991,624468840,113235,343660683,30049,19853,1244726737,4040,4.29,2.11,2.05,0.11,0.0,168666950,161392000,7017000,183326389,30
884312857,14887516,475242783,5948521,474359987,5961907,3470374,29786570,1462840568,498014,899552287,78138,123916,2614827884,4035,10.11,5.02,4.86,0.26,0.0,394720083,356336000,38035000,409531008,30
840183154,15193122,474125313,6100568,478134022,6143966,3630160,30721907,1438396567,534382,855621258,39769,124119,2574055520,4034,9.98,4.91,4.76,0.25,0.0,388272880,346945000,40993000,402839640,30
371906374,13086940,216233399,5132261,218405627,5156604,2604103,23801358,915324733,415096,383702681,115613,118780,1322992166,3846,6.21,2.98,2.88,0.17,0.0,248867147,212485000,36082000,263607909,30
375492243,28402248,176679380,4505945,177873079,4494499,10602864,48108043,858740451,2065673,384223893,21298,24932,1148552543,5607,6.09,2.89,2.79,0.22,0.0,231813756,223453000,8016000,246519845,30
403064587,5788389,209047377,4015003,213287356,4031373,2901661,13948018,926790234,334151,412920973,118537,121446,1287018351,4621,6.27,3.04,2.94,0.17,0.0,250138230,208751000,40951000,264679692,30
211752252,4354276,136402243,2156478,136664522,2074728,1113186,8140403,366354275,46686,204133815,22852,12564,749454382,2964,2.52,1.23,1.19,0.07,0.0,99553459,94226000,5012000,114229792,30
246055438,3430020,166041179,4395247,163330673,4303704,1036587,8116534,505903508,42228,242140097,16486,13564,950065002,2182,3.46,1.7,1.65,0.09,0.0,136712335,128407000,8025000,151158378,30
686672810,6163459,416618718,3395524,412651923,3397645,1317661,12981753,1068834146,177929,677079097,35915,110104,2028371768,1689,7.38,3.7,3.58,0.17,0.0,288684602,250301000,38045000,303193417,30
249769677,6869077,164413663,4025363,167581625,4023278,1917700,13242266,736586182,245636,257901330,22006,123715,894528274,4040,4.97,2.4,2.32,0.13,0.0,199597909,157223000,42059000,214392251,30
237840521,4546008,157038161,3478549,160842140,3456945,1604447,9689907,486211317,75934,244967468,15563,22443,864183224,3651,3.38,1.63,1.58,0.09,0.0,131268972,121924000,8994000,145749606,30
269262596,5569805,175039570,4071523,183447710,4104631,2784232,13477925,573305927,191620,283669189,37412,21530,950427289,3601,3.76,1.82,1.76,0.11,0.0,147011693,137702000,8980000,161823041,30
229322071,3736741,150347334,3375296,154536670,3430372,915554,7788680,453800842,40764,233038030,14309,16788,836954407,2382,3.12,1.52,1.47,0.08,0.0,122667317,115211000,7012000,137289155,30
221258359,4487701,149017131,3487482,153017310,3502318,1158283,9170933,458362729,77290,229516347,24164,18212,797576150,2963,3.14,1.54,1.49,0.08,0.0,123657623,115269000,7949000,138457243,30
424727521,19762455,262869315,5873381,261446784,5835529,17776829,49609252,994599921,1415372,430464498,38703,30224,1343142444,7167,7.01,3.27,3.14,0.3,0.0,271060920,260743000,9990000,285802575,30
309843863,5102630,209207235,4009026,212230899,3998736,1632742,10431659,585185453,78024,313777315,36504,21621,1123953604,3653,4.06,2.02,1.95,0.1,0.0,158309945,150978000,6999000,172896641,30
252079488,4575867,169499709,3968689,167027538,3955212,2136883,10563918,490704921,106639,238938255,27693,16635,909788323,3651,3.39,1.63,1.57,0.09,0.0,132307144,123995000,7999000,147012713,30
732891337,21013304,439010147,7648055,440009200,7641750,16585534,47217502,1646766285,803438,741539253,54288,464160,2364673214,6779,11.32,5.45,5.26,0.38,0.0,445275887,395902000,48987000,460116549,30
219292848,4076223,199719947,3736702,193404094,3685802,1864400,9786071,482362763,94324,210933413,16159,7952,1011944570,2373,3.35,1.65,1.6,0.09,0.0,130576033,123212000,7012000,145413931,30
314384985,6756431,209640900,3669642,214104410,3710512,2513236,13559462,658498900,120071,326688369,32360,23514,1339413499,5046,4.51,2.22,2.15,0.12,0.0,177044222,169739000,6989000,191939761,30
450239142,13740191,254716491,5203918,252587414,5185139,3470440,28008728,1026576423,500291,440461883,115697,120067,1529601665,4042,7.04,3.42,3.3,0.19,0.0,277397818,235068000,42012000,291872390,30
624970774,14017852,317527779,5586701,319175132,5552774,7322659,38797121,986520741,461941,627922428,40708,37892,1971486507,5606,6.98,3.38,3.27,0.22,0.0,266381397,256138000,10005000,281276856,30
330874004,7470773,194255961,4748869,193088469,4773019,2428988,17122484,611211848,227572,319486476,30724,19696,1162100412,4043,4.2,2.05,1.99,0.12,0.0,164954443,154654000,9977000,179487164,30
206896151,4097942,143552728,3408721,147383513,3446513,1562570,8873925,456527417,79071,216179897,17506,21871,748021539,3848,3.11,1.51,1.46,0.08,0.0,123301100,114992000,7999000,138069402,30
279299760,4438133,182616139,4094745,185541501,4078195,1185995,10154925,736934305,181722,285897964,136001,117154,1045523801,2571,4.99,2.37,2.29,0.12,0.0,200354310,154022000,46006000,215190032,30
309819427,4445719,200128660,4390191,201095751,4331502,1710656,10324354,580535500,105515,314792837,17365,15855,1220526819,2575,3.97,1.91,1.86,0.11,0.0,156546433,150171000,6006000,171022049,30
235024206,4159561,155385457,3531167,159266180,3548928,1538621,8950263,473580983,75671,243252455,19808,22149,864778359,3455,3.23,1.57,1.53,0.09,0.0,127755075,119391000,8026000,142563695,30
396349957,12652864,238579585,4841390,239440382,4850275,3458928,25518156,761283178,476798,399641008,17892,19795,1480886761,2965,5.3,2.58,2.5,0.15,0.0,205612636,199282000,5978000,220278286,30
211557584,4012974,140511675,3393879,142737903,3375534,1254509,8664942,431912160,79591,214895276,11749,16424,763758705,2963,2.97,1.43,1.39,0.08,0.0,116779856,112442000,4015000,131180073,30
251390790,12702841,192567571,5621499,194907699,5558187,5757467,25018164,708940818,1017452,260559851,20085,20016,1058969398,5771,4.84,2.24,2.16,0.16,0.0,194308422,182032000,12002000,208789428,30
735577305,4294156,453305773,5109779,456483073,5124807,1723756,11508681,1239456844,271567,747558373,319457,122024,2310879079,2566,8.56,4.2,4.07,0.2,0.0,332865441,296488000,36059000,347734493,30
215918050,4809270,139793650,2491273,144045147,2511347,1166503,9646329,594941090,178015,223968153,12321,113735,750337852,2090,4.0,1.91,1.85,0.11,0.0,161458989,122094000,39030000,176043144,30
385128531,12511688,196740429,4743857,197388967,4742576,2955185,25416903,908837082,410810,398811554,17305,114966,1279641858,3847,6.11,2.87,2.78,0.17,0.0,248934299,204740000,43944000,263445572,30
263275154,4683376,177383357,3706928,181628161,3728065,1670699,9957212,509357849,75368,271065704,28444,22176,969714772,3654,3.48,1.69,1.63,0.09,0.0,137971380,132680000,4987000,152683618,30
887699314,14781301,476968853,5917191,474265472,5916287,3646493,30774183,1462678135,500371,900498231,65312,122501,2621962409,4036,10.18,5.04,4.89,0.26,0.0,395149457,355831000,38981000,409791966,30
706742470,7005616,436191704,4625149,440950387,4638500,1817108,14409712,1200598598,290299,718313630,298718,121020,2181004053,2569,8.32,4.14,4.02,0.2,0.0,324101882,285801000,37973000,338769948,30
885501793,14577341,475910019,5932480,474515432,5937425,3595378,29740728,1459930408,507043,898431360,205504,123032,2614868561,4036,10.24,5.11,4.95,0.26,0.0,394497770,363112000,31009000,408859448,30
359025635,12404218,198230736,6382416,199784426,6381964,3397340,26187221,736544241,322723,371932785,12769,18208,1194605912,3848,5.13,2.48,2.4,0.15,0.0,202642272,192291000,10015000,217157901,30
408529302,14753540,202430597,5689578,207145390,5713229,3452963,29032108,1015899098,500285,419293360,28208,128113,1268176701,4041,6.94,3.38,3.27,0.19,0.0,273990598,238705000,34956000,288688252,30
380749942,9823002,228792784,6502023,229007286,6520644,3793098,21649927,790840573,473825,390568450,14761,19924,1459393498,3990,5.4,2.56,2.48,0.16,0.0,216915811,209605000,6986000,231750560,30
491047264,11409711,219666237,5010611,223184844,5006859,2915460,29124594,2258642454,348370,501623425,28306,34879,1628279525,5539,14.97,7.2,6.96,0.37,0.0,610656370,598274000,12005000,625515460,30
248731740,4299955,171479790,3895801,175360304,3913771,1377123,9355140,487269051,75232,251702132,22406,19534,931112872,3186,3.35,1.66,1.6,0.09,0.0,131787027,127458000,4014000,146274211,30
406450094,11669131,243560559,7601540,244576420,7554989,3198338,25530726,790581894,413483,396741824,29161,23183,1372919470,3649,5.49,2.68,2.59,0.16,0.0,217118543,208776000,8029000,232143349,30
745704283,5496269,455940223,4765585,454999690,4774497,1932675,13739217,1227682325,222298,760032590,51344,118008,2350109022,2567,8.5,4.2,4.06,0.2,0.0,333056452,297769000,34972000,347339722,30
31105946,4602471,33935527,3300241,31277483,3131725,1093915,8301912,184576208,26957,31794016,4543,3755,224598919,1820,1.25,0.59,0.56,0.04,0.0,49364357,45052000,4004000,64027574,30
799346147,13776721,478407836,5561372,479360444,5561291,4685768,28620039,1424331395,749336,810466178,64657,121897,2603220065,3981,9.9,4.89,4.73,0.26,0.0,384354722,355007000,29000000,399237165,30
763067440,4933132,465922933,4922178,463242151,4905523,1975973,13141076,1237781585,202750,748937265,46908,125459,2342081344,3645,8.55,4.24,4.1,0.2,0.0,334566367,300211000,34023000,349127224,30
228175613,6282840,150340543,3963661,145985142,3949840,1153734,11824041,621425226,153764,227911571,77781,498685,764869908,1697,4.16,2.0,1.93,0.11,0.0,168491515,139172000,29035000,183344414,30
276199328,7101765,177054693,3974658,176545178,3856285,2352433,14333990,533007566,137951,276319292,34167,29313,936582034,5995,3.65,1.77,1.71,0.1,0.0,144208155,130833000,12983000,158885195,30
259363324,4837810,164414376,3699710,168076476,3725188,1711468,10429516,702414058,187955,265799725,29493,122127,908389129,4041,4.75,2.29,2.2,0.12,0.0,189935354,152601000,36903000,204702271,30
248374957,9134616,181536726,4982383,181724434,4978105,874172,15069406,510213189,36435,248910112,22176,11659,967809583,2277,3.51,1.69,1.63,0.09,0.0,141739931,134384000,7020000,156375482,30
249236159,10225564,153147144,2374420,156667543,2364782,3091763,18062463,516858527,361059,256884624,27156,28903,885815516,7822,3.54,1.71,1.66,0.11,0.0,140156476,125776000,14086000,154399610,30
222203930,14033815,198506457,2659187,198030249,2643152,4725786,25891619,590492922,1238539,221786486,16540,18648,985673012,3402,4.12,2.0,1.94,0.14,0.0,159122499,150839000,7991000,173688821,30
736805723,4772516,458105683,4768082,453755131,4757147,2065140,12427315,1196904264,197653,726423390,47588,118867,2292091613,3448,8.24,4.14,4.0,0.2,0.0,322415292,287004000,35000000,336959475,30
234984294,4445184,151400893,3731458,154956087,3790527,1646365,9823683,494448467,77964,241955421,20268,20988,857855223,3652,3.41,1.68,1.62,0.09,0.0,134343807,126029000,8001000,148928466,30
329160648,10287538,192318666,3693399,191519987,3671038,4790498,21809724,609462860,495210,335582152,26074,59904,1137543550,6387,4.22,2.06,1.99,0.13,0.0,164839756,152386000,12030000,179445832,30
264893010,12976066,170360511,3892168,174103488,3851079,3911392,24305667,581306111,469316,275214334,16405,17256,984953118,3403,4.05,1.97,1.9,0.13,0.0,156448164,151066000,5002000,171223911,30
262023516,12306513,199303363,3810779,198200799,3716377,8116630,27366447,695113284,3705241,267024761,29358,26818,1146213245,6667,4.91,2.42,2.34,0.17,0.0,187274080,175874000,11054000,202061616,30
765072629,7088822,502439774,2171856,504620009,2167073,272796,16074436,1216692707,134888,772370668,95356,109505,2746937788,354,8.41,4.22,4.09,0.18,0.0,329768565,303486000,26041000,344258270,30
714269605,4151229,436309713,4736038,437738600,4738062,1288526,11213770,1209106223,161624,723854637,44838,124883,2227779082,2567,8.34,4.19,4.06,0.19,0.0,326964326,289677000,36958000,341638956,30
276776383,4683373,182228055,3968927,185926258,3984781,1550765,10803204,736564342,208005,285034258,23556,117034,1029291412,2570,4.94,2.41,2.34,0.13,0.0,199017825,157813000,40951000,213743300,30
5524050,313665,17034254,120338,16760929,106666,435896,1130552,79961112,21620,8452100,4992,5600,85988975,2175,0.53,0.24,0.24,0.02,0.0,21843420,17435000,4102000,36370679,31
11952181,108108,6994543,89263,6949108,81233,81308,613170,73101293,3639,12334149,850,1140,43111138,138,0.47,0.19,0.18,0.01,0.0,22346918,22098000,0,37039292,31
12310783,235641,57366170,6317873,57109193,6321494,117836,2166613,525573556,14803,11998325,1985,3996,208012039,130,3.38,1.61,1.56,0.08,0.0,142202943,140842000,998000,156446057,31
12176820,227426,56848569,6780211,56833729,6783009,102463,1870283,452801220,11653,11756959,2032,3795,215341370,139,2.8,1.28,1.24,0.07,0.0,122097863,119815000,1996000,136491255,31
543797004,9143861,468431156,6949689,467144753,7033224,10554230,20231583,1543919957,158088,540855990,280809,62463,2209152561,42079,10.44,5.04,4.87,0.31,0.0,417728519,345520000,71900000,432338530,31
519903533,8467139,456620000,6662865,460486506,6787851,9333604,18943493,1512978606,140335,530297022,239211,76658,2200012383,35929,10.24,4.9,4.73,0.29,0.0,409972948,351722000,57954000,424721323,31
11574010,187082,59004324,6725555,58998448,6696155,108389,2033574,480134839,13664,11696215,1981,3597,255086705,127,3.04,1.4,1.34,0.07,0.0,130491320,130220000,0,145205154,31
12398546,210730,54361562,8208580,54119173,8200883,139252,2050194,477003566,13573,11704783,1248,3266,204366094,130,3.0,1.38,1.32,0.07,0.0,129128761,126873000,1982000,143638814,31
12069728,242981,45713102,6244150,45832422,6227648,127540,2233138,520696854,13383,11533099,1641,3373,173466917,131,3.31,1.56,1.5,0.08,0.0,140971785,139698000,997000,155321818,31
12018614,226255,46741596,6313898,46838280,6333745,117339,2099888,529417598,13741,11983424,1359,4043,152100311,132,3.36,1.58,1.53,0.08,0.0,143018644,140624000,1994000,157543369,31
6531908,451028,6881849,83865,6667069,78015,323221,1192250,89102138,6352,6114192,10588,6047,55519842,2181,0.56,0.26,0.26,0.02,0.0,24066666,18716000,4925000,38531572,31
125121946,223098,76358687,6965908,76978694,6969214,250577,2106920,336636817,11882,126526274,1774,2919,539609165,132,2.18,1.05,1.02,0.05,0.0,89870380,87581000,1990000,104517389,31
12426852,279085,58115602,7005025,58672230,7165712,151295,3108480,822116192,20111,12081237,1663,5420,234231898,133,5.23,2.44,2.36,0.12,0.0,222783784,222405000,0,237176747,31
12122763,211312,57760010,6989706,57909645,7030097,164930,2154051,504063263,13525,12256816,2047,3899,212442960,128,3.18,1.47,1.41,0.08,0.0,136006692,135538000,0,150709207,31
286095575,291896,238893770,5015735,237307392,5004893,131718,2994303,795081074,20525,284180467,7601,34562,1038953294,134,5.19,2.5,2.41,0.12,0.0,214993619,213645000,998000,229480114,31
15555356,226288,45587010,6725877,45770597,6731600,163401,2247349,515763386,13628,15339856,1681,3745,157030366,133,3.19,1.5,1.44,0.08,0.0,138411306,138186000,0,152816451,31
11846852,216918,57569924,6871689,57726315,6882683,116381,2003875,491247600,13607,11740184,2130,4384,210356073,132,3.15,1.49,1.43,0.07,0.0,133495000,133208000,0,147993431,31
12250199,188084,57010282,7219438,56946634,7230587,99889,1389623,301494689,8211,11530136,1546,2873,223197250,131,1.92,0.92,0.89,0.04,0.0,81069136,78772000,1994000,95589762,31
12309103,234572,57991785,7309464,58131757,7338848,178439,2133670,501128489,13082,11918537,2193,4043,212746199,131,3.18,1.47,1.41,0.08,0.0,136310623,135924000,0,150544017,31
44537762,174061,57331390,7106315,57345997,7135267,116707,1408344,298644978,8078,44823782,1482,2471,277503379,132,1.94,0.94,0.9,0.04,0.0,80250529,79949000,0,94541480,31
23165753,104625,7974194,63107,7993953,63723,97108,661206,55438740,1813,24556457,148,362,86538215,133,0.36,0.17,0.16,0.01,0.0,14634094,14338000,0,29076228,31
19959580,107891,8075400,60216,8006735,60562,96786,643908,54567161,1873,20689492,225,380,81853030,133,0.35,0.16,0.16,0.01,0.0,14872046,13616000,972000,29495940,31
20744309,685138,64932886,7080902,63744059,7126555,454789,4940124,568081591,35698,24228603,22660,16937,245609406,294,3.45,1.57,1.52,0.08,0.0,138256190,136796000,998000,153646976,31
12435999,227143,53115699,6423288,52987719,6404476,120891,2184153,484534360,15111,11907571,2128,3705,206413998,133,3.04,1.41,1.37,0.07,0.0,131216979,129948000,999000,145446018,31
17418126,488001,72285772,7002836,73278006,6810786,398343,2109257,336638245,13681,16784453,13076,9028,355994274,2177,2.2,1.06,1.03,0.05,0.0,90995699,84705000,5979000,105663204,31
19283121,508127,50258645,6915738,49323295,6924142,387781,2489975,549514461,28576,21985043,26017,11141,181486716,4038,3.42,1.57,1.52,0.09,0.0,148864104,141442000,7021000,163489973,31
12050387,214882,47425523,6960235,47548409,6955659,128419,2310355,535756069,15206,11906291,2230,4034,219945059,126,3.37,1.55,1.48,0.08,0.0,145946972,145703000,0,160306710,31
11618219,197546,56054563,6233948,56089140,6252386,129551,2137113,522993312,13938,11684262,1404,3773,207767226,132,3.39,1.62,1.56,0.08,0.0,141173977,138825000,1997000,155741357,31
11830596,220903,47283019,7192783,47311831,7204174,117281,2201628,527064223,14343,11882977,1887,3409,155451329,127,3.32,1.55,1.5,0.08,0.0,142987661,140672000,1995000,157404319,31
12260928,241178,58132662,7376639,58271176,7433783,126634,2088100,504003017,13029,11930676,2258,4204,207002303,132,3.17,1.48,1.42,0.08,0.0,136382827,135155000,1001000,150601785,31
12581403,254555,57636292,6991560,57687590,6981719,100559,2079955,491687162,13648,11844066,2019,4032,214770883,132,3.12,1.48,1.43,0.07,0.0,132718378,129099000,2979000,147231976,31
11807362,212508,47241938,7060318,47379105,7061271,116793,2211623,516400666,14503,11782186,1915,4255,155500861,133,3.25,1.48,1.43,0.08,0.0,140293353,138015000,2000000,154998584,31
10413780,206725,15687479,1451446,15645354,1454749,110488,1585668,355646498,9532,9720925,2077,3303,90479793,132,2.22,1.04,1.0,0.05,0.0,95687227,95384000,0,110423361,31
11990202,239689,58098318,7047248,58191378,7041384,111134,2211248,560256963,14440,11606326,2696,4927,222168624,130,3.59,1.71,1.65,0.08,0.0,150973273,150672000,0,165545070,31
12513980,234485,56113994,6261408,56242956,6262352,126714,2134970,522612956,12894,11605134,1157,3349,206937550,132,3.35,1.6,1.54,0.08,0.0,141705251,141393000,0,156008408,31
12353278,242696,47123734,6426585,47200579,6416742,166119,2288568,542730329,14517,11971592,2216,4221,240048389,128,3.42,1.61,1.54,0.08,0.0,147363597,146009000,1000000,161866254,31
277551540,374825,268270680,18709926,268182424,18714512,159091,3859439,1035236027,26124,276854055,3787,7616,1616746294,136,6.87,3.31,3.2,0.15,0.0,280200489,278909000,999000,294672041,31
12392776,236465,56211895,6296685,56343394,6309279,115019,2189763,521930297,13444,11645419,1680,3612,294421934,133,3.31,1.55,1.49,0.08,0.0,141296913,140001000,1000000,156089302,31
370519379,342573,342810935,6152389,343070716,6152878,189372,3575468,939271414,24475,372425617,3722,8989,1659945152,133,6.35,3.19,3.09,0.14,0.0,252900758,251484000,997000,267652259,31
12058243,222241,54379887,6875666,54366970,6882509,133896,2314567,540690681,16167,11964333,2294,4562,268505458,132,3.5,1.67,1.6,0.08,0.0,147296767,147019000,0,161751686,31
22308650,221724,76810026,6744286,76918204,6760196,107776,2043570,508058017,13187,22228964,2197,3860,258842557,129,3.22,1.5,1.43,0.08,0.0,137172871,135889000,999000,151590586,31
11621333,216950,47277453,6921279,47426573,6936525,119050,2099816,519370094,12934,11527255,1238,3456,154856481,131,3.27,1.52,1.46,0.08,0.0,140671864,140333000,0,155239788,31
166554369,220544,131353161,6243127,131145599,6247796,134068,2029684,466950391,12075,166045347,1374,3563,832972070,130,3.22,1.6,1.55,0.07,0.0,126554047,123232000,2981000,141139199,31
166923215,198574,131345109,6318674,131194667,6319080,131872,1945157,464881058,11572,166010203,1130,3667,832851531,134,3.2,1.59,1.54,0.07,0.0,126577568,126195000,0,141071950,31
12599542,267348,69737637,7230607,70015100,7238950,104440,2278524,551333314,14972,12613175,1769,4494,196810009,132,3.46,1.63,1.57,0.08,0.0,147763704,147290000,0,162338633,31
164732581,214402,131361393,6239341,131745495,6251846,102991,1988486,492108018,13853,164867706,2000,4708,899805145,131,3.39,1.7,1.64,0.07,0.0,133228702,132806000,0,147941044,31
166372570,214624,131213208,6274952,131059284,6281914,127465,2088552,470586693,13156,166335674,1561,3638,833184755,132,3.21,1.59,1.54,0.07,0.0,126770296,125442000,1003000,141198538,31
166319459,367996,133145113,6353143,132988894,6364189,160955,2472353,486938699,18775,165936091,8501,3758,824347163,136,3.39,1.57,1.52,0.07,0.0,128086009,126846000,998000,142351885,31
165471820,213683,130957678,6283475,130874546,6287489,119626,1928099,467523077,11659,166432370,1154,3308,834260429,135,3.17,1.59,1.55,0.07,0.0,125984840,123723000,1995000,140476704,31
11825694,225817,46638119,6399990,46801646,6418243,115513,2131048,512720872,13242,11610416,1676,3611,151492464,133,3.23,1.5,1.44,0.08,0.0,138544204,136306000,1989000,153281842,31
72865628,176893,64395949,5562313,64508087,5559358,104275,1333358,260653464,6685,73332941,1311,2046,389849166,132,1.67,0.8,0.78,0.04,0.0,70102297,68826000,997000,84641234,31
12210284,233108,47986776,6690456,48114863,6714233,159475,2089313,509276688,12789,11602746,2047,3976,209744283,131,3.2,1.51,1.45,0.08,0.0,136804904,135584000,996000,151076564,31
11580424,165456,47869245,6825896,47930203,6837855,101027,1378401,279716036,8839,11604587,1398,2428,333873259,128,1.76,0.81,0.79,0.04,0.0,76125234,73857000,1996000,90670441,31
15717000,556210,330067008,26071932,330132700,26126517,248413,7027484,1968292350,50139,15684355,6323,13479,1401518856,133,12.41,5.85,5.63,0.29,0.0,531379788,530913000,0,545975798,31
11063346,148089,87903284,4148295,88320946,4145658,99059,1187052,227592431,7167,11176226,1131,1977,314414355,133,1.44,0.66,0.63,0.03,0.0,61820075,59582000,1986000,76257925,31
12445511,250567,65767986,6907607,65646470,6895503,113993,2217700,561880054,14502,11685403,1968,4200,379659308,127,3.62,1.68,1.61,0.08,0.0,152479663,151189000,1001000,167013570,31
13430668,238651,45652825,6634426,45740830,6682703,117041,2024749,509809734,12782,12742082,1700,3875,152841009,133,3.17,1.46,1.41,0.08,0.0,138089229,136675000,997000,152543128,31
12282542,227665,58492819,8365077,58452927,8318238,107025,2164913,536021942,14237,11928998,1608,4141,208831471,133,3.39,1.57,1.51,0.08,0.0,145415515,144088000,1000000,159767825,31
166795446,194966,131259164,6304599,131113877,6297524,111812,2025177,464189177,11808,166023584,1728,3669,831827307,136,3.21,1.6,1.54,0.07,0.0,126258368,123972000,1999000,140872891,31
2584644,85298,2757573,45709,2758153,43272,57555,378122,37589277,1061,2341022,506,720,22297314,64,0.24,0.1,0.09,0.01,0.0,10592576,9426000,942000,25010459,31
12338749,212079,52917504,6267608,52841161,6280216,104779,2018589,475691087,12667,11400924,1510,3341,204798385,129,3.0,1.42,1.38,0.07,0.0,128640243,127359000,1002000,142992844,31
14814705,126083,6304269,96413,6346504,96690,92772,834976,112395635,4108,14777547,431,790,55236417,130,0.71,0.31,0.3,0.02,0.0,31262954,29982000,999000,45563797,31
450347807,361583,312503702,7206062,312079699,7221148,262348,3748559,975012689,24836,451269960,3841,6854,2068847033,137,6.75,3.39,3.28,0.15,0.0,263605856,261963000,999000,278175700,31
12251338,232359,58810328,7087324,58876550,7087033,105612,2065224,492810563,13402,11734189,2038,3772,214070308,132,3.11,1.47,1.42,0.07,0.0,133236697,131964000,999000,147955984,31
11806639,202809,56097264,6206051,56018764,6177654,280922,2226484,474025892,17571,13383308,2666,3833,280313302,1111,3.0,1.37,1.31,0.07,0.0,129216595,127874000,1006000,143826102,31
12349644,233022,57523090,6881280,57642699,6903332,126480,2228443,511578290,15101,11842815,1659,3682,265911092,133,3.21,1.46,1.4,0.08,0.0,142117563,140726000,998000,156886608,31
12407191,247598,57551667,6969858,57538359,7001693,109101,2047621,501837087,13680,11954419,2422,4510,202180972,134,3.2,1.48,1.42,0.08,0.0,135668225,134355000,1002000,150249405,31
11748631,196342,59223808,7190635,59261725,7198738,121746,2064048,485878765,13170,11724681,2058,3861,214392294,128,3.11,1.44,1.39,0.07,0.0,132314753,131021000,1000000,146885971,31
11982357,225845,57215857,6989609,57357546,7004070,126226,2256186,541277403,15092,11996031,2219,3937,270347933,133,3.43,1.59,1.53,0.08,0.0,146319191,144046000,2000000,160829794,31
12623991,233116,46798512,6426319,46886882,6419493,227164,2429526,537014776,16088,12657948,2466,4319,163178881,134,3.4,1.58,1.52,0.08,0.0,145678152,143273000,1989000,160257124,31
37073953,159410,16986698,138218,16942696,135432,86143,788088,133394298,4550,37757932,921,1416,151227257,128,0.87,0.4,0.38,0.02,0.0,36326885,35044000,1001000,50695752,31
11896076,211902,58505005,6948255,58502121,6957064,107291,2211724,540998275,15103,11840184,2558,4320,213001033,131,3.45,1.65,1.59,0.08,0.0,146402661,146079000,0,160874418,31
13049715,284516,57954347,7014362,57724476,7021133,146681,2209168,513757191,13443,12177175,2227,4012,217670885,133,3.33,1.53,1.47,0.08,0.0,137595599,136333000,1002000,152132035,31
56925898,2564990,34524140,495411,38367037,507687,2143306,7247114,207020144,63431,57171422,81685,39862,199978258,7874,0.95,0.49,0.49,0.03,0.0,32272823,17794000,11862000,46603848,31
8969998,125226,5365096,72620,5351748,73075,107508,577320,46063549,1499,9277412,184,693,47163410,131,0.32,0.15,0.14,0.01,0.0,12271214,10996000,999000,26631333,31
13201688,232261,45859894,6354420,45908888,6370972,127781,2317287,546043512,16179,13182869,2782,4468,218230272,129,3.52,1.64,1.58,0.08,0.0,147630340,145146000,1988000,162102777,31
11735166,217830,46909248,6598381,46909943,6569970,126189,2262774,527494707,15427,11977706,2158,3750,226130973,133,3.3,1.51,1.45,0.08,0.0,144145385,143880000,0,158352939,31
12148331,234229,47255887,7069062,47361378,7066179,131755,2212097,519903952,13794,11588242,1662,3455,154898552,134,3.25,1.52,1.46,0.08,0.0,140675613,138418000,1991000,155269778,31
12521523,226543,58229932,6936004,58157623,6963695,111918,2210004,529106574,14548,11903449,1838,3605,270233026,128,3.35,1.57,1.51,0.08,0.0,143444344,142160000,994000,157858663,31
11707518,127322,5393952,88401,5391717,89481,104251,670323,50136415,1577,12630501,192,341,41464906,133,0.32,0.15,0.15,0.01,0.0,13206130,11836000,986000,27748262,31
