@relation problema
@attribute 'L1-dcache-loads' real
@attribute 'L1-dcache-load-misses' real
@attribute 'branch-instructions' real
@attribute 'branch-load-misses' real
@attribute 'branch-loads' real
@attribute 'branch-misses' real
@attribute 'cache-misses' real
@attribute 'cache-references' real
@attribute 'cpu-cycles' real
@attribute 'dTLB-load-misses' real
@attribute 'dTLB-loads' real
@attribute 'iTLB-loads' real
@attribute 'iTLB-load-misses' real
@attribute 'instructions' real
@attribute 'page-faults' real
@attribute 'power/energy-pkg/' real
@attribute 'power/energy-cores/' real
@attribute 'duration_time' real
@attribute 'user_time' real
@attribute 'system_time' real
@attribute 'perf_time' real
@attribute 'class' {0,1,2,3,4,5,6,7,8,9,10,11,12,13,14,15,16,17,18,19,20,21,22,23,24,25,26,27,28,29,30,31}
@data
251451292,357586,155927059,1018770,155892514,1018282,131906,892350,518301938,1340669,250634303,91,579974,771701425,128,3.53,2.91,159135367,133444000,24896000,204172739,0
252653507,314664,155625379,708131,155095237,705033,102398,769613,497278998,1311013,251986309,88,19714,770479389,128,3.39,2.8,149959134,128537000,21088000,171451795,0
253276190,438428,158791894,710894,158528776,709605,139061,827759,500835399,1528296,247283420,45,123920,769428138,714,3.39,2.8,151238534,120961000,29990000,172628529,0
252521576,299701,155406445,614686,155027852,613669,104068,789553,505961301,1358071,253210668,0,210779,770485339,127,3.47,2.87,152487897,127110000,25021000,174237989,0
253251896,310271,155914290,727641,155533538,728809,116226,853573,509596582,1347709,253581225,41,293064,772596128,128,3.49,2.89,154274891,120797000,32944000,175844884,0
253822353,253691,155701953,707780,155053129,702295,103074,749661,493562389,1268498,252626199,68,56078,771112698,127,3.43,2.84,149069884,126796000,21964000,169635172,0
250486438,275669,154788146,907794,154444952,906288,109988,794487,509018801,1309266,250325899,3,443974,770456785,130,3.5,2.9,153735619,130399000,23070000,174239692,0
249011405,305084,154352187,912524,154276225,913069,104290,790214,513661034,1145156,251452565,44,450108,768203417,130,3.54,2.95,150648355,128415000,21900000,170380429,0
68880169,195667,44599434,217439,45252683,213899,49602,308983,107656862,18410,71500901,46,5105,246049008,136,0.73,0.59,34736770,34424000,0,55726561,0
94827743,211532,62412337,464076,62233099,464734,88536,575917,298537730,1409406,94915060,184,296755,327937000,132,2.03,1.68,90440635,65163000,25062000,110997520,0
250664523,310348,155536522,962692,155601400,965258,115967,845239,520057033,1202836,251725815,207,481979,774956535,129,3.56,2.94,156185049,128863000,26971000,176561064,0
249419912,317832,155078451,913446,155031885,908559,104157,844567,536363096,1065709,250016627,404156,506449,769619604,127,3.67,3.04,161181499,130921000,29981000,182970474,0
248664856,320376,154295887,911682,154294289,914794,108116,798714,516849644,1356762,251565437,120,434008,769831796,129,3.6,3.0,150696805,125387000,24878000,171493488,0
8009601,241214,6039667,167929,6059744,166498,60094,221002,31766646,22375,8685948,39,5364,48972506,591,0.22,0.17,11026865,8489000,2122000,31746764,0
69002956,194913,43940981,193910,43096964,199747,77602,356136,104523543,25583,71279700,169,4984,242200162,328,0.71,0.58,33546008,31185000,2011000,55163703,0
67570676,209194,45166750,212979,45616407,210566,53546,317166,106956252,16483,70202044,186,4787,243379105,136,0.74,0.6,34382391,31043000,3004000,55163783,0
68719571,204341,44682223,220352,45221103,217391,49270,319127,107838770,17372,70364189,53,4472,243485883,133,0.75,0.61,34841060,32619000,1976000,55410064,0
70109131,190907,44770749,216693,45189233,214610,49011,313237,107433482,19073,70461880,34,4504,245327078,133,0.73,0.59,35079647,34798000,0,56809380,0
253994563,305552,155866639,716964,155476043,715310,113716,766302,503600759,1138336,253609907,30,257109,774087698,162,3.5,2.9,151776695,120402000,31103000,172836475,0
57188351,200061,56848230,194855,56301729,193534,51264,309027,121734406,20928,59164552,26,7045,290916241,132,0.85,0.69,39119180,34910000,3989000,59670840,0
250261585,294713,155500358,922759,155090721,919703,110116,858003,524651061,1327867,249327539,216,517422,769938997,127,3.61,2.99,157713955,133315000,24056000,179569174,0
95247050,244846,63239915,414490,62424313,415841,80495,577615,297870421,1130743,95446838,914,290134,328544477,135,2.03,1.67,90474188,61118000,29056000,111130266,0
250124023,318477,154811234,923281,154494742,921848,115348,845602,517305696,1049199,250687782,1,522691,770668685,128,3.58,2.96,155217147,124882000,29971000,176469361,0
248980455,329829,154726956,930176,154850626,918412,108222,820514,500530274,952125,250322964,265,272920,769921347,129,3.49,2.89,149641841,130376000,18909000,170213308,0
253002527,310266,155876925,718615,155495716,713509,107130,774346,502998557,1440666,254036171,39,214166,772486413,130,3.48,2.88,151287838,124022000,27004000,172155009,0
249095988,314621,154799740,1002301,154930140,1004388,110518,769202,516290203,1258707,250193187,228,571484,768560794,129,3.58,2.98,150547861,119188000,31049000,171470605,0
251850259,288878,155120799,870415,154827697,868374,125753,855759,512141657,1347935,250014175,3,505953,771913327,127,3.58,2.96,154620253,130168000,24031000,175605344,0
249662793,313322,154888269,919872,154800936,925382,116567,857079,516902932,1249060,250511687,47,449579,769966066,130,3.6,2.98,154753571,127305000,27064000,174954365,0
253103639,270776,155067031,737627,155128854,738925,107693,779587,513454878,1304824,253861601,37,310544,768685689,128,3.58,2.98,150959405,119418000,31109000,170489029,0
250407377,281181,154608660,921766,154269002,915857,111323,811858,501645970,1144075,251321663,39,279261,771714116,128,3.52,2.92,150413297,120006000,30001000,171253805,0
69017298,206022,44322397,316595,45261847,315370,52029,307917,111846931,19328,71572127,43,4941,247448246,141,0.78,0.63,35580979,34188000,1005000,57246598,0
252243497,286253,155576632,705606,155484674,705484,107462,804892,500061309,1174162,253002724,119,44471,770614093,128,3.53,2.94,146035590,123555000,22099000,167560583,0
98658985,439279,65878082,577599,65144061,566692,239693,727489,313141799,1384034,97512101,208,346754,341636992,1891,2.17,1.79,95396971,65985000,28993000,116395374,0
249110534,303743,154493141,913628,154359894,911230,107241,779510,518183907,1178825,251245709,142,482666,769289610,128,3.67,3.06,151463170,124078000,27017000,172598017,0
252629125,307279,155444288,711840,155459453,713944,117339,800553,510202994,1229676,253981398,138,252864,770355106,128,3.56,2.95,152821023,123620000,28911000,174014367,0
100918560,253285,66269986,667590,66004919,662779,80285,557567,307427297,1277914,100446919,173,423529,343720608,132,2.11,1.74,94032694,71008000,22683000,114765661,0
253743404,302033,155844187,706577,155658677,705161,109474,790357,515870251,1608490,253742921,181,309654,773623685,128,3.59,2.98,154967704,129613000,24925000,175470395,0
252353738,271978,156023711,917852,154855512,913434,126227,850099,519160881,1213769,249236015,121,507021,772196066,129,3.61,2.99,156670382,130825000,24966000,178541338,0
252129612,282866,155147179,703950,155723812,707577,106594,792642,505575358,1037406,253462954,100,220572,769401637,129,3.52,2.94,147881421,123437000,24085000,169755386,0
253765822,347347,158072459,775525,158107413,766839,128769,838360,499982069,1208949,248794647,98,155092,771493852,324,3.49,2.89,149479748,131116000,18015000,170037110,0
69476228,190051,44971450,314571,45054327,315720,49779,318400,111492496,17165,71853022,13,4165,248889158,135,0.8,0.67,32177096,31912000,0,54381964,0
253933671,284087,155895075,747393,155516078,749890,123508,860552,515744186,1432276,253201182,206,296147,773630598,128,3.65,3.03,155099853,126645000,28143000,175641691,0
71376225,155967,45706812,217280,45393421,213948,52926,322099,106101919,25332,70209774,40,4741,246543177,134,0.74,0.6,34143371,30904000,2897000,55904096,0
69330024,193631,45000952,221687,45403807,216003,50166,314710,106317876,18139,69991379,56,4365,242005467,136,0.74,0.6,34734755,33439000,1013000,55334900,0
251772590,290141,155795929,1007977,155593080,1008827,125767,847108,521958137,1303598,250662351,163,475894,774956635,127,3.58,2.97,155568191,124728000,29934000,176502238,0
249778121,299637,154898848,919566,154547573,916927,113295,844764,514501559,1342992,250442332,32,507924,771165189,130,3.57,2.96,153943540,126894000,26766000,174683077,0
69163425,196596,45726300,214060,46125075,210075,50059,310793,105874607,16047,70021243,39,4566,242078587,135,0.75,0.61,34352525,31032000,3003000,55118640,0
254135747,274912,155872387,864093,155681662,865254,108696,818785,521227346,1137675,253422925,171,423718,772470257,128,3.66,3.03,157838104,132447000,25084000,178257415,0
250298179,289504,154753586,914451,154511323,911154,116574,788601,503571680,836029,251115883,176,354443,770765167,129,3.52,2.92,151515497,129102000,22017000,172878778,0
68982141,200044,44982425,213609,45451331,211325,50428,310182,106589819,17959,70038935,39,4167,241834598,135,0.74,0.6,34577916,34223000,0,54679406,0
252227895,305936,155326571,710624,155088643,709665,107164,790493,507876641,1008532,253785633,4,300185,771294897,130,3.53,2.92,152354382,131200000,20872000,173332384,0
94375399,215075,62138476,490699,62061613,489294,77227,563497,293011788,1140445,94899328,1162,272901,326622624,132,2.06,1.7,90096908,58465000,31248000,111256868,0
251638136,302689,155055722,720016,155203341,720569,105399,806367,518746731,1329372,253869319,109,297877,770518751,128,3.68,3.07,152520731,119396000,32834000,171607474,0
70092749,189932,45704645,225070,45869687,220300,55090,343184,106565041,21382,70039875,26,4687,244690430,132,0.77,0.62,34274456,29887000,3985000,55682416,0
68888313,206904,45792024,266128,46193378,265135,53178,324623,107488553,17016,69572139,17,4858,241338156,135,0.75,0.61,34617055,32339000,1959000,55577162,0
69292009,190001,44808113,239692,45245185,235385,47008,303026,106630175,19544,69950340,22,4208,242665780,134,0.73,0.59,35084208,33802000,1024000,58658357,0
253177782,269995,155587352,714465,155418671,713190,110376,816933,509571557,1001544,253090479,196,300339,770566120,129,3.56,2.95,152927523,123443000,29104000,174559404,0
252424318,290196,155526880,732062,155576560,732953,117998,775069,505852169,1112693,253634668,1,218835,770454277,127,3.53,2.93,151720123,126149000,25029000,172103549,0
252927207,292868,155857092,719077,155581720,718686,110874,823392,507471576,1447722,252741119,3,265541,771544896,128,3.58,2.97,153349665,128018000,25003000,174287551,0
254837547,300764,155897557,711022,155201187,709929,108946,804719,507602427,1059164,252889998,7,172447,774344906,128,3.56,2.95,154227434,123871000,29968000,176036145,0
252446242,329254,155848224,719139,155682594,717406,106966,824339,506645319,1059469,253435147,0,268311,771086684,127,3.54,2.93,152685609,124426000,27871000,172742847,0
251852402,323421,154874885,657408,154887830,661799,109977,781290,509251634,1106298,254000625,38,296811,771168966,128,3.55,2.94,152433989,118124000,34035000,173854408,0
258146777,311691,158748938,703914,156284517,701496,116306,814060,485866916,1338833,250039915,31,11706,777384345,324,3.39,2.81,146499797,120121000,26026000,167861592,0
69160480,196811,45077078,214176,45714150,211135,70157,337811,114192473,17291,70718901,42,4628,246349109,136,0.75,0.61,35165968,33605000,1018000,56239027,0
253683925,287979,155334195,709347,154979510,706079,102504,776130,499270262,1408746,254115069,44,159300,774730283,128,3.49,2.89,151061004,121902000,28976000,171969973,0
67859041,216331,45413152,173391,45759615,169389,50488,308875,104893016,17158,69301841,48,4041,241516993,134,0.72,0.59,34401266,33123000,1003000,56251645,0
227998315,259246,138769236,460606,138878857,459225,94050,564159,322680959,35804,228782617,33,10385,684899811,322,2.28,1.9,95053497,92800000,1995000,116096570,0
251786899,276162,155097662,921825,154492759,911682,107438,823131,512011232,1609619,250386760,305,460020,771720312,127,3.6,2.99,155316857,129033000,26006000,177374483,0
247640329,296053,154277916,909541,154140927,908946,106835,785931,509399100,1294606,248579978,36,515490,763389717,129,3.58,2.98,152004726,123755000,27944000,173000362,0
250163676,306505,154741069,821965,154561366,818914,110014,820807,508767389,1069505,250770273,0,432034,768105333,130,3.55,2.95,152678154,126475000,25892000,174407725,0
228269441,240426,139746362,487166,138947081,485068,98127,604700,318625580,40465,226316004,0,7689,690869697,326,2.24,1.86,98027474,97763000,0,119093961,0
67254090,221623,45032276,212739,45517645,210093,50202,312102,106959205,14709,70050966,37,4516,241984357,137,0.72,0.59,34487321,29110000,5019000,55854404,0
68745840,192541,44764850,238707,45208069,235705,48053,308661,107333122,18846,70370435,23,4825,244226364,134,0.76,0.62,34675584,33268000,1008000,56007683,0
249106917,324048,154825396,914422,154643037,915202,106731,789114,508311110,1346192,250327732,49,367270,768232882,130,3.57,2.96,152146430,121885000,29971000,172215840,0
253086578,279846,155941885,813922,155571182,815432,108723,826086,523397492,1154985,253704949,41,315939,773786673,128,3.71,3.08,156458957,126064000,30015000,177302887,0
246775047,321247,154038022,950564,154377960,946017,100063,760297,497791437,1443223,247478743,49,216479,762659806,127,3.49,2.89,149736048,122343000,27075000,170433047,0
72017586,218859,47275912,377081,47071204,374909,54304,315016,122528118,17542,73995289,29,4935,262031466,138,0.87,0.71,39570469,36147000,3012000,60378952,0
252425612,295467,155438209,715475,155289191,713734,104702,787063,508799691,1059242,253201997,40,295870,770671216,128,3.6,2.99,152303585,114078000,38026000,173017926,0
68233260,217168,45708108,219648,46082808,216743,50149,310413,106273525,16399,69861757,40,4701,242221751,135,0.74,0.6,34868915,33487000,1014000,56180882,0
69017157,204120,44805142,263445,45467391,260669,47664,300405,109551340,17297,70595914,35,4465,244545083,133,0.77,0.63,35336157,33999000,1030000,55746718,0
254126362,267027,155515510,756747,156144929,746056,119165,899649,506428594,1049566,254118893,195,167881,773084968,132,3.63,3.03,147528773,115137000,32038000,167784769,0
95356060,216801,63354561,513292,62844754,511578,81517,538796,285514936,1194719,93702260,721,156026,327194110,134,1.98,1.63,87774581,59271000,28128000,108694454,0
252976897,280480,155650821,706054,155388877,706410,106660,795948,511458169,1395309,252837181,1,308316,770338315,129,3.58,2.98,153249406,135815000,17102000,173064116,0
249928995,285654,155010234,932594,155033231,931387,108112,794486,513799535,1076107,250459611,1,513665,769760161,130,3.62,3.01,153803835,132503000,21080000,173631802,0
249053800,300276,154403997,906602,155233017,914573,107044,800197,501313308,1051126,249663647,201,244461,767256314,132,3.51,2.91,149394037,123079000,26016000,170061365,0
248931178,333596,154696408,1060850,154655179,1060100,125967,811703,519223288,1038027,250716161,101389,451129,768432114,128,3.67,3.06,152670101,122298000,30073000,173880378,0
252666737,282095,155177289,697187,155694284,698438,102033,753922,506130549,1034574,252551317,65,234748,768778602,128,3.57,2.98,148531399,125214000,23039000,169309807,0
252021617,297192,155129929,706887,155222123,706487,110802,810780,510055676,1065938,253540477,112,303366,769696194,129,3.59,2.97,153295785,121994000,30998000,175108544,0
96419105,243026,63175810,578967,63203141,575852,76641,523020,302958171,1257841,96003455,751,372950,329819922,135,2.11,1.74,92648072,70299000,22093000,112785901,0
253707296,256352,155531440,701537,155169377,697266,103257,753900,490901100,1049358,252784050,60,14041,772543762,129,3.49,2.89,147890373,127699000,19953000,169498665,0
93220346,216758,62368156,515617,62247319,514295,79144,555366,288290990,1284479,91934581,698,222489,319355664,132,2.04,1.68,88417625,55045000,33027000,109011098,0
253617943,309012,156422010,712182,155505549,717201,112749,856320,523917914,1133302,252199185,387619,224187,773621067,127,3.69,3.06,157990180,134597000,22931000,179688484,0
253446812,262795,155284015,712840,155027461,708483,101938,773240,508446964,1040376,253947067,71,297322,770741142,127,3.69,3.08,150898883,128551000,21923000,172409913,0
94683056,232009,62544031,465685,62230878,462716,81703,533658,292172100,1236101,94588153,63,258498,325889769,132,2.04,1.7,86348788,52045000,34029000,106966778,0
68258643,225796,45058071,228817,45571389,225715,49684,307153,109868705,18073,69455206,30,4470,241791826,136,0.77,0.62,35570203,34346000,1010000,56090293,0
252377943,284482,155782355,696760,155706140,693107,97383,763884,490886211,1341520,252259011,58,27118,768201626,129,3.45,2.87,147153795,119920000,26982000,167844019,0
250069509,291716,154789876,922814,154839555,922015,115755,819658,515228403,1446349,251337523,3,473101,769669296,129,3.67,3.06,152333767,122003000,30000000,173362936,0
68494470,205308,45550460,168579,45950660,164347,48730,319065,105445639,15954,69704055,16,4103,242895405,133,0.73,0.59,34686359,31577000,2870000,55639525,0
253493010,272646,155293681,757535,154827056,752352,100049,765299,499896554,1235703,253836724,18,138534,771205718,128,3.54,2.94,150342907,122004000,28001000,171326998,0
252689627,304212,155655690,818089,155328803,815189,109115,831719,513084452,1138291,253351741,5,309535,772899110,127,3.6,2.99,154158303,127872000,25974000,175426345,0
2978486,330207,21288956,405926,21422701,415006,177080,1479873,1065150852,47181,3136594,242,14468,219721844,131,7.64,6.4,313820207,311189000,2001000,361809665,1
1085230,112790,5751126,145597,5702764,164851,41948,353256,210134978,9492,741202,51,4154,123327412,64,1.42,1.17,61346964,60099000,1001000,84206662,1
907393,132317,3536012,114597,3596128,114169,52023,354781,171834277,10190,572565,0,3278,137922211,129,1.18,0.97,54126483,51960000,1960000,74547522,1
796737,117698,5485634,132905,5268720,150507,39952,268922,121052591,7765,355692,30,2997,102045189,128,0.78,0.62,39218443,37918000,997000,59777242,1
1157294,149170,3587501,140589,3526988,136284,65880,524850,294022345,19010,1094953,31,5329,228343075,132,2.1,1.74,90451842,88158000,2003000,111202221,1
1918293,240064,21221255,218814,21061140,215719,104107,860173,585074643,27514,1876221,207,8868,314338539,131,4.07,3.39,174470617,172167000,2001000,194787431,1
856676,116994,3457662,84076,3282859,72086,31840,200376,70222861,7412,518781,62,2232,65135268,132,0.46,0.37,23243309,21942000,997000,44126238,1
3123799,343088,66199937,325911,66096054,319055,157927,1292918,971930733,38059,3210735,78,14003,949128975,133,6.16,5.02,288443252,286978000,1003000,309863258,1
124028586,7412720,133542179,1335622,133234290,1301248,2650402,5408748,1038772875,1289612,123051053,33006,471561,895887549,17198,5.33,4.52,190917200,189665000,998000,212539115,1
491106,83436,5882894,206081,5857562,203351,51735,385335,151438378,24353,749267,0,2011,88713193,191,1.02,0.84,45001053,43773000,980000,66263178,1
4820730,582588,211616802,571437,211503779,566442,264979,2285716,1756228796,65424,4646841,381,24710,1998026705,128,11.02,8.97,519608121,518157000,1000000,541190818,1
1848892,220613,4882155,231032,5094254,237115,114726,863446,559525736,26886,2170701,186,7833,76685556,131,3.99,3.33,167157289,164701000,2008000,188901182,1
91651087,270161,143451731,851764,143269337,807756,127719,998803,734400814,32060,91342906,212,11761,745995333,133,4.92,4.05,219597907,218367000,1001000,240856854,1
1043607,115174,3464088,130952,3687417,131687,61702,418768,217127532,18362,1030953,0,4209,142301053,137,1.52,1.25,68415781,66044000,1971000,88625429,1
1806411,235767,56075312,237328,55206823,239147,114946,920658,614618778,28447,2287730,161,8276,679641002,130,3.88,3.15,184373973,182861000,999000,205261479,1
5388321,570654,211690570,577230,211806076,573658,270200,2306030,1761028119,69413,5585972,275,23889,2000200956,128,11.09,9.04,520107818,518292000,1000000,540987321,1
558329,110016,2607765,96721,2546942,93630,42503,308067,138624370,9777,469157,39,2156,30489714,130,0.99,0.82,42822230,41571000,1013000,63229516,1
848227,121975,3473423,134399,3670915,134994,64838,445130,225232287,19085,976232,0,3391,144895425,127,1.52,1.24,70433292,70021000,0,90979143,1
850350,106167,4781262,168213,4443915,157336,38977,266414,126728045,14171,757608,65,2921,75781086,132,0.91,0.76,36727450,35399000,1011000,58772565,1
682768,78323,3083454,90355,3208454,85225,40313,275909,95362212,15859,1221724,25,2587,88749218,132,0.58,0.44,35175911,33849000,995000,57098053,1
1700650,218524,6820851,259904,7049620,263170,98218,754645,473989500,22409,1620321,68,6152,76450678,133,3.4,2.83,142991893,141640000,997000,163118134,1
70851992,464271,130033533,462360,130154118,460131,217791,1862675,1397695772,53206,71143466,320,19187,1639078865,129,9.17,7.55,408611003,407362000,998000,429080042,1
492380,89053,3541759,95991,3335328,95666,42787,308814,141482906,13870,384026,0,1858,84118270,132,1.01,0.84,42183510,40916000,997000,62549380,1
4996231,563904,211841888,586255,211805413,586883,287497,2379780,1760441629,69959,4904628,313,24197,1998154495,129,11.07,9.03,517648197,516267000,1000000,537887583,1
1271288,138065,2630349,86412,2594725,86457,37278,228345,78720786,6334,288358,195,2392,63249549,133,0.5,0.4,25771687,24440000,1018000,47046067,1
994140,132356,6562641,179482,6470299,164043,59583,403655,212038216,15306,1001954,203,4465,122529312,132,1.42,1.16,65171805,63639000,1010000,86501988,1
1341609,163241,3701586,128877,3623955,114973,53118,378091,214189178,11825,937493,330,4848,145884239,128,1.48,1.22,66518743,65153000,1002000,86849109,1
2098075,235975,6915648,249884,6880690,238166,87797,690563,454743328,17816,1277003,338,8038,70470097,132,3.2,2.66,137197551,134862000,1997000,157854040,1
5694418,612920,211830099,565462,211710536,566663,286625,2306711,1760497137,62074,4711601,537,24446,1998667574,127,11.18,9.12,520407631,519222000,1000000,541004877,1
555724,94650,4725285,144203,4690073,159023,46393,319810,132460421,16147,703978,309,2508,83365194,132,0.91,0.73,42859579,40600000,2030000,63291841,1
388517,83872,4360388,141155,4334543,143931,35917,257062,92982882,10584,300392,0,1289,60592260,132,0.65,0.53,29595908,29287000,0,50380963,1
612032,90308,3289163,106819,3445229,110219,49294,377462,199291140,18694,883611,31,2545,111082972,128,1.4,1.16,59170172,58834000,0,79577815,1
5108239,344170,108181955,342515,108106474,353064,161525,1355129,945789946,37947,4996425,122,12484,1107819048,128,5.9,4.79,280982476,279682000,998000,301710139,1
1080655,145546,3731540,133851,3638403,133199,62882,456914,262932416,14016,716039,205,5026,49118826,132,1.88,1.56,80707419,79517000,993000,102120595,1
858366,111999,4964030,134501,4854049,134339,38423,346623,204603698,13870,788756,205,4363,120392391,64,1.38,1.12,63885631,61706000,1990000,84881817,1
7485314,668467,84491734,4754642,84492653,4767589,315735,1922003,1311444890,91028,7675771,282,23886,434980186,1808,9.56,8.02,385260933,378770000,5996000,406262559,1
11098983,660228,218614705,629696,218368729,631326,295118,2582450,1964132556,75293,11044746,555,28726,2335519825,131,12.42,10.13,579188594,577812000,999000,600268723,1
898969,111289,5550120,185283,5654453,162532,55716,395683,210552133,17923,1123059,238,4150,123954516,132,1.45,1.19,65734498,65410000,0,87053324,1
1033577,149132,3599522,123664,3438736,118624,59432,393200,209268915,14347,1100919,166,4962,111297743,131,1.45,1.19,64540218,62286000,1977000,85587897,1
984399,149993,3577137,124519,3573813,114299,55463,396558,226177827,10735,901148,35,3965,127127697,128,1.59,1.32,65874680,65638000,0,87022747,1
3504707,384307,107376117,356769,107327951,350921,165414,1377913,1027442562,42402,3360091,310,15076,1128633392,131,6.69,5.49,300435628,298969000,999000,321592642,1
709818,109998,3488385,95175,3482704,97380,44221,321013,142758279,10930,863583,3,2022,85601922,132,1.0,0.82,45291604,44101000,1002000,66105154,1
1178822,138852,4960760,166141,4923622,180907,35659,215215,87050778,4444,302392,132,2510,84704337,129,0.57,0.47,24962948,22746000,1977000,45547047,1
1064854,122949,3432792,122316,3402738,118531,56305,454436,259174579,22177,1064645,244,5032,143005011,134,1.89,1.58,76191152,75904000,0,96934727,1
653425,115142,3473046,93316,3594141,100993,48711,333938,143853085,11567,807201,26,1971,85658669,132,1.01,0.82,45749712,43521000,1934000,67308548,1
108028821,440810,156286819,9014600,156267671,9009430,222443,1726677,1296984282,54374,107597097,360,22589,1929547215,133,8.62,7.1,384861112,382080000,2000000,406152299,1
4472339,105253,12625611,228603,12587979,234623,42958,311165,131429190,9834,3825254,0,1941,113622707,132,0.92,0.75,42600985,42264000,0,63142994,1
935335,124559,3600250,117715,3381905,109253,49608,375945,209774193,15167,851722,27,3947,111027530,127,1.38,1.13,64609862,63361000,1005000,85671339,1
961135,148574,4812530,198750,4959020,200595,61155,482273,284638879,16374,1101257,101,4429,48704110,127,2.08,1.72,87051534,85786000,997000,107453061,1
1977631,133968,5495399,132423,5394677,132761,38737,265423,108329957,9655,1527574,22,2715,88398925,134,0.74,0.59,35910507,34637000,989000,56348073,1
4507723,323969,119141281,702800,119125809,704984,167961,1398365,1052850843,48846,5074329,166,15166,1163744815,131,6.85,5.6,312198189,310844000,999000,333370519,1
787226,89390,3327636,97940,3289531,89569,39727,256053,112031594,15458,1010740,85,3280,92920068,128,0.8,0.65,36191136,34904000,997000,57390679,1
2035368,244577,55222961,236807,55095214,231974,109651,873296,605678767,28072,1827011,41,8529,642222747,135,3.97,3.26,176813472,175564000,1003000,198413889,1
622551,103879,4594172,145800,4546742,146274,33548,207557,73562719,6412,484778,40,2130,63479296,128,0.46,0.37,24249217,23145000,964000,45070864,1
944224,122547,3574067,118878,3449976,113931,52726,397686,217962330,17146,1006125,27,3819,143326535,131,1.49,1.24,63970961,63678000,0,84462020,1
422219,98826,5718006,646540,5785517,657958,37765,259841,98634557,10080,636075,26,1401,69461552,131,0.67,0.54,31791437,29522000,1968000,52749776,1
1275535,141020,4974591,178927,5486375,177760,83192,662154,422608479,27784,2142007,0,5447,238531614,134,3.03,2.51,128470928,127204000,1001000,150579599,1
72299329,583728,126450790,450476,125912836,452381,212145,1773953,1338085297,64065,71329458,624,23754,1401976899,133,8.85,7.28,390531719,389218000,1000000,411268903,1
505905,105856,3268970,81970,3314256,81854,37388,265251,85429270,7523,417941,0,1255,84507487,131,0.56,0.45,28882836,26625000,1901000,50060951,1
934883,127649,3624341,121306,3400927,110559,50886,380650,208974454,15554,889733,51,3935,111691794,136,1.46,1.2,64783566,64603000,0,85611741,1
605102,94603,5026623,88899,5029340,86571,38303,229066,74637133,8643,340700,38,2085,74451367,129,0.52,0.41,24975448,23694000,1030000,46268786,1
624026,106573,2619155,83699,2604109,75768,33430,209581,72916697,6420,483956,38,2067,60054563,132,0.51,0.41,24129636,22817000,992000,45576204,1
709055,104557,3436493,93233,3422384,90616,40065,269036,122855041,9953,356190,35,2793,93764191,133,0.89,0.73,39159008,38855000,0,60596425,1
727311,89393,3312347,96243,3461115,95704,44003,297668,122255098,14333,672149,0,2321,99138551,133,0.87,0.71,40282653,37920000,1944000,60993601,1
1139057,151897,3734901,144103,3633971,125737,57963,434779,258246116,14968,1089935,117,5141,182114583,133,1.82,1.5,79460084,79130000,0,100325878,1
677943,76543,4201041,83399,4090115,80171,37432,280554,114120252,15168,712202,19,2992,64813830,134,0.83,0.69,33976291,31547000,2035000,54887256,1
1360386,153823,3564444,132239,3648803,132480,60499,454855,227700956,12702,759862,0,3053,136673049,134,1.57,1.3,69730812,68437000,1006000,89798767,1
447105,107092,3366830,79023,3472806,84863,38321,272430,112074872,9969,634556,44,2008,85234704,132,0.77,0.64,32419897,31069000,1002000,52779310,1
1071945,127403,3512085,119317,3560226,124943,59241,450876,226786416,14567,798702,116,3374,136414160,132,1.52,1.24,69951578,68726000,1010000,90965859,1
8762997,583917,9157759,260995,9427750,270323,354501,1309166,723373460,108724,10917982,158,33129,131875454,4040,5.17,4.31,215034773,209679000,4992000,235546098,1
655023,88977,2610576,89279,2668110,76852,38825,213852,69248945,10014,614925,30,2124,52814935,133,0.49,0.39,23538811,22119000,1005000,43507693,1
993084,141233,3523067,121007,3555361,120707,55889,425392,225046694,11933,675969,0,3086,136250840,131,1.57,1.29,69767652,67495000,1956000,89664980,1
1568273,218552,53987741,182114,54019730,181588,82077,677620,453311596,21107,1474733,88,7226,590320571,130,2.96,2.42,133479430,132168000,1001000,154827671,1
6404246,371604,112571528,359800,112509826,367960,178848,1493153,1145985838,44272,6601904,62,15261,1305095165,131,7.39,6.03,339792693,337476000,1991000,360823486,1
439469,107239,7179919,155300,7194185,156054,36430,266622,114944318,9745,604283,47,2587,117865889,131,0.79,0.66,33171308,30929000,1933000,53980444,1
952863,98739,3197049,123423,3666152,130180,59973,446761,223044684,21178,1418528,94,3051,130600064,133,1.58,1.3,69321907,68027000,1000000,90448363,1
1345583,166219,3586960,122331,3412188,112035,51510,396159,223920704,11529,944720,68,4221,143968172,132,1.59,1.33,65673827,64394000,1006000,87240814,1
35444937,177239,55679806,177387,55583041,177317,83733,678567,417085648,22808,35433907,146,5971,314933955,132,2.94,2.43,125310192,122993000,1999000,146847679,1
721072,112984,3437029,92414,3419670,92750,38892,265595,118047113,7692,336044,31,2923,93809897,128,0.81,0.65,39165599,37929000,998000,58210619,1
4852911,545908,211415013,572705,211543897,573324,270924,2307793,1775400065,71410,5096209,211,22951,2010332545,133,11.59,9.49,522281124,520849000,999000,542265628,1
4853217,550451,211557029,552724,211394648,543509,263657,2211814,1737538965,67247,4791315,36,22931,1979740858,133,11.35,9.28,512707795,511419000,1000000,533572352,1
900172,120285,3372967,108676,3362878,105191,49489,387531,198668524,13970,930487,53,3824,136918481,128,1.45,1.19,62872868,61667000,1010000,82431677,1
1574054,205722,3974575,175982,3777453,176835,85718,680820,457881103,23185,1621411,72,7241,60819668,133,3.32,2.78,133414954,133171000,0,154071743,1
2972301,159726,6110776,191569,6083943,192749,66585,530912,292404776,15961,2916166,35,4971,51123118,129,2.1,1.74,90018489,88765000,997000,110740269,1
34948956,578410,124415660,2297595,124452383,2294965,277881,2291916,1740796348,66486,35090533,360,25609,1219648818,134,12.02,9.96,510810791,509313000,998000,531019457,1
855841,90184,3294860,103371,3307306,105964,50781,376044,206566681,18950,985325,32,3808,111491054,133,1.48,1.24,60965227,58656000,1988000,81922575,1
620830,103937,4941887,151582,4939553,161385,36922,260288,84112848,7546,342117,0,1318,86058769,133,0.56,0.45,28656164,25599000,2844000,49423273,1
1418993,152380,3360583,100805,3451811,107387,51338,373083,204762329,9249,846999,23,2997,117707268,132,1.46,1.22,60267203,58985000,999000,80979014,1
1196061,129863,3356678,106866,3284789,102317,49424,382351,200582701,13190,944714,39,3762,104763169,128,1.38,1.13,62417986,61203000,1003000,84296774,1
8840298,106490,2317815,75008,1944920,66731,29706,183247,63609229,8227,8909040,18,2083,51422886,133,0.42,0.33,21738872,19709000,1877000,42001133,1
10658165,776466,7923621,107695,8810580,107910,229337,796587,135622916,88486,9775052,285,18459,117425824,3860,0.94,0.78,39509874,30112000,9033000,59688635,1
608701,122325,3293708,107722,3437165,110217,49136,380633,203209807,12499,857082,6,2581,134603501,131,1.48,1.23,59144412,58963000,0,79426843,1
2568499,277547,4361146,294421,4706847,301995,146095,1142410,811364246,39092,2705733,25,10961,102062971,132,5.93,4.96,242010027,241479000,0,262390587,1
992591,126871,3491392,122252,3566731,123736,60345,439441,226796544,14775,830802,100,3644,129232786,129,1.59,1.31,70219233,68800000,1011000,90986388,1
933362,106050,3288390,119989,3398351,110850,50067,376555,207145833,19597,1345499,41,3931,111566266,129,1.43,1.17,64693321,63354000,1005000,85808945,1
5243106,581835,211714871,617138,211820662,619747,306737,2547360,1945257838,84073,5509348,113,24769,2227399410,324,12.78,10.47,573910262,571608000,1998000,594885513,1
2391351,240957,3951970,265475,4501067,263925,144845,1025777,740569489,36353,3019261,71,10885,99776105,133,5.43,4.54,220590686,219140000,1000000,241235232,1
944815,124859,3546036,119609,3579453,119812,56289,406725,199972339,12342,653691,0,3239,134196333,132,1.39,1.11,68715288,68372000,0,90841579,1
703713,99394,4048365,92835,4016442,93582,41809,308381,129530563,11011,404897,0,1866,76862315,132,0.91,0.74,41930919,40585000,1014000,63307092,1
696141,98386,5719174,151159,5731573,148108,35429,265335,108548913,11558,659466,34,2929,103441477,128,0.77,0.63,34400833,34098000,0,55694547,1
207161876,618743,121830391,1989923,117122296,2195577,150854,690082,295807003,63716,201906771,82,8881,614778350,907,2.11,1.76,88461876,84883000,2995000,134418826,2
192663618,491537,119558785,1509437,121904714,1432095,107036,674190,286268908,47906,196692844,1,9198,579884775,1000,2.02,1.68,86424994,82098000,4004000,107293377,2
136037840,8717332,94248251,1689344,93943395,1721113,512816,2782846,381522077,568325,136458661,153,22240,432174737,2868,2.55,2.08,116289234,109094000,6942000,139233637,2
73629559,398436,51428246,1436766,49750669,1410620,87557,403161,128091204,37739,68277438,4,2860,248611355,521,0.92,0.75,42183606,38228000,2940000,62180553,2
193514330,724747,122058758,1563409,121898593,1459754,157526,690159,301831406,64386,194424185,186,6176,580807567,909,2.14,1.79,88271715,83871000,3993000,108889281,2
78858724,474290,65917096,1655576,67270840,1529549,71279,385229,169610191,25203,82499290,27,6102,331401583,523,1.19,0.99,49542283,47193000,2008000,70828729,2
190069752,384536,119035398,1670327,119352415,1369271,106159,579000,288009944,36908,192633515,39,5481,578607380,519,2.0,1.65,88123437,86779000,1009000,108855993,2
192628640,960395,118922700,1638702,120332562,1449379,137652,801786,301213198,70827,197670777,73,14606,587756319,1904,2.19,1.83,88951980,87582000,1006000,109959716,2
191543169,592514,122408766,1431114,121243055,1429168,105013,664750,291924311,36536,192665665,131,9095,584007694,1001,2.03,1.69,85517915,83195000,2004000,107221448,2
73442506,743828,49197122,1425713,46970885,1405972,125270,479021,132493446,40590,68285660,121,2797,260810309,914,0.94,0.77,41442649,36108000,5015000,62637739,2
71385007,843468,52967728,1420745,50384418,1393317,114509,521532,136944661,47035,68837233,17,7166,249498590,1430,0.95,0.77,43382794,38933000,4098000,64293672,2
98083399,1222754,87164167,2569521,89707762,2612829,153115,751660,278868767,71806,100275994,98,17296,454599240,2333,1.89,1.55,85961196,78578000,7051000,107250027,2
207683510,329888,121880903,1613996,116528111,2166526,110407,593384,291941723,38348,194949987,48,8493,615200615,520,2.05,1.7,89936918,87699000,2016000,111044173,2
194136652,685889,123479560,1621048,121698221,1417611,156060,681171,293760985,59018,191072232,89,7172,582689612,957,2.05,1.7,89343848,84071000,5004000,110132327,2
195609121,439970,124744501,1513986,121787719,1464337,115668,635141,317685052,43360,188914625,1,737908,578235226,519,2.22,1.83,98566454,96201000,2004000,119523269,2
72827903,730703,48703074,1447413,46555732,1396664,125503,470968,130386899,48125,68043620,0,2765,252315136,916,0.92,0.75,42262342,37947000,3994000,63272863,2
70168844,699650,46602835,1431643,45626143,1474824,116263,414988,135732344,33976,72417062,63,3698,252359861,917,0.94,0.78,39166025,36951000,1997000,59439251,2
70914556,517308,51203789,1263292,53242771,1075780,67621,419933,136156618,21006,66025490,1,6733,243092033,784,0.92,0.74,43225208,39994000,2926000,63732720,2
193871860,435140,118324633,1701145,117925219,1597383,110815,621981,288737113,38942,193764422,40,6869,590467494,522,2.06,1.71,89212513,86897000,1997000,110051264,2
73815139,711764,52969417,1457996,49426624,1398999,127596,473183,130399769,48189,66348691,5,3505,246051274,912,0.93,0.75,42519129,40201000,2010000,63873946,2
67846243,436424,48858137,1428028,47575690,1684097,68272,333179,128915555,20039,73739792,175,6345,243728747,525,0.89,0.74,37650404,35405000,1966000,60855105,2
72983138,720797,50334984,1450328,47149252,1408037,129263,480742,130645222,50555,66534949,3,2712,251951157,917,0.93,0.76,42699287,39364000,3028000,63747860,2
67332418,812168,50865947,1451034,50258753,1254133,92211,444449,130437346,31266,64265651,3,4987,234330382,916,0.9,0.73,42953949,40578000,2028000,63693862,2
191722916,1068426,124195960,1699370,123752820,1479496,177020,695274,308893740,37512,199165492,195,9092,617347779,1299,2.17,1.8,93621259,89255000,4011000,114696066,2
195741172,740542,123279027,1667191,121190434,1505574,151546,678840,292333868,68615,191451668,163,10289,585540998,908,2.05,1.69,89280596,83966000,4998000,110705830,2
191434312,522776,119437138,1667627,120939343,1357436,102109,664717,287044638,47686,195644682,43,9426,583209767,1001,2.05,1.7,87738287,84385000,3013000,108879154,2
191395940,414612,119269571,1519664,120626254,1421070,110083,591569,284278998,36251,193314373,3,5515,577437170,520,2.01,1.66,87414493,85033000,2000000,108692037,2
190902416,461983,122941714,1455508,121521277,1420354,110640,583462,292377461,36133,191405306,117,5453,574725851,519,2.09,1.74,85175742,83866000,1010000,106572001,2
80699067,361434,54098523,1597751,54762754,1293885,91145,411196,139781363,36237,82399588,172,2792,271708725,526,0.98,0.79,45563010,42227000,3016000,66231913,2
188935542,418267,120878472,1650885,122196531,1348928,100599,586249,287214325,33412,194327842,40,7677,571324403,521,2.05,1.69,87942688,85717000,2016000,109277433,2
190085741,423820,122095253,1636064,122251754,1355263,115698,609004,288329654,39694,194206680,57,5643,576845778,517,2.07,1.71,88222335,85941000,1998000,109068889,2
201754368,461692,122841675,2101573,124870825,1826674,103076,604369,303429662,45675,209676800,408,9685,589406642,522,2.18,1.82,89022478,87694000,1007000,109651649,2
193804893,402124,121196121,1400494,120880243,1438663,114809,594090,282436581,40226,192440101,1,5529,580469908,521,2.02,1.68,85746950,82470000,3017000,106277720,2
69420479,398677,46813556,1413961,45725836,1624799,78450,343317,128531497,22213,73480499,56,3543,253764968,526,0.9,0.75,38145387,34840000,2986000,59003059,2
353721912,707546,234926536,2083172,235792181,1955983,161542,1029921,604402699,38179,358128602,113,12041,1333856234,540,4.27,3.55,181175982,178716000,1996000,203105780,2
190590682,597060,119778053,1669282,122087670,1376427,110289,682316,291907423,36627,195591973,105,10910,580969160,1003,2.08,1.72,88913129,84546000,3978000,109966199,2
124844961,8909518,86206516,1740955,86284135,1752068,552352,2920588,371685671,572745,135320693,123,24393,410068261,2868,2.52,2.06,112881550,102449000,10044000,133630097,2
193179603,417446,122470340,1610244,121646722,1482851,114602,592598,290277431,46787,192419239,241,7786,581099717,518,2.04,1.69,89303988,86979000,1999000,109540238,2
73220370,723358,52942467,1448874,49284952,1397459,130686,465783,131402761,50019,66280461,132,4214,245611519,914,0.92,0.75,42761198,38429000,4045000,62880587,2
70999020,447854,49452282,1425288,49587438,1402365,76849,391224,127784766,23693,69746452,133,5221,246203016,524,0.89,0.72,41126591,39663000,1017000,61515075,2
72986615,731059,52680363,1454911,49317624,1402579,125597,459807,133251525,44387,67373723,109,2963,247824744,915,0.91,0.74,42927349,36732000,5956000,64324508,2
71370734,744880,50209751,1450369,47241874,1402263,131053,489844,137029436,39126,66614812,0,2830,250864455,918,0.93,0.76,43433403,38225000,4900000,66937439,2
193775847,449575,123347166,1523329,121586194,1475836,115938,613739,291503927,37736,193746755,0,5214,580846873,516,2.11,1.76,85445302,82177000,3006000,106692983,2
199885008,901857,133766778,1468940,133881009,1676143,125524,641506,321596359,41245,198322107,105,11841,620333008,951,2.29,1.92,92864619,90319000,1985000,113423566,2
191807876,436865,122512628,1401106,122328612,1472022,114867,610355,287506084,36590,193319758,140,5969,575189030,517,2.03,1.68,87710838,84441000,3015000,108607996,2
69930130,442174,50352046,1446758,50487986,1420358,75314,390642,128802297,20075,70244253,0,5098,249778514,523,0.9,0.73,41442367,40138000,1003000,62677382,2
191731393,783675,121783325,1555305,119955475,1637827,120374,605890,302743354,39842,193956755,86,10215,577449367,910,2.11,1.74,93193075,88853000,3949000,113700490,2
84012223,715543,53408431,1611018,52458377,1508728,123490,499386,150771932,45491,82914642,78,4391,284788520,917,1.05,0.86,47856290,46564000,1012000,68562768,2
71103257,554889,48893228,1397967,48729046,1359134,75898,449633,131114773,24869,70466198,0,8891,252016033,1010,0.92,0.75,42452690,39088000,3006000,63519846,2
71576970,709300,50191438,1421751,46719495,1372054,125659,477839,130613895,48607,65053035,0,2986,250578253,915,0.9,0.72,43151799,38796000,3979000,64666941,2
194829656,536625,120091243,1654685,120925001,1434561,98672,650786,285756458,46097,194125303,70,10241,584856258,1003,2.06,1.7,88427998,86181000,2004000,109468431,2
196695899,916937,121657511,1511458,117696421,1731168,152654,771478,304666670,57189,197752177,213,14784,594458499,1905,2.14,1.77,93261766,89888000,2996000,114953596,2
70099497,390869,47617106,1421681,46816542,1393767,88575,364695,127444748,24271,70405733,0,3697,253906834,526,0.89,0.73,39855392,37581000,1977000,60621722,2
71435342,441458,49564384,1430720,49558634,1391973,78547,391563,126832512,24726,69148378,0,4190,244755282,524,0.87,0.71,41308296,39003000,2000000,61574276,2
74451597,483354,55157880,1364702,55289442,1340933,86949,415454,140405572,23522,77772754,0,2787,284076273,525,0.95,0.77,44663645,43312000,1007000,66376597,2
254145022,9878775,163270683,1276520,163539395,1551186,780980,4300820,575916037,803860,256114779,4750,21359,768916869,2666,3.96,3.27,171950779,166593000,4987000,192264372,2
190825288,431925,122497346,1419343,122510497,1446418,106964,585170,287390834,36696,194191559,144,5902,572448973,518,2.05,1.7,87197246,83884000,2995000,107670927,2
193428974,449916,120993475,1481214,119406509,1444076,119110,650444,324877201,35767,190103107,0,5695,581111193,520,2.3,1.91,98380660,96079000,2001000,118653100,2
71065902,447910,50389767,1445726,50731244,1406856,74158,376675,127899020,19387,69123249,33,5594,239945484,523,0.89,0.72,41907573,39634000,2032000,61509384,2
72254279,425104,50195829,1430753,49728312,1396899,83817,400723,129542372,28748,70337193,0,2735,250118235,523,0.9,0.73,42032781,38675000,2975000,62939920,2
193885266,428068,122921809,1458727,121154198,1412518,104457,556866,285454994,40923,191067139,1,5557,577244490,518,2.08,1.74,84370174,82061000,2001000,105410680,2
79131358,327546,55715543,1638226,60040758,1283286,67074,381065,152380065,23434,91595673,50,4093,268938594,333,1.07,0.88,46998261,43708000,3049000,67744520,2
193973499,452344,119336727,1434025,119315609,1419043,108128,578665,286024941,32583,192517594,32,5595,587806430,519,2.05,1.72,83002176,81731000,1009000,104200711,2
190624265,805668,120906873,1673240,121470062,1530868,123584,636127,292159601,35125,193469575,53,10581,577442946,908,2.08,1.72,90053709,86839000,2960000,110951330,2
196040035,977756,118988708,1733087,118607082,1650019,134754,738575,299499258,59933,195988688,63,18539,590600577,1906,2.14,1.77,91740731,91438000,0,113017003,2
204764092,627621,121833580,1886482,118675517,2205962,163805,706098,300118025,54038,200847585,53,10285,610629599,907,2.11,1.75,90091982,88661000,1007000,111247619,2
70950324,381689,49234252,1407362,48541405,1592983,64659,324330,124978617,25244,72080770,35,6102,245200869,524,0.9,0.75,37335739,33019000,4002000,58569923,2
70427403,469599,50728652,1425765,50519670,1393979,76133,386629,129149194,18687,69158423,0,5131,248468290,522,0.89,0.72,41799617,38576000,2967000,62421958,2
73119226,405855,50124698,1418854,49411142,1382365,85981,392599,126161989,29292,69544741,0,2641,250783095,522,0.89,0.73,41258831,40953000,0,62969902,2
247720930,9801587,156365972,2042039,154860434,2183418,767106,4205214,558552935,846438,249099531,234276,73576,750866541,2668,3.96,3.27,168817626,164390000,4009000,190001172,2
192647786,552831,118517807,1657872,119503504,1470327,101902,666997,291276851,43354,197056168,110,10774,591574143,1004,2.1,1.74,89063937,86659000,2015000,111076819,2
191504434,724396,118632226,1522804,118952761,1427779,148688,675138,301547371,52063,194400110,57,5573,581520030,911,2.18,1.82,87827294,84511000,2982000,108137245,2
191315036,453158,122118123,1529858,122812744,1399131,135314,635622,289055409,37312,194458502,11,5556,575008542,518,2.1,1.74,87837523,84447000,2980000,108403938,2
192115936,739828,120434915,1419681,118270383,1433258,146974,639892,293694493,51052,191818840,0,5561,584364879,911,2.12,1.77,86150687,84823000,997000,106781249,2
194124421,416943,121060077,1488387,118732344,1436190,106171,577518,283962013,43217,189993576,1,5389,583825265,519,2.1,1.76,84365283,81044000,3001000,105186081,2
78109682,724164,57655470,2104394,54367677,2102194,122108,493657,165290103,41821,66898729,55,4815,283294405,914,1.14,0.93,52221015,49846000,2034000,73664442,2
67796163,442118,49518365,1425408,48236614,1700123,65737,328551,128823711,21482,74111368,64,5611,243404403,524,0.92,0.77,37333129,34179000,2929000,58582577,2
189397678,452559,119084486,1398150,118701764,1432744,89389,566237,285721319,29780,194233513,4,6975,579524805,520,2.07,1.72,86113010,84752000,997000,107050939,2
193418157,451425,123117185,1450414,122534972,1423662,112828,582977,287364891,37747,192545006,120,5699,574616399,517,2.05,1.71,84648606,80302000,3965000,106339637,2
79600030,433247,68717026,1418886,68496057,1598362,74723,388518,167545368,19909,82666778,38,6386,331351198,524,1.18,0.97,52666269,50193000,2007000,72819215,2
195763959,748640,122288117,1683903,120957627,1619878,142372,660875,295820473,58668,192477181,151,7337,583311054,910,2.12,1.76,90773766,87428000,2980000,112230290,2
72098732,393135,51253451,1451575,49838427,1427431,85219,388633,128655521,26992,69534883,4,2698,254149943,522,0.93,0.76,40927581,38683000,2035000,60926757,2
70614637,712496,47393031,1444516,46016957,1574656,116678,412041,132997932,34579,72711094,42,3769,249789438,915,0.94,0.78,38733106,36387000,1966000,59862065,2
192395593,988851,119440766,1632498,121045881,1407647,140364,794495,302419980,59532,197609624,89,14868,585216502,1906,2.21,1.85,88651547,85384000,3013000,109021875,2
71464126,437758,47572124,1422021,47218993,1386235,92668,410569,129365197,23755,69393815,0,2793,254107080,525,0.91,0.74,41914986,39543000,1977000,61990837,2
191471151,429414,121860236,1554764,122489792,1427867,96079,571073,284805434,33361,191843593,32,7131,567650876,523,2.04,1.69,87930039,87538000,0,109665704,2
190534910,405764,122041091,1636560,122040764,1348092,110963,595485,288005292,44218,193987139,29,5901,578038757,519,2.08,1.72,88137142,84839000,2994000,110283624,2
126466370,8457990,87047434,1734828,87412982,1692401,519523,2861793,370963127,591388,129664800,125,19217,413941100,2869,2.51,2.06,111975233,103647000,7972000,133220530,2
74626085,948338,51215322,1662711,50569794,1467528,245577,807416,151457552,92648,73305522,115,15447,265166401,3086,1.08,0.88,48983080,35696000,12890000,70602784,2
132610124,8707572,95014047,1957069,94349627,2226578,541118,2850193,388336836,544485,130212282,94,22701,442979169,2869,2.65,2.17,117924280,112520000,5023000,138761069,2
191341406,405738,122052061,1793687,123077749,1759600,103437,574922,294392491,97849,194385358,97,6180,571103193,518,2.15,1.8,86795295,84491000,2011000,108621149,2
194578738,741882,118240537,1665365,117684697,1602321,142955,676649,295641232,50109,193182816,94,7133,586067069,910,2.1,1.74,90739977,86409000,3972000,111323748,2
119352686,8748816,81886676,1063063,80437050,1283971,456388,2903702,354456548,537211,118231565,97,20494,397654146,2672,2.4,1.97,107617744,97372000,9835000,128958347,2
70558093,883715,51030511,1388707,49879864,1419828,127597,560969,139049365,52035,70706512,0,13322,248254555,1912,0.99,0.81,44462187,39127000,5016000,65875424,2
70547393,350297,48694764,1403317,47264485,1482893,86470,418812,129830091,30620,67880362,62,4170,250293072,526,0.84,0.65,46922841,45553000,1012000,69068350,2
189866300,465463,122054764,1530358,123509379,1421462,102287,576753,288838236,31984,192390683,161,8156,568180101,520,2.08,1.73,88493702,85208000,3007000,108304326,2
188546396,789049,121300346,1622159,123298245,1400191,122417,616759,302475450,35765,193197180,34,10622,567010345,911,2.2,1.84,89581877,86280000,3009000,110627859,2
73282956,413087,51522783,1433033,49933480,1401387,87851,417884,129437392,34510,68765979,0,2586,248740891,524,0.93,0.76,41857241,39600000,2030000,63378454,2
75195564,1358554,54339995,3082503,56167693,2949578,93702,722691,208432541,40927,77701059,184,8835,321067665,1011,1.5,1.24,65057480,60841000,3989000,85806300,2
106473800,507098,78939068,1696179,77199345,1562399,93127,475612,174731806,43356,111690470,42,3367,338927896,527,1.25,1.02,56341691,53024000,3001000,77660064,2
152883012,6719808,103414026,906881,104459685,922748,781652,4984849,422450327,1030199,158091030,132,50951,500708024,3384,2.87,2.36,125192151,118527000,6026000,172172535,3
159128238,6773605,110959556,2707826,110042590,2745871,706235,5030095,446418348,1441224,158553947,846,28636,519305241,2477,3.06,2.51,134819258,125396000,9028000,156717608,3
164727100,5139615,119507354,2783733,116940571,2859996,745632,3920731,469877067,1227189,165343997,207,21745,551521735,2871,3.12,2.57,137564567,130283000,7015000,159180376,3
131993744,6788753,93013963,905367,96006090,902456,696229,4641932,390902244,989505,128734364,106,35518,419134233,2479,2.63,2.16,117893974,110664000,7042000,138939741,3
200509688,5183096,146888650,3277729,147042440,3321857,724991,4293228,882157941,3814637,202623957,16079,532961,689512685,2476,5.92,4.87,262139239,198793000,62934000,283147713,3
361383610,6867698,225006736,1162181,225506098,1172235,797249,5316806,699368022,977989,369847824,111,51255,1090708364,2670,4.8,3.97,208608993,200214000,8008000,229279626,3
386658819,6918702,243268986,2060742,244033114,2060352,788690,5617642,1090026086,3237580,389499850,535,803176,1179491231,2537,7.52,6.24,318125693,270722000,47125000,339476420,3
220678158,4975580,161412784,3701355,157504307,3626471,963707,4077785,927283624,3986908,221815560,1072,836566,759691737,3257,6.31,5.21,271566046,212236000,59065000,292885796,3
413829235,6950257,258340997,2495512,258614888,2559958,956499,6342700,1169187689,3672433,417321360,5223,1052555,1285046145,2638,7.99,6.62,337945204,286592000,50927000,358834355,3
415830683,6906738,260734729,1645341,262115672,1639212,815090,5756118,1066333494,3504738,417281261,1982,61231,1265216707,2667,7.27,6.02,315481320,255063000,60014000,336296713,3
359508328,6838266,225061640,1167133,227428190,1146993,764162,5196495,704104151,997323,361900840,7687,50511,1075276587,2669,4.92,4.08,205957301,197641000,7985000,226335258,3
153988570,6520660,104123489,889014,105149492,909748,720520,4826468,417848904,1013205,154733493,151,49611,504467258,2478,2.88,2.38,124115707,117768000,5988000,144881191,3
157529587,6431920,104174590,970955,100812343,976956,759025,4719564,409347109,982368,161774548,145,32082,517857617,2868,2.76,2.26,123835839,116510000,7030000,144229928,3
407340713,6896233,257592783,2097135,258403680,2088319,846415,5797306,1128903045,3443588,410986599,295,909547,1255060495,2473,7.84,6.49,334522909,269176000,65042000,355091962,3
149071400,4838025,115070033,2714167,115669328,2691352,973660,3597482,489354857,1398496,147669317,23904,27952,519120522,3651,3.3,2.72,143431767,134051000,9003000,163805369,3
201885507,6769000,134292642,1411764,138057695,1407756,794022,5243201,815609810,2972377,205331101,5786,666161,668374614,2868,5.52,4.54,243934269,186501000,57153000,264362995,3
415859247,6978432,259732996,1697520,260752343,1694315,821568,5743569,1085333228,3120248,418903505,385,71475,1270257052,2472,7.52,6.24,318146204,266620000,51118000,339253605,3
208187590,7130742,135642873,1434669,134239636,1414108,869861,5343186,820598363,2976371,215919902,6823,606893,695781906,3258,5.63,4.63,245752277,171243000,74105000,267002029,3
204298146,6638510,136989623,1442391,140444577,1423196,840284,5062136,806419388,3387491,212209082,815,566997,682404490,2870,5.43,4.47,239934733,180731000,58912000,260740670,3
217613964,6904845,142278320,1403126,143061471,1404114,816868,5312700,839490178,3797931,222166077,540,451530,707871033,2672,5.73,4.72,251666717,187306000,64104000,272736668,3
150683172,7178033,105799769,2674018,106147367,2684462,1059419,5139924,471621940,1585725,157536320,29498,42586,490468844,4168,3.18,2.6,141909786,131389000,10029000,162515539,3
125721632,6874874,87759984,888382,91998792,886134,750764,4723223,399284262,957173,135900520,1722,46099,414518509,2871,2.63,2.15,120088007,112721000,6982000,141013952,3
153806822,6563953,104353794,908715,104974190,914328,749622,4750726,423343822,964423,152760404,99,45401,501361459,2481,2.85,2.33,128102118,119824000,7922000,148759617,3
152764926,6551416,104519502,912665,105085012,920962,707872,4790044,418845239,977964,152022662,1,41491,503146675,2478,2.81,2.3,126203636,116934000,8918000,146944341,3
153867949,6552067,103833566,884425,104725156,892977,721352,4731242,415237811,998151,152931425,263,20334,502903680,2479,2.85,2.34,126149218,120867000,4994000,147256491,3
195168171,6795581,129903792,1385888,133422243,1387036,805335,5217061,802591922,2987866,201474327,258,632728,641402853,2675,5.49,4.52,239354210,179994000,58998000,260714252,3
410068194,7563350,257540430,2049036,258009304,2053769,847898,5744109,1102778438,2878388,412705364,398,462074,1261700293,2472,7.7,6.39,324454044,272133000,52025000,345172432,3
342323838,6772130,212188804,1113211,211734109,1116798,810646,5334254,681248451,1011745,342980230,6770,33739,1014337412,2669,4.76,3.95,200447320,191042000,9002000,221728869,3
408385739,7569184,257284994,2056191,257973876,2061402,878392,5916717,1121638864,2830160,411770717,187,1071602,1259952586,2474,7.85,6.5,334280308,276098000,57811000,355659578,3
256083719,10188852,174043561,3965959,170285844,4031463,2134466,7629964,1126748197,4585989,245003586,89363,645468,849192695,5017,7.69,6.32,334156121,266805000,66951000,355205808,3
420150217,8990151,271893336,2509505,272438726,2506683,1966879,7537409,1328029116,3587530,422628638,26455,696015,1305543824,4817,8.99,7.41,392774308,337675000,54785000,413659437,3
142694819,6677583,96721185,885507,99313955,876368,683386,4587076,400383903,986808,143550998,267,44819,458362569,2478,2.71,2.22,121274356,114969000,5998000,143010858,3
344328835,6826121,214179417,1145570,214273395,1148466,820220,5325478,682352612,1016089,342486197,212,60351,1023569587,2864,4.75,3.93,204452150,199056000,5001000,225750202,3
406747782,6945752,254980120,2047071,255017954,2042556,833845,5791617,1082662253,3037943,409936980,694,415220,1232862511,2472,7.49,6.2,322700637,267278000,55057000,345072838,3
414779371,6974924,259549804,1642019,260348860,1634705,803010,5753249,1081893329,2882126,416272022,3427,110714,1266273935,2473,7.5,6.23,317276512,252995000,63998000,338142957,3
340337741,6830665,211472040,1124388,211710711,1124845,813919,5293906,667003813,991113,345229047,379,32441,1009725208,2667,4.64,3.85,196644162,190346000,6010000,217760323,3
153552965,6707077,103584443,908803,104253188,920158,812330,4876144,435988968,996251,158586634,7016,41684,510463267,2868,2.93,2.41,127411124,121133000,5957000,149026969,3
156118150,6754252,104421337,909263,104063866,912652,848884,4796388,429648656,987119,153730941,231,53363,505147941,3260,2.92,2.39,129060593,113926000,14859000,149302586,3
352026980,5220163,235144633,3008730,233562452,2990246,784573,4322369,717173735,1269169,345218041,332,38179,1062824820,2865,4.99,4.12,214560904,209225000,5005000,235013517,3
152912605,6561257,104444422,910642,104859941,911721,724433,4742205,419412625,986323,152790820,144,35765,502806572,2479,2.86,2.34,126279720,119964000,5998000,146869136,3
419682089,7171251,267112800,3441930,267154648,3450196,866005,6011940,1128829805,3329990,423597604,52087,332590,1283619141,2667,7.81,6.48,331235595,271777000,58735000,354850073,3
152598912,6661086,103164259,911745,103844032,912094,805211,4809443,425242434,1011835,154914001,12344,41746,502252038,2871,2.93,2.42,124791566,118412000,5970000,145677135,3
409533971,6947590,256727187,2062849,258319950,2057170,854805,5792708,1074749106,3638905,413518771,6746,63902,1247215362,2864,7.4,6.12,319227483,275835000,42974000,340529041,3
204503698,6728321,135869037,1422913,136377101,1430625,794352,5210973,823838499,3467732,205921578,1404,541314,673166604,2476,5.62,4.63,245185271,184935000,59979000,267072330,3
190782094,6744946,132560502,917704,135859274,920851,807380,4975946,500448284,1052938,187159480,61,48861,606795515,3260,3.44,2.84,147365918,136923000,9994000,168786634,3
416061368,6805018,258608959,1658737,258611185,1663114,907866,5883144,1092840889,3532016,418406508,403,146949,1269870739,2865,7.56,6.26,324949605,266656000,57709000,346655715,3
153225227,6501408,104625716,888592,105134348,889350,708441,4727908,418236769,984580,151267363,82,19680,503851969,2478,2.86,2.34,126871478,120450000,6022000,148436302,3
448896066,6962021,284481834,2090521,285488863,2083631,811077,5938085,1216294011,3774176,449962209,518,1006795,1376416244,2471,8.47,7.03,360529215,290179000,70043000,381440210,3
409488983,5372641,269823727,3573735,270195150,3561241,810579,4737153,1132852792,3470882,413161088,4356,45829,1272246417,2472,7.83,6.48,336636025,275122000,61027000,358185374,3
174655781,6928219,118273450,920642,117792420,916081,851389,4862474,459121378,980337,185321852,617,35118,571548670,3264,3.08,2.52,139423227,131125000,8007000,160076012,3
387169863,6836217,243122725,2076957,244069655,2086887,867955,5869869,1075250475,3791826,389773831,117,820605,1179788471,2473,7.63,6.32,320353131,265950000,53989000,341060735,3
153030478,6525652,104262769,884454,104836716,889695,702546,4787459,419262953,980536,152113923,26,18631,502840242,2480,2.91,2.39,126365955,120018000,6000000,147053399,3
153143517,6548874,103529503,878107,104243709,886199,716996,4773871,417673234,999957,151598804,539,34394,499503547,2480,2.85,2.34,125897465,122608000,3014000,146499861,3
416293021,6881552,258988700,1690540,259127987,1684167,867415,5874811,1116791273,3204862,416345361,21988,532802,1265407361,2863,7.89,6.53,333120740,267980000,64753000,354424311,3
412935191,6847728,258668198,1643837,259950036,1643663,800823,5708018,1112981721,3628877,416519818,429,451834,1262470366,2471,7.93,6.57,331088882,273664000,56930000,352716021,3
131558489,5011506,100776321,2518049,97404596,2581834,702015,3783589,410225918,998790,132150420,119,19638,451230324,2480,2.84,2.32,124553239,116319000,8022000,146285009,3
136733220,6347941,93799928,843541,92380202,867460,727508,4774724,389840574,1017418,130944893,7,35092,435171365,2479,2.67,2.2,114070118,108755000,5034000,134534212,3
152540201,6500859,103645989,879383,104333808,880937,713165,4774949,417445739,1004199,151260257,166,38754,500294766,2480,2.86,2.35,125768138,118352000,6961000,146943201,3
475836043,9983237,309047730,4790449,309756102,4771465,2249491,8089917,1481704334,4687391,477413411,1104,1018442,1479276289,5596,10.23,8.45,439026466,371712000,66948000,460195584,3
131249211,6553104,92334119,862621,93585860,870925,688121,4642941,383803958,1000272,125590052,44,30909,416324332,2480,2.6,2.12,116803138,109355000,6958000,137562153,3
407749252,6849324,254163171,1645537,254599745,1646242,849587,5794926,1090328898,3136698,410365623,0,575385,1232841143,2473,7.56,6.27,323759012,262310000,61072000,343948067,3
204611443,6580267,136186500,1403275,136851633,1419100,781197,5315456,829455719,3081567,206742824,1851,606300,676569592,2476,5.68,4.7,244616626,184509000,59840000,263131824,3
153673321,6548916,104244847,897854,104854630,903149,717120,4695767,417742827,972837,152252322,5,42043,503644994,2479,2.86,2.35,126667101,120341000,6017000,148314995,3
204259830,6778138,135515056,1415168,136029008,1411632,782648,5204057,838345627,3024067,206161167,243,523366,671714018,2477,5.72,4.71,250680467,199338000,51086000,272153769,3
392422418,7207736,255344589,3189687,251579727,3099004,1203137,5259921,803890471,1996608,382628267,1496,52714,1187590634,4036,5.57,4.57,244196625,235827000,8028000,267021331,3
159310551,7309331,111530793,1088528,114139870,1058015,907877,4998150,455005134,990123,172725812,3311,73256,530664766,4435,3.09,2.53,136844216,125329000,11028000,157432288,3
153353484,6535997,103879103,870123,104707512,878173,716187,4707068,415766449,978085,152370683,4,32554,499069268,2479,2.85,2.33,126772915,120318000,6015000,147120863,3
153645502,6465018,103619743,886781,103306674,903497,720127,4804010,420829058,991223,154991560,144,35310,501061620,2480,2.88,2.38,123334447,118977000,3999000,144344526,3
413817752,6956970,260613282,1685576,261036673,1689715,881029,5815562,1092081566,3085794,417915584,20531,225384,1267004867,2669,7.6,6.3,323563034,273159000,50029000,343730815,3
199597795,7097277,135290101,3144021,136097088,3139576,1035639,5361096,822818909,3739254,200886740,1227,456785,666934654,3257,5.63,4.64,245286733,188688000,56204000,266248040,3
416256091,7317599,260020458,1671132,260247596,1669992,881301,5867147,1119272126,3264103,415767283,26566,470330,1268729249,2861,7.78,6.44,331525218,267117000,64028000,351581519,3
204441016,6914935,135645946,1428543,136179864,1427058,776286,5249904,836664026,3475875,206029303,344,336555,671244986,2478,5.73,4.72,248591582,190179000,58054000,268291760,3
153928411,6577678,105612568,893575,106107158,898518,726705,4727620,422925182,985030,152483146,110,31831,497630136,2480,2.89,2.37,128404211,120920000,6995000,148855897,3
131727775,6569922,92844691,848589,94258349,860588,683078,4617842,386031001,998736,126098531,56,53026,417030749,2479,2.62,2.14,116733190,109340000,7021000,139164720,3
129190695,6753149,91386450,865284,94802669,870726,736238,4633418,390740898,988376,130236164,714,48353,410862081,2675,2.63,2.15,118106661,107795000,9981000,139369716,3
155979580,6624139,100706591,959952,97781253,926417,789888,4601179,406876318,974006,161745455,957,45501,513203724,3258,2.79,2.28,123407375,113937000,8995000,143741653,3
200979013,6844365,133068849,1427101,135002086,1425415,831970,5203887,797859468,2826919,209603712,33479,436283,666460738,2867,5.45,4.49,237833738,183562000,53871000,259228001,3
409501806,7003142,258947031,2059663,259585196,2054940,803371,5764106,1119000162,3591820,409088145,341,953020,1260943852,2475,7.87,6.53,331667658,282330000,49057000,354197944,3
153092683,6548111,104224070,871801,105009334,882975,708635,4719783,415276330,988614,152376036,513,36577,502400222,2479,2.85,2.34,125497361,119120000,6006000,147010697,3
191755099,7119255,137148290,2719113,139977495,2692009,982538,5004898,536346664,1537179,195348618,40918,37560,606286094,3261,3.7,3.04,161681329,153242000,8012000,182849206,3
152836353,6496030,104524211,894399,105175449,901648,735113,4777164,419020850,984728,151623480,3,42705,503499069,2479,2.86,2.35,126239475,120890000,4995000,147605290,3
204190710,6983947,135429612,1407660,136272969,1409028,736993,5197832,819541005,3186484,205679057,317,634468,672640436,2478,5.65,4.66,245776697,193625000,51899000,267269424,3
414505641,7008120,260428665,1750036,260777002,1740200,796098,5737363,1112443540,3671590,415650390,113,650073,1265358986,2472,7.81,6.47,330756638,264481000,65870000,351876802,3
410470633,6910325,259459348,2481786,259582758,2491614,856103,5831523,1099653158,2823485,409758774,1033,899562,1261973229,2473,7.75,6.43,327430260,272048000,55009000,347527880,3
152986693,6537567,103427098,878221,103954793,883782,706782,4744351,415194523,988282,151789598,276,32836,499725975,2479,2.86,2.34,125683623,116324000,9025000,145840714,3
416105731,7119093,260569598,1750876,260535443,1739844,800661,5810503,1108365497,3283485,415936654,82,645168,1267186399,2472,7.93,6.58,328905035,274596000,53920000,350187749,3
150609430,6684962,102881774,900261,104580986,906373,777096,4780267,418338091,1005766,156941158,2245,38227,495742263,2871,2.85,2.33,126433444,120075000,6003000,147838598,3
136270404,6721154,114334862,902603,114801616,892881,715635,4812302,440395050,948716,139428650,63,24917,539009600,2474,3.0,2.46,133625953,126266000,7014000,156092603,3
205383131,6820833,136674487,1429100,137549217,1426498,772675,5259736,823057360,3134231,206434646,9605,614970,675806398,2476,5.69,4.69,246231701,191694000,54196000,266649111,3
193299988,6549206,128379976,1362269,128974839,1383335,790920,5279829,783155034,3143531,195127039,134,552520,645803538,2478,5.4,4.47,229923479,176507000,53152000,251387846,3
360425106,6910162,225592070,1184809,226095638,1183437,824528,5399493,705687801,997114,369789895,28675,60650,1092372425,2927,5.13,4.26,209322792,200963000,7998000,230684554,3
416014666,7002975,261245051,1664788,262081829,1662888,836536,5825824,1060397137,3453440,416816829,2276,103998,1269571953,2677,7.56,6.26,314895866,265618000,48929000,335408485,3
409981447,5394693,270359328,3618463,270073691,3602031,787218,4846739,1158063142,3921095,412247159,165,286237,1275747135,2472,8.27,6.85,342757158,285264000,57052000,363242424,3
153472137,6524714,104858612,900560,105247840,899978,727883,4754216,420490067,989882,153083290,106,37199,505806983,2479,2.97,2.44,127249947,118919000,7994000,148963228,3
301654266,9489758,261072092,2456062,264992574,2648917,1281335,7342486,1184725630,3633146,308531877,84909,519996,1191943722,3338,7.01,5.96,252567946,190189000,62061000,273241039,3
129846252,6703256,91401771,864009,94362023,863510,694149,4606671,386940301,982850,129036261,3443,33049,414087510,2481,2.64,2.16,117944132,110590000,7037000,138562779,3
146087699,6042928,97936713,761810,98623836,765496,511272,4253657,371093694,778719,145113237,0,19055,478269330,2478,2.63,2.16,112601926,103178000,9015000,133818780,3
407723441,7025888,258824269,2085819,259531236,2081459,867097,5814150,1135329278,2833729,411323832,1322,1039584,1257789841,2471,8.1,6.72,335329711,281922000,52985000,356344429,3
152721401,6504381,104541552,870329,105140243,877742,711659,4751209,417222027,991398,151105577,3,31929,498635507,2479,2.88,2.36,126192303,117807000,7986000,146653781,3
203694824,6645467,136545430,1436544,137402533,1433635,750627,5324751,845485664,3565874,207085973,14475,607728,678327507,2477,5.93,4.9,247839508,175917000,71559000,269357492,3
140387002,6309427,97336134,1028173,95677760,942407,2253679,4795629,500841670,1855091,131098243,27554,284636,473029880,8585,3.37,2.72,153650476,132102000,21016000,203555494,4
129430307,6432100,93254838,1014498,93445879,1106397,2367039,5146582,549244233,2099818,129005283,92,337184,462675993,6383,3.62,2.95,160671218,149311000,10949000,181457386,4
349787749,4497668,221042228,945435,218413367,1106073,1835325,4364879,721507812,1591378,347215861,93,170356,1061419442,5948,4.91,4.04,214845945,201494000,13031000,234969345,4
134836244,6210382,95170862,756608,94006599,729730,1990036,5035786,496185290,2169630,133245913,81,28502,485859421,3462,3.24,2.63,148341008,139935000,8053000,169686100,4
374013883,7375359,239032922,1574756,232380310,1422482,2807064,5895352,923673114,2285723,362479537,454,237520,1140242610,7964,6.32,5.18,274354818,261083000,13004000,294855070,4
180857486,8140780,128399633,1023550,120364154,1000127,3384842,6248751,681585055,2613968,180973433,265,57507,643556060,13170,4.56,3.7,205290831,175823000,29136000,226377269,4
348046912,6476022,224140606,1778408,224230670,1931730,2308715,5226822,861568615,1932819,345313813,331,1084176,1067407732,5992,5.82,4.77,256885875,235424000,20948000,278168907,4
145054819,5480802,101342255,908128,98222287,883530,2063155,4472007,502460712,1862738,145523943,161,38670,514972574,7654,3.35,2.72,151325269,138985000,11998000,172832130,4
126683613,4432309,89222622,757888,87413193,755493,1525330,3863501,453574039,1836862,127090319,337,25580,449136682,2873,2.99,2.42,136598194,130191000,6008000,157684513,4
125186901,5027611,90681767,811458,89784121,934647,1937596,4742307,443609086,1631882,126550477,76,125478,452098012,6341,3.0,2.44,131930680,116446000,15057000,152998035,4
347634789,6880073,220681490,1563130,219061040,1516980,2440678,6105284,834828253,2180067,345362709,99928,498725,1059022035,5450,5.64,4.62,248938929,230635000,17971000,269513308,4
127078938,6095354,88110432,777588,87024330,765735,1912349,5178114,512046973,2291684,127723675,40790,22915,443758387,3452,3.45,2.82,150092192,142614000,7030000,171894622,4
345991070,7138736,218731717,1485810,217942776,1710744,2403789,6080871,825551294,2003551,346245292,35885,182300,1056138591,5498,5.73,4.72,242495114,228149000,14009000,263609011,4
349703045,5116723,220810952,1153285,218423991,1009825,1815285,4377709,743750184,1741834,341119731,473,301896,1065220828,5954,5.13,4.22,220326875,203867000,15989000,241840334,4
368526621,5208671,232790159,1168647,229302870,1164737,2044300,4785436,775496773,1699094,365617674,227325,46449,1133278574,7607,5.36,4.41,231738310,217086000,14005000,253915907,4
126300444,4381609,90938226,805633,88456353,946966,1766226,4123990,431642584,1660244,127229544,283,168999,446466503,6341,2.92,2.37,131066585,118794000,11979000,152978520,4
122585409,5015720,87245160,931853,86866115,984277,1909681,4376024,496491690,2007143,125638899,92521,138380,430660207,4170,3.34,2.73,145370501,135043000,10003000,166311159,4
366842081,6732746,233847596,1347884,232805603,1377804,2632172,5870476,909273416,2265472,365960747,111,294941,1130603061,7573,6.19,5.08,270410686,255074000,15004000,291471931,4
128950191,4920346,89496165,717501,89945369,714494,1593724,4161881,457315781,1793257,129956993,1579,21356,456891564,2880,3.06,2.51,132962449,124623000,7975000,153398840,4
127968550,6317313,90601771,989296,89060566,909027,2248960,4831906,464585800,2060392,125932891,36,182178,441014210,6116,3.13,2.54,141101915,114890000,25975000,161500801,4
127793507,5754370,91407883,1192543,90151495,1354204,2219644,4601356,532891303,1931448,128840537,448,217351,458537904,5991,3.51,2.84,159859332,149529000,10035000,181019618,4
130282833,5877264,93536711,1155703,92479277,1304865,2319495,4630090,545237125,1955189,129544553,375,308293,462479548,6772,3.62,2.95,160038340,150738000,9044000,181120885,4
147029214,7449449,107290580,1351921,106017397,1527974,3069605,6171888,674174509,2495101,150871500,714,330579,521452675,8586,4.46,3.63,197369441,180135000,17012000,217466611,4
165955637,7216852,123208808,998718,121030861,982808,2870491,5996188,634331821,2361753,170182535,364,78061,608708658,9497,4.22,3.44,188327653,169004000,19000000,208639224,4
351331039,5942241,223229798,1307378,220101948,1333627,2213603,5362170,774374864,1962029,345498274,563,50883,1066423756,7161,5.37,4.43,227650746,210350000,17028000,248006971,4
125837962,6854356,91102140,1169367,91088397,1361839,2345946,5541577,542551155,2035165,127059467,40,169987,441611212,5453,3.57,2.91,157693125,146405000,11030000,178424964,4
365008283,9392950,232095184,1638037,239539163,1906283,3731501,7854769,1175760044,2222084,396395196,472,229050,1157801077,8475,7.92,6.48,348933576,330531000,18028000,370363476,4
144193407,6792416,104961923,1077125,105698533,1135861,2792537,5679484,629376658,2226296,150307317,238,265385,519024543,7969,4.18,3.39,187251705,172810000,14066000,207862372,4
354122150,6046006,222895240,1341694,219627433,1344482,2156357,5052223,803383501,2002721,350511568,393,44137,1093045722,6779,5.5,4.51,240217958,226025000,14001000,261814324,4
372248415,9016714,238860844,1668465,236168584,1702741,3618088,7718555,1008432718,2644722,361369431,427,87351,1146369391,7767,6.88,5.64,300008199,283730000,16041000,320334625,4
145798724,5243862,103637913,883333,101766448,883624,1950992,4262612,497385930,1610071,144927719,465,37458,525957183,6965,3.34,2.73,148227864,131999000,15999000,168328873,4
132821044,6570185,91616420,1033538,90048127,1087001,2624533,5337689,562166939,2188116,132251067,50,90010,452086138,6505,3.76,3.05,168851391,151522000,17058000,189186379,4
120825463,4956150,86561148,732347,87944265,731443,1621337,4509526,462976176,2155687,122716831,283,25382,421157245,3260,3.09,2.53,135800738,126520000,9037000,156355163,4
347029107,6560913,221750402,1493320,221178663,1383355,2426524,5485171,847683337,2050381,353465054,330,171519,1063967680,9024,5.84,4.8,252086994,234604000,17043000,274639301,4
125378681,5271471,87500062,740382,86319478,728640,1805089,4572082,465318410,2134757,128628242,170,22819,440227322,3062,3.1,2.52,139995734,130694000,8979000,161138661,4
139185857,5094814,102759553,934490,104907407,942118,1841954,4132968,483649276,1633495,143614942,178608,35492,497416336,7576,3.27,2.67,145529624,128131000,17017000,165439112,4
125317483,5703774,88961996,1432013,88443404,1396171,2089882,4362283,512113146,1946333,125234371,193,256134,445049231,5213,3.39,2.75,154213171,141858000,11988000,175324974,4
142339885,4815196,102779118,923541,104072733,938356,1810993,3900824,478895255,1602094,147404054,610,34115,504855234,7186,3.25,2.65,145058047,130886000,13881000,166836647,4
133180103,6661563,93290620,1119292,91320080,1122036,2624878,5349494,577843805,1855905,134134628,135,362129,470027085,7165,3.84,3.12,173242553,157714000,15068000,194043752,4
126318618,5652900,88577339,764863,86686951,765137,2095375,4799816,533228916,2308410,127331818,44,25216,434425812,4431,3.56,2.91,156563222,146181000,10012000,177937111,4
347524654,5057737,220996367,1042315,218738487,1026698,1872448,5027994,782120730,2417994,333681901,195,35330,1035773885,3254,5.35,4.4,233815684,221399000,12021000,255421354,4
346278930,5076977,215549529,1072526,211737764,1069247,1723078,4672142,757014575,1918232,348978517,58540,28384,1049309448,3255,5.2,4.28,225670463,217367000,8013000,246698047,4
200285333,27188732,148587904,7682479,151454436,7689916,5719454,18459212,1408954388,7015996,208604559,6031,110249,702979010,10536,9.24,7.51,416585558,378182000,38018000,437016142,4
146719026,5579751,104530554,906397,102955311,935795,2173472,4588348,534309849,1681727,151648063,346,53629,532268488,9234,3.6,2.93,160621585,143917000,15990000,182094423,4
132682618,6629158,92913876,1108845,91672882,1212558,2368712,4799442,564120081,2064515,133351700,9,402913,470138183,6786,3.75,3.05,169054905,146534000,22080000,191004407,4
350228103,5747500,221207067,1304728,218905729,1205646,2254960,4868136,759226920,1699844,343198541,66,139537,1053904298,6731,5.28,4.36,225335026,201006000,24000000,246999916,4
133400519,6673849,94232369,1176998,91955057,1182325,2657470,5315432,578405483,2103853,133223856,100,404544,468366096,7165,3.87,3.14,173230336,155861000,16984000,194525401,4
155469958,6063451,120213682,1000213,126487409,986270,2450629,4809938,590935278,1921789,164685046,37,52946,574700600,10537,4.04,3.3,172722721,155374000,17041000,194265244,4
345463776,5148840,216182424,1158595,212956785,1137291,1730733,4661530,747628927,2111876,346888306,86575,24818,1044672421,3057,5.18,4.26,224647303,216282000,8010000,245060450,4
143412301,5089263,102854870,880059,103357133,950233,1965533,4176630,499433311,1724955,147961511,208,43515,520771938,9036,3.39,2.76,150094405,126791000,22962000,171124747,4
120169385,4329793,86026633,714500,86604345,708102,1477869,3659965,421575243,1706259,123967964,165,17383,424932398,2867,2.83,2.3,127377683,119104000,8007000,147523611,4
349164561,4699512,220578487,937995,217018837,1177013,1942688,4891763,737678331,1637316,351693559,284,244678,1066429657,6334,5.11,4.22,216956273,202446000,14030000,237991404,4
159218458,9856200,114944591,1525246,117163611,1518913,3811608,8087577,899087851,2478922,164010458,196629,209557,577559903,7891,5.95,4.85,263111166,244634000,18046000,284469133,4
191136240,14067998,146202705,1172730,141088977,1049611,4509902,9996729,844707959,3296922,187344065,33,334278,776786667,23567,5.74,4.67,252317803,200008000,52002000,273499636,4
137895407,6775999,98626102,903275,97887515,918267,2321618,4972269,566071820,2077512,138708241,152,48448,498483567,8394,3.82,3.1,171191489,147861000,22978000,191800852,4
349420810,5295680,220862011,1057463,219012766,1002436,1988027,4913139,732070538,1757805,345548078,56,279764,1056922183,6954,5.13,4.23,219012078,198730000,19972000,240620208,4
348176885,4620218,218740080,1002502,216071516,995812,1640122,4388380,737940444,1933530,339489844,1414,26608,1056583128,2869,5.16,4.26,221389471,213047000,7964000,242960777,4
131007497,5975498,95195935,2657702,92220966,2415850,2324722,5121371,559234569,2102755,130186212,37,57854,456343984,4560,3.78,3.07,169496001,156161000,13013000,190951222,4
127492249,5122125,90754037,716533,88467690,766697,1808341,4462040,445326766,1831938,127429251,117,356014,443245983,6213,3.04,2.47,134087267,123769000,9981000,155134841,4
132306385,6588477,95096148,920225,92713696,880126,2476389,5117104,504266026,2273174,129724274,34,256390,471935501,7514,3.44,2.8,152520322,133096000,19013000,174616720,4
147229653,6578714,107034731,1235590,105396547,1384588,2618189,5688264,608314811,2070725,143811161,46,101903,522438663,7578,4.06,3.29,181398817,160157000,21020000,201891574,4
346702032,4672914,217579122,1008659,215159547,1005876,1625874,4286373,743093631,1875778,343807238,2095,27834,1059748628,2866,5.17,4.26,223319559,218943000,3998000,243678072,4
126699895,6387633,93593791,1456094,93281732,1328878,2435304,5044534,566557516,1978754,124717440,20,229631,438382846,5994,3.81,3.09,170330756,156010000,14000000,190563447,4
181791739,12787050,137473154,1906321,138137403,2272746,4717811,9530855,973742681,3207142,188192647,2207,273048,708558708,11090,6.58,5.33,286303101,253677000,32085000,307256478,4
126124616,4724343,90322239,940818,89726438,942103,1775508,3825158,438108383,1593165,126668227,42,56466,445906050,6570,3.0,2.48,127937483,111524000,16075000,149505861,4
125565584,5516685,87730845,1201858,85591931,1001861,1929873,4282010,500621758,1942704,125753415,150,162233,429917769,4344,3.39,2.76,150248800,138910000,10992000,170736738,4
125522559,6143850,91775713,1107101,89657367,1327100,2281620,5046932,529700716,1959097,126255545,94,180802,448623456,5604,3.58,2.91,159256022,148971000,9998000,179425957,4
344245197,4843253,217139864,1224377,216495495,1220373,1798108,4385626,720472400,1578799,346646081,3,35299,1053098245,5947,5.18,4.29,211689424,197378000,14026000,231687828,4
346036263,6081066,218245272,1522062,217635429,1643279,2317431,5127066,823968788,1934485,348845020,139,134480,1060317980,5987,5.81,4.8,241582950,229253000,11961000,263051355,4
126731290,5247735,88499241,917246,86999563,766299,1855299,4176266,489180937,1994048,126409817,78,160142,435861228,4169,3.33,2.71,147763592,133342000,14036000,169527133,4
181607373,5512761,137841802,992147,138001399,1013097,2057306,4389908,563073189,1727198,179228134,2082,62180,678910562,9654,3.88,3.16,173472785,150112000,23017000,193550934,4
131838276,7552712,94303102,1330263,92744394,1113621,2785833,5712520,594913515,2536484,125886346,335,404556,450308520,5993,3.99,3.23,178294661,164943000,12995000,199342398,4
131030016,7467154,93618337,1250183,91751018,967307,2736106,5764479,598343389,2570896,127007448,273,487681,453725956,5991,4.04,3.28,177676363,155251000,22035000,198807183,4
182328712,8197096,131011309,1160880,130458101,1323652,3058677,6371035,707265291,2023493,190444644,10711,55089,687281442,11462,4.79,3.92,205714148,177311000,28049000,226844207,4
347869626,6655894,218616614,1631676,218231813,1607821,2487016,5391473,814336811,1992995,347624613,208,196900,1064357531,5986,5.78,4.78,238797496,224385000,13961000,259913862,4
419994612,35500610,276449538,10855150,278489561,10863382,7608442,25037479,2039982146,9410775,422138203,39453,246364,1287754762,9502,13.94,11.4,601693126,575270000,26012000,622537510,4
146043382,5848686,104193466,927705,101158994,918334,2129492,4675115,516106498,1935780,148255000,2796,46247,519411879,7968,3.55,2.9,155163839,133741000,21117000,176300925,4
150016393,7109728,106414867,1140041,104124429,1110491,2650692,5668251,623046780,2449667,149544780,64349,60118,529884893,7126,4.19,3.39,185421962,169228000,15927000,206306003,4
403531123,17986700,258698782,5701122,256675890,5740682,3538467,12956879,1250245646,4565191,408590496,10712,77052,1242595548,8292,8.76,7.21,368694314,350261000,17962000,390166035,4
128215328,6182662,94207604,777171,93293838,768130,2262717,5475802,498384009,2501836,121338394,124,34063,438749192,4488,3.38,2.74,150847966,143414000,7020000,172457694,4
151521494,5289993,106512423,934068,102463836,902235,2050057,4277834,510980012,1828937,153589638,1436,47127,531809643,9037,3.57,2.92,153791622,132419000,21066000,174351710,4
361875147,6199302,225917705,1411574,221525955,1454883,2558900,5434941,860471864,2038720,354357730,236,563107,1093756750,7549,6.09,5.01,257555152,243155000,14008000,278799762,4
128143809,4400949,91834877,651261,89518794,678794,1721914,3938215,438194517,1633660,126024609,336,267249,453161209,5954,3.02,2.46,132900178,117449000,15057000,154376004,4
127559312,6196381,91407550,1110802,90603932,1012638,2388557,5105538,552811361,2046818,127661883,86,334823,444647842,5602,3.79,3.09,162251361,148827000,12984000,183983918,4
124121263,6581149,87302938,1158112,87174850,1022109,2480054,5352513,553272810,2189599,127261999,100,109609,433624676,5125,3.81,3.11,163608435,154327000,9019000,185327967,4
138519789,4642676,100674108,911007,101192228,926781,1714845,3797448,475078863,1740407,141072734,98,31436,492962356,6568,3.29,2.7,140383653,122033000,18004000,162448890,4
124550338,4558031,89779157,942599,88414919,995852,1717789,3794510,428299624,1524634,126171153,172,34394,443106016,5954,2.88,2.34,129378874,113177000,15884000,150154340,4
361388704,5968605,229978585,1202202,232594062,1234128,2151365,5234210,800683090,1960543,362230077,70,41921,1114622303,8188,5.72,4.73,235188183,215876000,18989000,256691113,4
150606493,5960398,105375427,906574,104670793,946715,2315339,4836975,532963791,1929476,152696670,110,44028,534553799,7999,3.71,3.03,160840599,140439000,20062000,181768584,4
125167633,4811286,90112892,859071,89070782,978620,1825913,4514582,440359735,1653485,126527652,114319,161591,447126165,6196,2.98,2.43,132392722,123121000,9008000,153881111,4
183824654,8938314,133180298,1416993,130495874,1360535,3416798,7184963,845320693,2440982,178483432,245318,101152,662140118,13185,5.83,4.75,251828343,230491000,20953000,272809254,4
121689323,4832407,87202453,736101,86987057,731849,1626754,4271120,458261020,1975688,123174499,131,26510,425087165,3256,3.09,2.51,138214951,128906000,8993000,158551367,4
348795170,6514913,220268265,1383792,218837305,1505731,2504896,5711619,840291483,2115455,348263755,90,412476,1057668847,6184,5.82,4.77,250730094,238436000,11971000,271550480,4
347589687,4542677,218499133,1099011,214287258,1243797,1804493,4285858,714333880,1519647,346853061,198,59690,1053493262,5329,5.04,4.16,213189913,206855000,5995000,233990614,4
343961502,4677020,217723068,989493,218240802,979514,1642825,4360730,746362458,1744701,342426084,226,22997,1053774618,2868,5.19,4.3,216557687,211201000,5004000,237656920,4
128616114,5913251,90142010,927607,88334349,972760,2316242,5133081,540540358,2118424,127851629,251,112450,442202434,4993,3.64,2.96,162649921,150180000,12014000,183477531,4
135477200,6635530,95163155,1062241,93169052,1058832,2619641,5312986,585699896,2122160,134767399,111,411979,476826725,7556,3.99,3.24,173831429,150431000,23066000,195547095,4
123077081,5179756,87316421,728699,87954681,729124,1662985,4359604,464666358,1952878,124282917,1207,23159,440947602,3069,3.16,2.58,137158926,130826000,5992000,158248506,4
389757894,5098344,252133380,1205604,249081173,1245911,1906946,4467734,817480641,1585048,394313559,288,41295,1235201821,7377,5.78,4.76,243165103,224673000,18054000,264331102,4
138028158,6493011,93874630,1126538,92312007,1084826,2410212,5311574,558075385,2392966,140996099,161,241356,477107802,6578,3.77,3.04,171935903,159458000,12034000,194633210,4
214279687,8343604,155370373,1698906,154872888,1768500,3104577,6613205,759099798,2403434,211157725,433,222861,796293757,12768,5.1,4.16,224303799,183586000,39910000,273602581,5
398918318,7897990,253603847,1404034,249044214,1334930,3066278,7196423,932133098,2540153,385155262,72,320520,1239875547,7647,6.29,5.16,277320907,257847000,18988000,298948563,5
172767750,9783549,123457808,1474418,125224954,1552997,3847481,7636398,795442003,3440965,174580637,76,417521,625428805,12637,5.22,4.24,235385775,211975000,22997000,254972193,5
443988303,8130438,288798097,1673935,285769675,1915000,3325878,7392196,1071833002,2416020,454713303,553,406519,1468520399,12762,7.27,5.96,319713432,289190000,30019000,340396916,5
388695186,8295906,248852440,1649260,247603811,1470160,3180435,6626494,957383343,2928545,379911196,136,460987,1187060866,7205,6.6,5.43,281710411,263366000,18025000,302953909,5
168778716,7929108,119843471,1349059,119051043,1469987,3131296,6580698,725923654,2499117,164532087,158,595708,605339245,8144,4.75,3.84,216502263,195162000,21017000,238787249,5
173155786,8236509,121567167,1572359,119905581,1482172,3181462,6355489,718898907,2540183,167667179,123,567923,605192975,7364,4.67,3.75,221399249,204045000,17003000,243902271,5
164133681,7317446,112219657,1652407,110439562,1677329,2826926,6070239,686957387,2608593,160770842,321,225503,560866821,4952,4.55,3.69,206842765,194510000,12031000,227244702,5
387513680,7477735,243055022,1509216,242478600,1396842,2807710,6457602,914347058,2137026,394735241,655,280260,1218683493,6502,6.22,5.1,271806015,255447000,16028000,293372421,5
215253564,8633412,157758396,1218292,157241322,1395854,3225549,6994265,779236325,2374521,215569117,1148,626017,811547329,14529,5.2,4.23,232087751,201803000,29970000,252679920,5
161567301,7705991,114563680,1380121,115063710,1189874,2629175,5876121,610834092,2306301,163098280,426,446219,570590439,6820,4.03,3.29,178351141,162979000,14998000,199393762,5
162610950,7165015,114048689,1233719,113735950,1302058,2722309,5968514,606021792,2300728,162588200,400,377856,585165661,6427,4.01,3.25,180575385,166349000,13945000,201325834,5
394998287,7788449,246746656,1319414,243217338,1223214,3079140,6518208,950065487,2719303,386969885,377,491298,1224813396,7205,6.61,5.45,278162825,264796000,12941000,299480202,5
162199447,7453412,111016404,1483623,111025734,1318534,2637838,5764794,661195190,2458567,162596407,79,166082,570668516,4736,4.43,3.62,194265779,186023000,8001000,214884264,5
200019271,10045533,140750646,1413522,140627530,1253696,4018202,7676063,799260241,3437045,192721508,767,337648,718204074,12589,5.33,4.33,237400665,209053000,28007000,258675736,5
220312576,12153874,167722071,1422823,169464588,1388472,4888776,9048198,927819843,3703065,218553584,14469,147882,819215802,13239,6.17,5.01,275275518,244729000,30089000,296292201,5
240973006,8769469,176691360,1253231,172300562,1296895,3514503,6917098,835231925,2725049,240452194,8631,231522,875656543,15451,5.62,4.58,249460754,206126000,43026000,270592056,5
191187976,8718769,137161981,1291722,137008339,1469528,3722155,7293604,751493844,2802728,194667260,1124,151597,713230552,11210,5.0,4.06,223618218,194380000,28907000,244451162,5
184385205,7661391,131509935,1261089,131571629,1365349,3255278,6720384,686679962,2360255,186670880,1032,52372,667485248,9356,4.64,3.79,200131600,183738000,15977000,221378917,5
167594096,5899136,112432858,940112,108208814,913274,2002108,5011123,607688610,2480387,168525272,87,31945,586009887,3654,4.08,3.32,182629154,175094000,7003000,203218206,5
192870186,9700778,138483115,1400650,138260477,1469497,3915718,7605693,766874653,3231440,189540859,386,332690,685394302,10139,5.19,4.22,228111547,207716000,20069000,249408349,5
266448322,9443171,186363440,1577241,184272841,1524073,3627958,7070326,899040942,2678418,273892118,231,199047,976855549,10427,6.13,5.01,266229801,244790000,20982000,286961725,5
398029891,9166334,251619558,1254950,245696112,1248850,3375106,8748924,1026746155,3694413,390044995,241,45186,1241642811,3449,7.06,5.79,304121968,295650000,7990000,325059617,5
390900440,6672924,247048439,1297543,240266670,1284196,2273648,6367148,922542131,2864224,384272627,191787,35984,1214730800,3451,6.32,5.19,274630015,263154000,11006000,295698369,5
162467519,8028962,115100775,1028037,113876577,1096913,2819665,6575722,627511414,2349006,163942218,396,465293,580931343,6623,4.17,3.39,187286954,171926000,14993000,207510072,5
384740595,6920853,238733676,1129970,236388769,1113355,2220299,6104133,920746993,2767519,388698939,18713,30182,1205744861,3452,6.4,5.27,271384963,264000000,7000000,292695826,5
212559421,8435330,155278236,1425501,154921013,1460681,3145887,6663771,755663064,2398463,210139060,1244,80444,794232601,12770,5.2,4.25,223454083,194109000,29016000,245786710,5
162300951,6667725,112837844,854746,108473584,843452,2081406,5446529,611458578,2800219,160826644,294,40227,576693432,3459,4.05,3.29,183742364,175377000,8017000,204962842,5
165013677,8397830,117935827,1682989,116865851,1521872,3128429,6422987,719088732,2484719,164947248,604,298374,597173348,7164,4.85,3.95,211608358,192198000,19019000,233223229,5
461162728,11963185,307206226,1887419,308798875,1872425,5232402,9725366,1315974769,3672739,455141707,478,136700,1495754707,14725,9.13,7.47,390861814,357414000,33038000,412093204,5
163353406,7508728,114761652,1440521,115608073,1522424,2866797,6128023,688921772,2584594,165261961,129,426505,573528038,5408,4.7,3.85,202670495,191343000,11019000,225082380,5
194009064,9433478,141929536,1198920,141112273,1198422,3545731,7500989,775510446,3263967,192783102,118,246114,735436403,7466,5.17,4.2,231550912,218153000,13009000,253277837,5
170692310,8601516,118101003,1868883,115236651,1930364,3523719,6844564,803287650,2908081,167208850,663,629924,593063787,6388,5.36,4.33,240962016,225585000,14972000,261040469,5
366915735,5882909,237521230,1175823,235138125,1191046,2080834,5664446,910080244,2596954,355740077,12983,26717,1164060384,3253,6.28,5.18,265360819,254051000,10959000,287641922,5
398253405,6940427,250548255,1241292,243699188,1243332,2406923,6107984,974101986,2492388,396951929,121,33767,1277380134,3456,6.74,5.54,288462393,277950000,9998000,309697986,5
393719266,9737896,254823885,2121206,253426708,1875701,3701691,7741347,1083837358,2827106,378201195,363,542019,1202551685,8332,7.49,6.13,322766009,305392000,17021000,344231966,5
414876162,13771328,265784966,2567767,271310403,2582683,5908896,11173520,1552275177,3144571,447755300,432836,915954,1353402635,11210,10.54,8.6,457259656,433869000,23046000,478260002,5
385076909,8951280,246972902,1681495,245465552,1547695,3196754,6894285,951128412,2741555,385554110,45,357253,1189277845,8179,6.53,5.36,282332451,270010000,12000000,303148131,5
151053270,9736967,136742271,1605044,136294265,1465539,3323817,7622512,811501675,2942922,152451585,309,454510,658677887,5685,5.43,4.41,242252269,226951000,14996000,262940566,5
209542857,7177133,150783302,1255053,148528387,1495797,2938971,6310349,725061535,2271717,209480443,1498,180673,764876514,9601,4.93,4.02,216184386,190707000,24961000,237165189,5
233633954,11804484,170874363,1378207,170586597,1362275,4843286,9310095,968590682,3561041,230008677,718,437912,868969638,13166,6.54,5.3,286992623,254643000,32081000,307262173,5
188435942,11037584,121880601,1917142,120376305,1981994,4548325,8267972,907585636,3186975,189377685,44,783911,632097608,9119,6.13,4.96,270308792,243901000,25989000,291489582,5
201199670,7848578,137521200,1295811,135106724,1141546,3105384,6200819,708449639,2347506,193590055,874,357146,696848102,9550,4.81,3.91,211132949,194782000,15982000,232516212,5
160185842,5728031,111477646,868582,110503831,850752,1985709,4977050,594079113,2574984,161589084,178,34477,566376858,3457,3.97,3.24,178210420,167901000,10053000,198920024,5
443549721,8159017,288583266,1617808,284844898,1892822,3382058,7344074,1084957027,2446155,451317535,877,386280,1467222809,12759,7.52,6.19,320689420,284370000,35920000,341091096,5
169338069,8771756,118018723,1926436,116634638,1877738,3685935,6589174,764874412,2491811,168571362,164,530936,598280757,7946,5.15,4.18,228899321,211435000,17035000,249564442,5
384533173,10474620,246641392,1954985,246257071,2091037,3438367,8240116,1091431573,2982621,387611245,282,767659,1185601846,5693,7.44,6.1,324612253,307253000,17014000,346201567,5
162223075,6571345,114058039,1229119,112913254,1374325,2684076,5826710,606273791,2347694,163462865,19,219970,577183183,5991,4.07,3.31,181173584,166978000,13914000,201889108,5
175457403,8882799,116445202,1633856,115292515,1617472,3269536,7144918,736532088,2885899,176145088,140,515425,598563153,6582,4.93,4.01,219597581,205165000,14011000,240414959,5
212680247,8923870,147269430,1172006,147113634,1279514,3336312,7215458,753780093,2656710,214696826,84,237886,744620902,10867,5.16,4.23,221609983,202236000,19022000,242456681,5
167914701,7163607,116849309,894481,116526675,1193491,2976027,6007084,632721040,2535299,170800895,80,441848,603382727,8091,4.28,3.48,189580899,166214000,23029000,210694729,5
162446690,6886800,115914985,1353071,115407276,1157250,2649644,5714198,602098642,2302503,159918660,102,261716,578648131,7010,4.05,3.31,177263035,162006000,15000000,197687669,5
166438463,6909648,113242460,876544,110217884,879477,2529103,5903921,672402357,2812885,165006246,158,47571,587824147,4823,4.51,3.7,197426741,185105000,12006000,217651310,5
207658438,9140456,150364561,1172029,147547322,1074327,3627458,7335913,771239048,2920466,200874686,423,239630,769561613,10433,5.19,4.21,231163740,202979000,27997000,253116103,5
206125832,11798530,141798945,1398982,142892217,1560639,5102730,10902991,1152837961,3924041,209552420,273,206739,732787747,8091,7.6,6.16,340363326,323910000,16045000,362903726,5
392962875,6775541,250711178,1146559,246071657,1146089,2318277,6544799,931788882,3028252,377257221,14763,35417,1219101306,4037,6.44,5.3,277063890,263254000,13012000,298629024,5
163380227,6989007,113991499,893268,112444867,879081,2583038,6136154,681268259,2929478,161872415,120,34720,579390451,4436,4.56,3.71,203953655,192585000,11033000,223978519,5
164805078,6760796,114676300,1271226,114199158,1372668,2831842,6331188,606841970,2536844,167708113,113,33090,582662992,5554,4.1,3.34,181918940,171548000,10032000,202641065,5
218746714,9615886,157570120,1363280,154610706,1489745,3885280,7687716,839049889,2882477,220544592,2283,304862,810090786,14427,5.71,4.67,246159784,208858000,36974000,266595190,5
301379164,14291783,192687139,1913204,185087280,1779161,4059897,11846461,1217396776,4443116,309916921,1581,48857,1074496925,6951,8.26,6.75,362592125,347156000,15006000,383655089,5
167935791,10444476,117308145,1779605,116580401,1955269,3967205,8392319,841890661,3103192,168755120,367,771489,601237662,6675,5.62,4.55,250525992,228134000,22012000,271313882,5
162995642,7393610,112195431,1279990,111663275,1236914,2999049,6273045,698101297,2597573,164960550,65,194167,565128233,5561,4.73,3.86,205035365,187678000,16970000,225895863,5
163807328,8063484,116126476,1499445,116059481,1499285,3014303,6205879,709797196,2781957,163945602,53,525262,589106631,7164,4.8,3.91,208322700,193032000,15002000,231686775,5
302138032,38041013,220984004,12861405,221284318,12902956,8897951,26910500,2095485194,11042667,297433374,12619,238785,1056846438,16137,14.09,11.46,616446024,581101000,35006000,637236469,5
162057625,7147829,115679387,1028465,115637255,1012499,2621298,5922713,692657951,2973271,156915130,100,48039,565070946,5216,4.64,3.78,205824387,194486000,11027000,226279700,5
396454933,9224848,249473581,2090170,244763055,2327653,3859361,7858812,1129799975,2852200,397163729,405,576217,1252856151,7159,7.83,6.42,331088255,315916000,14948000,352158994,5
181264297,7166611,126573445,1338562,128708558,1359408,2784685,5796971,660842510,2333575,188413899,206160,46411,652710876,9160,4.51,3.67,198460115,176023000,22002000,219694250,5
387200898,6138575,248008022,1185542,248299648,1196525,2310499,5837880,962272543,2474093,385310529,5407,57187,1193852542,4429,6.69,5.5,284602521,274272000,10009000,305600093,5
162996783,7820083,112317353,1807334,110560836,1576521,3131163,6279576,723667787,2553909,167061523,54,318349,585690019,6399,4.87,3.96,211498944,200218000,10957000,233210793,5
163151802,6803541,114395879,1141668,112702703,1209605,2513537,5596409,604687372,2188181,165022815,181,446925,580353518,6429,4.1,3.35,179981594,163817000,15885000,200224414,5
327190436,8320356,220775140,2560807,219873761,2523140,3403637,7499483,1583031297,8469213,325433169,259,1774462,1142325766,7844,10.78,8.85,468273277,345855000,121948000,488964405,5
199539960,9698524,144249902,1000717,142655587,982155,4256457,8206676,966069419,4615283,198394641,1054,66079,732208499,8338,6.43,5.21,288760969,265501000,22870000,310419532,5
478324482,18914630,329026599,1509153,331853359,1513499,8585836,14972704,1589034295,6221090,481544632,345,183179,1619875827,20774,10.92,8.92,470351066,439058000,31004000,490579077,5
164800303,7726287,112925111,1664836,110978644,1605661,3100956,6254353,709786170,2535963,167288319,10,308100,582556107,5995,4.75,3.86,211023390,196655000,14046000,231774593,5
387558610,8046588,243096284,2012597,239896822,2041805,3147547,6713524,1013334920,2408311,396049182,178,454192,1228459750,6377,7.0,5.74,301574427,284290000,17017000,322217451,5
492513682,15042430,323645099,2047884,325344085,2049305,4548800,12635455,1516586483,4951566,489674805,2726,85983,1609157602,11634,10.55,8.68,449476208,429031000,20001000,470555359,5
396231132,7344871,248539409,1856448,246555634,2013685,3043230,6631452,943683160,2232950,394833648,501,343196,1241974357,6621,6.46,5.32,274805005,258456000,16028000,296318837,5
164753564,7618931,114621256,1450825,112441798,1438918,2843007,5956181,614589878,2393995,164682454,62,241442,596994613,7210,4.18,3.41,181555784,163068000,18007000,202305703,5
165942628,8049118,114410469,1372749,113426398,1361602,3439157,6859662,781834995,3136391,165134517,88,147414,574424217,5863,5.21,4.23,232751135,224366000,8013000,253323677,5
386097413,8727000,243652533,2124089,243577784,2008262,3110994,6656846,1045556943,2584556,390359968,63,213775,1181994351,4989,7.29,5.99,310787804,295306000,15015000,331450559,5
165533400,7547687,110956622,1260808,109466792,1317515,2969517,6195984,699791461,2660257,167657003,15,130489,577097792,5779,4.75,3.86,209044572,196615000,12037000,230791461,5
390373345,7425928,244419623,1424192,242573184,1439188,2903478,6685240,911563667,2304233,392391308,189,238017,1223888000,6424,6.48,5.32,272141798,259690000,12032000,293237583,5
394040784,11176564,252409293,1576455,252173716,1543271,2998928,9131103,1055509458,2718887,394606681,337,211328,1235743067,6490,7.3,6.01,312461150,296092000,16005000,333596396,5
178779524,8691944,120057770,1570007,118750638,1591267,3396308,6787069,755189826,2642100,178933068,47,535063,617869537,8146,5.18,4.21,224414585,206932000,16994000,244798688,5
392687333,10776933,248531179,2075788,247879552,2037624,4057937,8869432,1152870100,4397933,392699300,2042,680519,1199765218,7160,8.02,6.59,337394849,315071000,22004000,357792475,5
383340055,8242446,242210575,1389833,241114355,1528896,3103505,7447105,933231228,2365402,389928328,133,209124,1215433401,6617,6.61,5.45,273223121,255983000,16998000,293681035,5
255648929,13272412,181079970,4137515,175583635,4181604,4080343,10882414,989857209,2607950,252909708,121098,169837,923412695,10273,5.68,4.81,199340535,176048000,23006000,219992904,5
170522581,7628790,118075522,1028921,116042640,1112891,2873402,6146769,627772274,2505675,171408443,113,390293,604747487,7651,4.27,3.47,188308366,169909000,17990000,209046875,5
164902214,8097085,114683093,1550199,115541683,1620690,3045079,6224342,710068581,2521514,166864663,66,472334,583970035,6580,4.79,3.91,208460862,192171000,16014000,229148072,5
161396852,7651992,142831522,1073198,141162438,1041209,2964779,6688257,660971663,2697566,155210783,78,585430,710533673,7645,4.6,3.77,193538344,168148000,25022000,214729300,5
186744806,8139915,133285961,1278624,130486955,1393387,3057721,6735872,679951888,2487239,184954736,257,114062,679940106,8964,4.72,3.84,203929818,185547000,18053000,224964875,5
154403023,8119829,114295938,1373188,114666082,1360103,2690283,6528623,668058525,2578585,159407621,33,49743,573024983,4157,4.51,3.68,199758259,187402000,12025000,219939199,5
384571142,7143134,247369769,1493343,246178119,1662741,2771324,6347485,896970555,2144176,385944274,22,316158,1186189670,6424,6.34,5.21,268633958,258236000,10009000,290073791,5
396565244,7597553,251469537,1688302,249196154,1366138,2900747,6194347,940393555,2496203,378145731,68751,605316,1222039766,7448,6.59,5.42,279641828,253245000,25922000,301451357,5
168190822,10638830,118619947,1255169,117507519,1370185,4395399,8502843,832189507,3415108,165145182,272,766292,593951118,8146,5.61,4.55,248449554,236073000,12003000,269565058,5
495040138,15039136,332241869,4658942,327661175,4848895,4821689,12246933,1421839580,4200815,498277519,42319,286300,1624025050,13035,9.91,8.15,422044648,397669000,24040000,443287943,5
256458344,10461834,188390413,1398310,189851539,1399572,3771704,7737992,896429219,2592778,263716613,1516,262939,986440465,18229,6.2,5.06,266982336,226412000,40073000,287777250,5
169228126,8192354,116413066,1475841,116894061,1725722,3195022,6433991,731073584,2435421,169476628,219855,576511,603856660,7362,4.98,4.05,218270847,201893000,15991000,239041448,5
221823756,9425518,163008261,1490542,160916688,1295719,3305050,6680576,811311512,2434981,215032162,533,486337,810776660,15648,5.61,4.59,242623195,212264000,30037000,264455032,5
168799794,7220870,117747064,983303,116135698,823084,2526173,5560514,604653664,2326464,165339644,47,272134,606813068,6584,4.1,3.33,182110053,165788000,15979000,203958627,5
766849783,2656448,450276630,4194005,447770237,4299599,506325,2270019,1150449189,226670,753574840,170,44081,2291578464,3253,8.29,6.92,341101757,329469000,11015000,388935664,6
646623393,907382,404932606,3267806,401664244,3132581,299888,1593170,901195950,117473,642713687,209,25273,1901373984,1559,6.3,5.24,268544651,265235000,3002000,288543015,6
207430047,2167229,127152226,1860719,125050656,1706197,222411,889593,308452640,90413,201491071,65,15842,621224729,1697,2.19,1.81,94704505,86345000,8032000,115582115,6
281434154,19759964,210880422,9917919,210917029,9938349,4986018,14834822,1370346438,6633680,277929559,11322,95002,936932800,9843,8.9,7.22,407880581,384495000,23029000,429769349,6
329883382,18888881,236408504,11399716,233559520,11448201,4877695,14067437,1378501607,7543182,325957521,1078,89445,1054992559,9821,9.05,7.38,406238144,383958000,21997000,426567681,6
688702261,9533834,469526291,3041354,469564460,2806548,490105,2176485,1179670253,2356173,693245144,27,50064,2146562437,3837,8.25,6.85,349402602,337969000,10998000,370757981,6
657514337,3302886,419773045,5614047,422116131,5798152,382162,1994325,1035374825,189818,664194159,506,42247,1961098948,4279,7.25,6.03,301911869,292622000,9019000,322112878,6
238191918,8099515,167127165,3054616,167703003,2990397,1724973,4969856,608501707,1919920,249214134,314,240736,828742852,8068,4.17,3.42,180929057,165714000,14884000,201261941,6
380283332,7387718,247154925,7450461,250934798,7268606,3096773,6513323,1011723405,980516,384906777,313,450839,1373955361,41427,7.04,5.82,299858163,229351000,70107000,321629093,6
230876234,9756189,192897245,2257372,190034161,2478133,376955,1342406,560275478,2319979,228961758,333,29796,862781372,3844,3.87,3.2,165382576,155071000,10004000,185857217,6
688851323,9676747,468581605,3294572,468346076,3294180,524399,2177864,1164847568,2354818,696990682,159,42147,2144763174,3841,8.1,6.74,342365412,327939000,13997000,364016632,6
203731056,9562774,154626065,7712960,150781301,7394542,1619150,7155590,663044250,1762294,208779725,138,59186,746217556,7617,4.49,3.68,197000767,178681000,17967000,217812331,6
211915876,10263242,173729725,2972415,172568854,2854286,551473,1656669,580744074,2537406,212785440,92956,96716,719932734,4430,3.98,3.29,171532258,158210000,13017000,192043006,6
143651645,1129522,156369371,3194266,150525726,3018047,374111,1623096,340766265,149597,135709340,230,15304,654826898,1890,2.35,1.93,103957604,100682000,2990000,124079381,6
223117495,2516313,144836103,4021636,139665976,4461221,418877,1274725,413359241,139883,221251268,105,33039,701969185,4945,2.95,2.44,124873453,114517000,10045000,146340737,6
631118328,909681,398803648,2961761,397753911,2961469,285848,1538203,906414428,88520,628778463,127,18486,1869907508,1106,6.49,5.42,266122793,262825000,3009000,287058842,6
721359593,27793614,457997298,2605781,457212830,2645270,542184,2792668,1328293167,3145107,718858632,495,46414,2126804960,4579,9.15,7.6,389627909,373211000,16009000,410527452,6
179927911,2096845,132245929,2813100,125416604,2772494,446656,1276859,332236864,152132,182753374,9,22900,633341636,4795,2.33,1.92,101226305,81797000,18953000,122947097,6
317661849,39320002,242303295,7313420,241068431,7260386,1986940,6332641,1196754251,6711527,319767731,20263,72162,1032709897,8553,8.09,6.65,354401887,332075000,22004000,375902393,6
658286329,6588130,415712835,3669880,418011815,3641470,1434652,5451478,1230986075,1664366,662826541,30825,57867,1961630966,4425,8.49,7.03,363990281,350594000,13022000,384920492,6
162748694,1428651,121295719,1593139,124183314,1549763,185307,837265,276326287,59486,174660732,12,17910,574124490,2365,1.92,1.58,84031758,81744000,2018000,106284062,6
284907753,19676549,211591274,9460943,211286404,9547583,5175803,15022453,1380961940,6559384,285540486,92512,101535,951351038,10097,9.06,7.37,408812901,379515000,28963000,429624851,6
192328330,6453772,141381633,2507951,140677560,2504452,1237107,4198150,463182281,1805059,192421462,116,33415,669751151,3650,3.2,2.61,139434141,134073000,5002000,160968161,6
167466522,2519966,121017648,1716626,119800274,1883819,194357,817094,275882306,58572,173878315,0,14796,565144163,1695,1.95,1.61,84924942,82604000,2014000,107412050,6
754204224,19510580,487715764,10259542,486186335,10318390,5292548,15958317,1999983849,6470084,753735202,126131,131267,2259469330,10090,13.58,11.16,592251085,572027000,19966000,613017708,6
244296134,23461271,175174041,2051683,174251400,1973882,564051,1881488,605762803,3064374,244771327,36,31202,782847736,4431,4.09,3.36,181149618,164631000,16061000,202597707,6
699935429,13715677,432475961,3500704,432940415,3573837,661968,2315692,1185513566,1712742,700773827,13908,36622,2056183081,4231,8.25,6.86,347319518,337058000,10001000,368021486,6
699055978,11651636,436824942,2788687,432584295,2844954,2189252,8565449,1218388196,3443586,702479735,1062,74434,2112278192,10938,8.55,7.08,359637303,344254000,15011000,381216122,6
749003404,19753225,482498688,10792311,479956435,10871389,5205465,16008134,2012483482,6689888,757806949,154237,128216,2249149064,9715,13.91,11.46,590432885,573966000,16026000,611944925,6
206484984,2393584,132327354,2156027,127537405,2134594,217133,902606,319145142,102660,206528704,133,13244,629304186,1695,2.32,1.93,97460679,91099000,6006000,118482192,6
758613625,19554126,490167403,10315000,487407453,10255693,5359766,16085506,2018456939,6425112,752530985,87163,119932,2266225136,10090,14.03,11.56,592751763,565369000,27017000,614436687,6
750020688,19117959,487278985,10484164,486383769,10449289,5295547,16231209,2026903514,6430399,750765880,123504,153190,2251272418,10092,13.75,11.31,597328802,572892000,23995000,618292872,6
263493155,16560102,196963465,10963200,198267324,10925464,3739519,11894050,1207272737,5803215,264439821,71512,75489,860612652,5914,8.11,6.64,353040472,341675000,11021000,373727938,6
167084197,850130,128440929,2388754,125725653,2248849,241397,859674,294061353,77577,166288166,10,10501,585474327,1306,2.07,1.73,86503110,82180000,4008000,107137130,6
285194010,19427723,210903818,10050245,209672216,9938362,5902314,15715136,1455866885,6751356,282317290,125080,137322,956456764,11773,9.7,7.88,432772451,403533000,28895000,454091348,6
287424461,19779746,211942705,9947558,211026633,9890585,5774625,15594721,1465117898,6774403,284466543,69868,92136,964020868,11772,9.61,7.81,434185277,408806000,24988000,455147320,6
1185398814,6957005,830893876,3361507,824571380,3467597,1706096,5803373,1768011883,1405052,1186285969,2593,70729,3868972219,3644,12.72,10.61,521446449,510113000,11002000,542671758,6
159921480,2316671,113400520,1859548,114649535,1602864,226094,959552,268640130,102469,164392728,40,23240,540634656,2086,1.95,1.62,80426782,75876000,3993000,103119446,6
266818006,27899628,196778095,4336472,191778815,4598568,604356,4149360,792987047,3443165,271681538,196,44848,877617865,6317,5.32,4.37,236279808,225950000,9997000,257289905,6
194358833,3149259,138381397,1649696,141550464,1656294,390991,1441956,351022741,136216,190018491,60,302317,636274343,5578,2.51,2.08,106510589,91130000,15021000,128598028,6
739559461,17412370,481631336,13271282,483673944,13342103,3819987,13719411,1908295018,5866112,747291508,31279,96020,2249161858,7400,13.09,10.8,563558473,549083000,14002000,584958968,6
183448704,1932805,145810203,3176803,147643380,3337036,240292,991053,368375449,107939,180169029,296,22823,665863585,2605,2.53,2.09,110259854,105642000,4024000,131523299,6
314769920,31169552,232593697,7597325,231697872,8010669,5434999,11910899,1500355951,9399509,309950235,22659,104113,1051852798,14488,9.98,8.12,444524511,414196000,30014000,464911890,6
667306117,1689693,403947398,2271927,405668801,2196899,312099,1657325,934711062,103472,663066237,80,25498,1906590767,1690,6.87,5.75,274053652,267738000,6016000,295510149,6
209170924,1354628,130233778,2056684,126354361,2087447,340472,1153421,324364259,101372,197631170,1,11460,616449826,2088,2.4,2.01,96115233,87854000,7986000,116885764,6
172956162,1748958,114477082,1489583,109243279,1486777,269793,996685,294302055,86736,163712539,5,8879,568131210,1696,2.1,1.74,86740228,79379000,7033000,107896959,6
172938338,2021386,117015807,1733403,119188923,1618104,184265,819680,276071019,60390,177405506,0,12973,571548253,1305,2.02,1.66,85596411,82228000,3008000,107262243,6
279758741,19820112,208429448,9778047,209949748,9889537,5693093,15680166,1528243679,7211103,285033666,40440,117274,934634051,12515,10.2,8.3,450608777,429271000,21013000,472600683,6
349585872,37663892,261049878,7893731,265608170,8003761,4865837,15106560,1599682912,5928631,356550572,110543,132107,1175454485,10367,10.66,8.72,469020984,442635000,25978000,491068251,6
754580716,19515500,491256062,10446108,489220530,10501745,5170394,16060311,2005644947,6550094,746409969,240870,170490,2254357607,10091,13.64,11.21,591268561,564764000,26035000,613087450,6
180175386,2081100,132663503,2847471,125626594,2794015,425296,1262747,330142916,151170,181454682,5,22951,630403510,4796,2.35,1.93,101597471,91308000,10033000,122070725,6
172950418,701876,119563135,1625534,118023900,1571217,184565,737987,255439230,58323,166436660,74,8842,565619704,1110,1.81,1.5,77109247,74691000,2018000,98441410,6
752697521,19327686,487128431,10326076,485045107,10397088,5107563,15843319,1989597403,6523547,753633284,115227,131646,2257941834,10091,13.93,11.46,589399238,566019000,23000000,610028687,6
287183060,20117840,209751183,8670449,209534807,8617368,6209054,16018369,1516694961,6543782,286459102,162475,104051,958505178,11772,9.98,8.1,448364935,421850000,25990000,469780608,6
648134442,1202344,404499187,2213655,399695781,2396402,282805,1476816,888996598,92840,639706920,78,20111,1909532102,1106,6.5,5.42,263452158,260034000,3000000,283256959,6
176986260,1978366,128998503,2429132,133532521,2273243,224001,1001216,321146008,80598,181957445,66,17869,632373096,2847,2.34,1.95,94609717,87222000,7017000,115208351,6
665247166,5373470,424847180,4045794,423508693,4053683,1888620,4514841,1145994974,1185137,672304200,321129,68878,1997354794,9332,8.11,6.74,335154253,318857000,15992000,357868757,6
672941146,6184794,431312823,4797524,431719141,4929207,1213972,4808532,1113349130,1610269,665369434,98,38564,2028498069,3450,8.12,6.73,331913384,321521000,10016000,353464044,6
689595289,9568368,442554941,3019370,444225094,3210690,1992606,7180063,1228778467,2001571,694372558,250657,150740,2087846062,7990,8.89,7.37,365945772,345349000,20020000,387664416,6
571568200,27053052,407998777,10245433,411006880,10098887,2495088,7333069,1652744898,3904091,578820794,788424,181382,2063174656,15748,11.34,9.34,489308206,458028000,31001000,510767040,6
206531810,2107482,128731488,1834979,125554095,1648937,295744,954258,309567367,116644,198932075,37,21627,618739190,2280,2.28,1.89,94824273,86536000,7957000,116447199,6
309900088,20343694,229573798,11511992,230156130,11515029,5337391,14693498,1462408381,6212362,312323007,120361,153535,1042887302,20354,9.95,8.12,432279823,390943000,40994000,454264370,6
702593789,17105428,439947093,2668639,437553600,2674652,791670,2756868,1184222042,2218507,700177654,80,45391,2038830667,5933,8.52,7.08,354005924,337699000,15938000,372754769,6
202032700,2502918,126341120,1741029,128978134,1664368,318448,1292352,329271081,133918,214379841,23,26594,638659704,4109,2.44,2.05,97555448,87191000,10022000,119076244,6
680589993,2260656,403329652,2358399,401752542,2416320,454592,1921736,952755854,144388,683224923,247,37477,1931292316,4101,7.01,5.85,283986884,271715000,11987000,304700658,6
245309797,8948310,183458231,1674635,179189305,1642271,1215001,5643594,532075509,2360671,239130338,15,20958,882205862,3258,3.79,3.14,155661639,143309000,12025000,176562674,6
637847710,2097786,398752289,3090307,398104880,3310203,303891,1742251,928491753,96515,639614843,425,36042,1880079018,3200,6.67,5.56,274804258,267493000,7012000,295115315,6
663659158,9456144,536654187,1928249,538821436,1941265,1151972,5642072,1124433905,2319943,678504074,374,62583,2378628309,3258,8.07,6.71,333804967,323339000,10010000,354919424,6
210719255,1793164,137352046,3512348,136374094,3409461,381315,1148838,372786000,124947,197973801,55,19494,632014050,2868,2.77,2.31,109442695,101173000,8013000,129973934,6
644240303,3047583,402002395,2234195,402032314,2419960,565802,2172800,921148808,136220,657988346,57,38991,1927644505,5785,6.69,5.6,269299106,255981000,12948000,290395518,6
658628087,1856522,407558884,2641755,407279579,2445728,457382,1800840,934257397,127631,653334488,61,26834,1921655636,3444,6.88,5.73,278763694,267432000,10976000,300447226,6
252183156,8934664,182360434,3274766,183501499,3296060,1257926,5767505,568385871,2710538,255630862,102,37022,871368955,4751,4.03,3.31,171805266,161352000,10021000,194704897,6
749633228,19391773,484786473,10395667,484619872,10418274,5110335,15938918,2004463360,6559595,756928716,151492,124303,2252701080,10091,13.83,11.4,588746313,567369000,20976000,610172497,6
283467876,19639042,211084666,9437377,211271067,9481114,5028436,15082937,1367193167,6652191,285601299,29220,93118,947892490,10096,9.13,7.43,407462370,388094000,19004000,429093737,6
389437950,11851741,287585718,13195989,287010835,13176199,3007731,9484008,1338413358,4740129,390472362,1146,105551,1428424286,8159,9.14,7.51,396788574,370485000,26034000,418948054,6
215957880,8996679,175095960,2291712,173078305,2307195,407764,1432198,559547048,2483269,211577441,3,28391,729282901,3844,3.79,3.12,167168620,152836000,13985000,188343681,6
219718397,6070798,173943401,2545213,169952743,2455655,1213932,4188780,506703711,1545513,225798658,149,32266,842500593,3259,3.6,2.97,148443001,139064000,9004000,170157291,6
199923651,9994164,158583111,7274216,163239057,6906211,1763548,7415582,650652766,1702478,210318711,88,65357,765377618,11288,4.5,3.69,195171722,175748000,18972000,216823370,6
187114136,6170964,131966356,2732410,134985536,2714585,1014030,3636045,436314368,1699882,196211600,37,30592,626507235,3259,3.09,2.55,127071969,120764000,5988000,148208453,6
706457208,15836531,443507907,2648283,442104925,2794988,494163,2079848,1157558738,2022866,699261278,75,42166,2060613391,3841,8.22,6.83,344926166,333463000,11015000,366583185,6
694474451,9435371,444615599,2433001,441589987,2445827,1777426,6721935,1139175512,3059958,683196303,224,55668,2117217004,5598,8.2,6.83,334296192,323897000,9996000,356315013,6
638624050,2401054,400801396,3368082,400912754,3489093,422628,1879801,950895279,136719,646398684,190,39322,1901337773,4795,6.97,5.82,279542974,270007000,8967000,301900428,6
418746726,28057370,303386800,5360637,303002418,5429558,8645056,21797632,2103339844,6345918,407082140,96113,244613,1491988605,21281,13.31,11.03,531473736,486082000,45007000,552514792,6
211998575,5984642,155372193,2500792,152794217,2488163,1078715,4057309,444970161,1522496,200616810,89,26257,729529015,3256,3.23,2.65,135161560,124815000,9985000,156073050,6
167160210,976168,120757128,2249910,120277119,2441961,163554,735230,303031859,66707,166929250,78,16629,569869940,1499,2.14,1.76,94039661,85774000,7887000,115963413,6
651806347,1475035,396594120,2464220,399185376,2322203,245931,1626776,921091172,101873,653521663,115,26429,1921041323,1874,6.67,5.57,274968053,266548000,7986000,296316354,6
288103038,19571660,214989547,9509015,214907645,9508684,5846770,15717963,1471961968,6712094,287685412,82120,95424,964302983,11661,9.75,7.93,434665040,406178000,28012000,456086542,6
168416891,1355824,127619953,2518611,128484716,2531421,182333,833310,300517219,105593,165558685,83,16353,578175711,1891,2.11,1.73,93204210,85786000,6982000,115486497,6
195465043,5768114,168609279,11296976,170745765,10816798,518696,3978557,602936848,169814,205125298,23,29013,820654643,4807,4.19,3.45,182469806,172055000,10003000,204575367,6
648231419,1604212,409097615,2239588,407658919,2097583,364043,1778103,917474538,115724,643832713,234,25720,1924014813,2720,6.69,5.59,273661402,265271000,7978000,294934034,6
181697650,1687118,133391940,1752287,132258628,1509858,248002,939016,290081998,90243,170095017,59,15137,596084036,1696,2.09,1.72,90800410,83441000,7037000,111873448,6
364895598,18992550,264798135,12396625,263003011,12315438,5824974,14351478,1587416123,8000525,366064022,86503,85999,1185819243,9548,10.65,8.68,468776202,445479000,22973000,490380296,6
166592747,1431505,128549663,2485373,126687494,2379924,254024,985772,293984942,87748,162540078,73,13697,574080131,1696,2.08,1.71,90824582,85464000,4968000,111846805,6
215454561,3596444,132781556,1918079,135758165,1783622,461915,1334460,367775624,159133,217196762,61,154386,677604192,6355,2.7,2.26,108118614,90816000,16965000,128526994,6
693515219,9635977,468298128,3242476,468227237,3251724,514756,2173552,1161944773,2325277,695769384,175,42353,2148616596,3840,8.43,7.03,340776646,328402000,12014000,362562189,6
339676464,37069798,242122321,7154891,243087329,7035296,803807,2520252,1049424918,3378073,348831727,140273,60792,1092156244,7375,7.18,5.92,307761555,289330000,18020000,329710284,6
168323168,760804,125042207,2459327,123625750,2293461,247539,845040,290782335,75750,167220238,118,11386,586056586,1501,2.06,1.7,88771960,83347000,5020000,109961432,6
633870853,1432958,398841801,3123983,396396069,2947651,388185,1776311,913294345,130556,631592465,41,23714,1875669968,1690,6.73,5.63,268428766,263015000,5000000,289663422,6
188247304,2054945,128483708,1842786,124070661,1793581,323719,1095335,301053093,119755,180553595,73,22335,615248714,4111,2.18,1.8,93017563,82480000,10058000,114954492,6
230007824,9907555,196656442,2265478,194872842,2101679,563173,1641328,570955915,2725644,226156690,27,29853,860574518,4430,3.94,3.25,172495378,159095000,13007000,194097156,6
302681617,6525579,201514565,196474,201606274,197180,105496,1127647,497267200,24574,303804335,204,8592,1420628491,233,3.42,2.85,146447162,144898000,999000,195269906,7
678571792,28779608,310570380,659227,310463617,652069,5506756,13954698,1313959461,1836507,673860153,120,461062,2181010289,98338,9.44,7.8,388087666,225695000,161781000,409058819,7
673020993,29410420,310012919,651193,311830728,643896,5482934,14205009,1280931624,2298798,682817849,179,464676,2281858159,98331,9.35,7.73,378996755,213751000,164808000,400626097,7
371712143,6263371,213752124,323498,215970582,326826,101206,1109288,500676156,22793,373569527,64,7812,1454602352,240,3.61,3.02,147563125,145378000,2005000,168347042,7
451075334,17782632,302546535,544496,302477828,534472,5301296,8190203,1085879378,2219703,447173477,301,457873,2003883795,97894,7.67,6.37,322743831,177205000,145168000,344569383,7
677378077,28735280,310788862,659834,311465249,649608,5577212,14108452,1318934312,2219483,675061792,289,509972,2178775163,98331,9.52,7.87,387692875,213947000,173148000,409523690,7
767363553,27614729,444931132,872865,446848845,873200,6549437,15114244,1934102974,2476303,772185562,307,362706,3163866001,97889,13.88,11.43,568825396,347259000,221165000,590120880,7
205684024,6498455,101192259,163194,100985430,163350,84556,885057,325039180,24920,205862794,2,4342,931410071,324,2.3,1.91,98419355,97146000,1001000,120301034,7
621006723,27922634,563626391,839856,558591241,836720,6274304,15038962,1826763613,2320037,619504725,69,534375,3051715627,97886,13.11,10.77,537704666,317037000,220330000,560009627,7
305418316,6509814,201690340,179072,200663506,183363,96500,1036290,425668057,25380,303598918,159,5856,1227573105,231,2.98,2.46,129410679,127098000,2001000,151310887,7
513899696,21712968,354102327,690248,355361248,682410,5634633,10011735,1313179982,2504852,514749024,337,455506,2256072355,97891,9.48,7.83,387086139,172317000,214395000,408613469,7
511938408,27417267,359821620,803346,361763822,808970,6332435,15138503,1646170371,2265420,515774675,336,408712,2499425684,97889,11.99,9.88,479242355,269971000,208977000,500596408,7
355841070,49715285,215288356,253158,214368660,252456,155343,26195444,604433998,42772,355626599,97,8800,1280826475,528,4.54,3.82,181843658,179387000,1993000,203782664,7
505237897,25447261,201362035,232323,201139091,235562,162348,2777614,571923000,44523,510795474,176,8258,1629395102,724,4.31,3.64,167917473,164628000,3011000,189616833,7
812447895,21572739,653903973,783389,658326484,780381,5782120,9774878,1613399160,2368015,814955897,779,443834,3551678342,97920,11.55,9.56,473236085,250928000,221937000,495415229,7
674886657,29713236,312183052,666377,312210682,673847,5571842,14381260,1303328361,2352349,676936459,520,518560,2281068560,99217,9.58,7.94,379512950,204927000,173938000,400719473,7
674023435,29279440,309692641,662095,310111888,667156,5564876,14290576,1324539333,2370703,676924146,319,459730,2178915115,98336,9.83,8.14,392073137,219698000,171764000,413267655,7
204616054,6447780,100600065,148355,100587036,147705,78925,829122,323490389,29023,205179521,154,5585,923316021,326,2.34,1.96,95146868,93823000,998000,116079796,7
680727384,28920429,310344603,666031,309986831,669192,5542716,14339537,1324398618,2403067,681122614,356,630291,2198666733,98332,9.79,8.1,393010529,224617000,167714000,414915823,7
818385110,21239124,661199081,775651,658680876,781944,5694426,9907634,1602996279,3089806,809597257,168,387113,3581578256,97889,11.74,9.75,469170628,258851000,209879000,489433006,7
549325094,18288470,501933065,631534,500560550,627826,5406457,8684675,1331883250,2252708,546717295,424,431114,3006177526,97885,9.41,7.81,395133453,251526000,143299000,415441680,7
372523114,6409372,288818321,1286844,291382576,1241335,90805,962600,391408664,22889,367965438,52,6771,1275727182,233,2.8,2.33,117950674,115687000,1994000,138712197,7
673079931,28914248,311917685,664437,312498230,668658,5674921,14472962,1295832010,2224515,675055554,654,454420,2270552039,98337,9.43,7.8,381455641,212963000,167971000,402770884,7
514955915,20957137,353127821,706642,354473198,708814,5781989,10338180,1300362112,2269729,518906534,322,396084,2075849224,97884,9.49,7.84,385969115,162832000,222771000,407259914,7
305520440,6538893,201885711,182531,201091383,186035,111711,1081169,428457923,23159,305684669,92,6248,1232630574,226,3.05,2.53,128680316,127237000,1001000,150074516,7
405906976,12859237,402037326,252001,400624786,255932,135084,1463666,650394520,35508,404683957,57,8812,1928903607,330,4.6,3.82,194645480,190407000,3966000,216786104,7
877560403,29753453,508521246,694240,508873430,691522,5705975,13847790,1450971982,2161344,888102377,296,450322,3097266083,98332,10.6,8.77,428403066,257827000,169886000,449361768,7
607599235,18506838,445753012,846610,447156375,839674,5575314,9462604,1776380380,4330450,612049231,633,1703457,3044382891,195550,12.4,10.29,525228724,276920000,247928000,546242347,7
538910633,29247252,377368419,827346,378567981,824500,7062244,16936219,1750913271,2893935,534296697,500,482076,2412879086,107664,12.77,10.51,513690603,266663000,246689000,532709255,7
193728490,5963828,389714080,1318606,389362367,1306404,92827,1033113,442216346,37610,191982770,38,9070,1261887411,330,2.96,2.43,132916113,131732000,1005000,153936656,7
675318657,28780800,310859837,696760,311059292,682015,5709391,14410663,1329383937,2217271,678112867,622,428905,2185143317,98333,9.75,8.07,394168219,218781000,174825000,415117419,7
303900563,24308203,200957756,207736,201016625,205209,113376,2352896,533192161,33320,305743627,223,8765,1425876542,329,3.9,3.27,160421659,158155000,2001000,181144902,7
537505506,28747855,372955920,829080,369738227,840331,7030972,16279284,1787766052,2892019,535597249,713,432084,2720132201,107657,12.94,10.67,518772750,294708000,223778000,539229124,7
286349735,12687365,196844222,228862,200529259,225929,108112,1503362,415776723,36560,284504300,276,9693,974525430,334,3.1,2.62,120938820,118622000,1993000,141942840,7
452119342,21508665,312568149,549864,310559420,556686,5728141,10100954,1145543092,2604590,446107419,359,336217,2162285156,98774,8.43,6.95,340287319,176981000,162983000,361255183,7
622220038,27310444,460876485,864512,457825761,868189,6479145,15212897,1817913520,2500498,621031793,454,392055,2648433162,97883,13.21,10.88,533470892,314055000,219038000,554454634,7
871717574,29074307,411067648,698920,412994545,704068,5664297,14079779,1409018693,2181509,879053040,275,652518,2868524622,98332,10.34,8.58,410342155,238831000,170879000,431439407,7
449878633,16621545,301903015,540014,300776287,528612,5393895,8462433,1035361438,2289831,451605575,313,423735,1804552877,98382,7.49,6.23,305656134,137698000,167632000,327027366,7
305186146,6520075,201631419,178914,200789978,185288,96898,1033607,431203350,25898,305517986,299,7096,1335613539,228,3.08,2.56,130282716,129022000,1000000,151740120,7
447144605,17300830,299552827,616809,301657857,613524,5356400,8703246,1302588698,2327315,451205893,350,337470,2502413157,97888,9.38,7.8,385428760,213996000,170997000,406677438,7
579779821,28955271,311239537,682576,309740433,684798,5651056,14498455,1341121967,2399220,578734516,521,638409,2403400723,98336,10.02,8.29,396789235,225051000,171039000,417697009,7
684677577,29235225,514103916,698081,510352040,701472,5801202,13996631,1428105817,2466757,678183920,263,633526,3020883515,98331,10.35,8.55,419778566,255108000,164070000,441018223,7
778728056,29462812,311848204,710539,311684475,702420,5801063,13991077,1486911340,2986025,774004410,136,468910,2677877231,98331,11.01,9.13,435450772,270311000,164580000,456588967,7
675151960,30044478,309288507,654805,310061980,658766,5654612,14547315,1316290225,2548486,681609323,258,574226,2282867318,98337,9.86,8.18,385649603,222005000,163003000,407640555,7
433361279,31831360,215560391,255586,214524032,253934,132705,20019858,679670649,49217,431201861,205,8913,1755555638,424,5.09,4.29,199135832,195655000,2994000,220414226,7
812370363,21670006,653051844,781473,656498469,782977,5899034,9956118,1611695526,2516256,816657292,287,423683,3554790321,97885,11.71,9.7,474540889,253067000,221058000,495195539,7
517688693,27604608,359021404,778921,357485667,784497,6443971,15757193,1643962828,2399671,521413746,193,414604,2447222169,97896,12.05,9.92,481511520,272043000,209033000,502152284,7
203114567,6436473,100449135,149951,100289219,151602,75596,832314,324799221,21837,205799538,30,5233,923703410,330,2.36,1.97,95514725,94219000,1002000,114918989,7
679093494,29573744,310573981,692756,310018130,678250,5723194,14661324,1332988241,2542239,688060966,467,545761,2505575133,98334,9.99,8.29,388660618,219000000,169000000,410031606,7
545782941,21217586,510608707,623525,510534325,611480,5822318,9419505,1350389505,1783562,546212566,157,460418,2824309446,97885,9.79,8.09,398859433,245312000,153195000,420134409,7
684002181,28914345,310321979,638011,309568586,640974,5757484,14570369,1283881881,2197252,681082442,133,457488,2300518073,98338,9.45,7.79,385640217,208982000,175985000,407885261,7
447130126,16629013,301139773,574954,301739999,579188,5399177,8684785,1195824312,2181476,445758952,206,413980,2292712779,97895,8.69,7.23,354162577,192930000,160941000,375377913,7
307596875,12828115,201165016,177470,199731936,178116,98200,1133423,431939374,40299,305945467,0,5448,1439815675,428,3.28,2.76,127482892,125182000,2002000,149228932,7
205926968,6493738,101078576,153309,100701765,153071,76616,856068,322562903,29943,205740313,0,4305,931492672,323,2.36,1.97,97690498,94341000,3010000,119631979,7
674888386,28749006,310164358,676304,310602717,665362,5683717,14532808,1347445457,2432588,680247319,20,630017,2384224638,98331,10.09,8.38,391318219,231224000,159465000,413347683,7
675381674,28667891,310627269,663148,311090056,659541,5682562,14394806,1326578020,2413859,675151259,17,459115,2372336043,98339,9.8,8.11,393474874,221061000,172047000,414947734,7
532740714,31808922,215374587,302303,215233187,299808,156341,20544345,833296335,42980,531532288,45,11865,2048658586,423,6.05,5.06,248530515,246223000,2001000,269292631,7
716451685,21231567,555763254,754616,555856584,743437,5646099,9831207,1533655274,2830589,713725403,410,436846,3069341651,97894,11.37,9.42,452563521,238119000,214107000,474296546,7
447904458,16618793,300908178,561772,299996001,569139,5489109,8500789,1191875257,1899044,450307508,112,404050,2294826300,97886,8.55,7.13,347224341,180908000,165916000,368055634,7
685537078,29656016,311972471,710354,311270183,703206,5721321,14158865,1459756294,2653217,680174213,41,626430,2306081925,98332,10.82,8.95,431636461,246057000,185042000,453820075,7
534680472,24510861,209215515,235823,208731634,236564,131074,9804027,619555883,35239,529974523,151,8674,1707520196,325,4.58,3.83,185799381,184497000,1002000,206764898,7
430846250,30998392,215041090,244674,214992603,253040,136187,14036287,675327549,38497,429687009,47,10125,1743381233,431,4.98,4.18,201005879,198764000,1997000,221595715,7
522495423,27766304,365216134,782831,362336795,790290,6353578,15610236,1659681295,2438185,516146253,130,446442,2533696315,97884,12.21,10.06,487341670,271027000,216021000,508788775,7
505483526,12785067,201974167,210343,202414548,208109,113332,1329457,537797071,31202,507040766,133,9133,1527343772,326,3.94,3.29,162524842,159246000,3004000,183319837,7
193306171,17409307,107073813,451698,109119655,453693,5300135,8048112,764895018,2288511,195882418,66,381972,822322917,97897,5.57,4.63,229430575,68045000,161107000,250875701,7
678213558,28988157,311274830,674189,310667701,678225,5720541,14540988,1331465914,2479708,676295150,179,460029,2183754289,98341,9.82,8.14,390770076,217497000,172601000,411534885,7
512502151,21212052,353372362,893428,356397296,899503,5939721,10140061,2116734386,2701322,518638413,174,375624,2667964446,97884,15.36,12.77,621324946,407028000,214015000,642231662,7
693336343,42098156,312606848,703773,315076331,688384,7506098,25253945,1435971928,2074432,709819739,143,646796,2147138054,98436,10.81,8.92,419757089,251458000,167638000,441154629,7
676857435,28768554,310181456,656797,311376692,650747,5656226,14374375,1319591208,2077031,678508978,183,461735,2378724507,98330,9.8,8.12,390241634,234721000,154816000,412803260,7
453136736,21098684,310448404,609018,308613973,609748,5968202,10746557,1277680204,1858770,447850899,134,391767,2252678547,98132,9.26,7.63,378539956,216181000,162136000,399290956,7
444859779,21055886,308241408,573081,309459025,570910,5821017,10169785,1153232345,1943806,445951785,175,435104,2117443083,97886,8.41,6.96,334577382,181065000,153055000,355233193,7
205141818,6465445,100810261,150473,100887682,150108,78136,870865,321592072,21063,204621983,0,4381,923274110,232,2.31,1.92,98439997,94961000,2998000,119931304,7
209159564,13271524,105214661,153629,103827802,159675,249124,1728377,338823464,122995,202486164,72,15524,932978227,2093,2.53,2.12,104011883,99585000,4023000,125126007,7
304389346,6495082,201314576,182704,200722760,186900,102309,991097,439269999,27316,304804836,198,5990,1431252788,329,3.17,2.65,129302039,127711000,997000,150730598,7
677144590,28529982,310903074,655263,310937053,665409,5630982,14471039,1338896824,2298270,679700555,183,489014,2195586457,98336,9.99,8.28,392150865,222213000,169162000,413478802,7
877667034,28716344,409546486,708486,410780746,704384,5661060,14056406,1438677172,2418116,884629953,92,649796,2690496725,98332,10.77,8.94,422699675,250041000,172028000,445294690,7
515780275,21603234,354560358,700720,354347363,695606,5739011,10200642,1311456592,2290510,515021529,48,432585,2268182800,97889,9.63,7.97,388787366,166758000,221679000,409486676,7
303953863,12705153,200502316,166316,200431321,162567,94663,1262176,395205036,27892,305979201,38,6329,1129329251,333,2.98,2.49,119441902,118056000,1000000,140896021,7
673871747,29317558,309661967,639578,311004882,637492,5586609,14385882,1289497853,2613564,681378894,208,454173,2380025879,98333,9.7,8.04,381529550,211406000,169325000,403009454,7
779755487,28979466,410266189,725831,410043305,729137,5803035,13912985,1531450749,2180649,778368179,65,649491,2994297383,98332,11.2,9.27,449736281,278129000,171079000,471152169,7
676643267,28731878,309754499,662803,310632290,662125,5571899,14333508,1331677359,2390187,680247109,13,633444,2187370232,98332,10.05,8.34,391450730,214877000,175899000,413330079,7
405102672,6496677,101545639,186866,101560081,190946,96057,1000056,457513354,27879,407496708,75,7713,1327099731,324,3.37,2.81,136984784,134579000,1993000,159044203,7
202419822,12634362,14895579,147589,14885137,139272,82052,1493733,307546062,17641,203749183,26,5369,676635151,338,2.39,2.02,94286710,92926000,999000,115718019,7
677341570,29502408,311432234,634089,311198812,633164,5750743,14359613,1333218824,2180467,679257180,118,451565,2193118735,98333,9.87,8.18,392302453,224797000,166850000,413321602,7
331049699,25678003,208389511,227232,207654662,227037,120993,13874308,559613424,35027,328941298,0,7557,1401197501,329,4.14,3.46,169754040,168401000,1002000,189958834,7
446995541,16940727,301983917,565651,302670372,569692,5473837,8550251,1192940302,2455761,446533863,31,404120,2295974393,97886,8.63,7.18,355297654,178939000,175940000,376865184,7
506141399,12790354,201359865,215802,201884700,206106,122538,1277869,543008851,29438,508487491,48,8638,1732571913,424,4.01,3.35,163831601,162468000,1002000,184516257,7
356267498,49779614,214918241,231733,213387602,232400,140345,26053050,598798890,44109,354273883,3,8343,1375515391,529,4.65,3.92,180679696,179405000,1002000,202315821,7
447646725,17322309,301509193,565495,300938044,558341,5512586,8588365,1117777458,2082187,447560092,21,351235,2103618058,97884,8.04,6.68,330182251,174892000,154904000,351637349,7
678168725,29107860,311039622,679474,311550823,670719,5712420,14430698,1337683900,2111063,680427169,532,487303,2391098420,98337,9.89,8.2,391459934,212888000,177907000,413834863,7
514952557,27916551,357523623,830804,358065071,831833,6504382,15406486,1727235455,3055185,526580773,114,416888,2617553851,97884,12.8,10.58,501140269,285880000,214910000,519862825,7
405711003,12789526,101347024,190560,101312236,189002,106141,1377120,466276757,28203,405263069,0,6134,1221807090,333,3.5,2.94,139694139,139473000,0,159490735,7
377389316,6469301,198702463,192579,199171463,210613,97099,1074449,472266459,26633,370969533,80,7086,1435664105,228,3.41,2.83,144169987,142000000,2000000,164394163,7
356273376,49700377,214175762,229766,213298621,223758,136443,26322409,601288609,49528,355227856,37,8812,1377463787,528,4.75,4.02,177858289,174597000,2993000,199186458,7
449990032,17030574,302834916,601530,302503426,605925,5475053,8725594,1326279731,2213567,448499787,95,422105,2602526771,97892,9.51,7.91,391672349,231235000,160162000,412184119,7
447457219,17436433,301790738,542156,301769968,546802,5324429,8429202,1103403666,2236174,446584728,73,427456,1996041315,97898,8.11,6.76,324604921,156119000,168128000,345731646,7
306826947,6456358,298564920,301405,296831674,298163,77414,834067,324790994,26151,306967509,0,4653,1075816649,232,2.39,2.0,96445952,95156000,1001000,117153783,7
344176454,16713454,300977796,569987,301412916,564648,5484472,8670146,1192629182,2363992,348177074,71,344420,2395715251,97902,8.57,7.11,356445485,207990000,147993000,377936305,7
674092379,29700504,309686707,652963,310511354,642868,5730810,14436860,1320801022,2320342,682541892,105,569774,2477523671,98332,9.77,8.1,387174446,216772000,169821000,408526486,7
657766851,21675384,310993705,650316,309261224,647773,5976138,10773137,1305880605,1973262,652523284,201,631909,2169164033,98238,9.64,7.99,379708603,210004000,169004000,401261932,7
445111325,7020180,227685769,5078961,226663898,5086711,1493062,5713591,863113001,267094,443849483,118,80254,1528342981,6386,6.05,5.0,261073686,242483000,17961000,307572534,8
316291311,6699302,179488434,4189162,179513067,4176697,1229220,5156506,702575831,256494,316193422,1,817248,1156690584,4427,4.88,4.04,210236456,201925000,7997000,230471829,8
397945387,7866431,201385012,4621249,201858110,4709431,1488851,6784955,887865152,388498,397658604,29551,164917,1431720432,5781,6.07,5.11,236521422,225224000,11010000,257309527,8
312120576,9480476,178517065,3520222,178180375,3515407,2005202,7097994,989910859,5284789,315296583,42,434384,1058795479,5642,6.88,5.69,295446840,230349000,64816000,316136924,8
244839302,7016831,141928036,2681763,139671612,2722300,1494421,5499965,544668207,295703,246203661,70,34337,868068734,6775,3.85,3.17,164025923,149656000,14061000,184622012,8
269134054,11238600,153309242,2731918,156083926,2737803,3373674,9262553,802351895,1509265,278453302,52,94018,857960431,8142,5.47,4.48,233880711,219642000,13914000,255272884,8
229938491,6448746,180871840,657130,180560714,648257,1118825,4956649,602148707,245356,224775418,58,37215,1160567440,3456,4.28,3.54,181240147,170751000,10044000,202321128,8
786252344,24035336,444818775,4175636,444242972,4160611,3206717,13685109,1690908111,3416883,789346813,2229,189987,2342031526,6770,11.81,9.82,492458356,430031000,62004000,513020031,8
295211230,18314432,180121795,3674489,180439252,3723930,3426977,12249265,783225359,913725,300011677,11676,167774,1070604695,7755,5.16,4.33,191979826,182637000,8982000,212876385,8
734465405,25556217,556439818,4651254,550798550,4622611,8517225,18550940,2254033233,3842695,725141693,1042,550033,3120745116,90615,15.79,13.06,666999102,502297000,164097000,688213929,8
338441394,19294129,196199242,4051277,195153870,4066280,2971969,12521582,1075799619,2972505,347014443,343,515976,1226696207,4812,7.66,6.35,317038400,262477000,54098000,338685063,8
253557972,6989305,140195587,2566535,139710899,2585616,1451723,5492141,554044361,272447,259122154,220,42875,874855684,6583,3.98,3.29,165175454,153791000,11056000,186768049,8
327134074,6942809,164461122,3265389,164086425,3239473,1386292,5394498,672790972,350224,326364728,72,37282,1121503118,6385,4.92,4.09,201395281,184975000,15997000,222005133,8
225952707,8285047,136597406,2546776,135419968,2512585,1545352,6217060,531421009,185701,230376088,300,19630,832982256,4622,3.85,3.19,157820013,151525000,5981000,178415275,8
158915517,6241530,86323005,2882494,85381188,2915163,1175335,4723806,408928093,318659,155829779,317,45032,592499947,4457,2.84,2.34,122410033,111998000,9999000,143407607,8
732722063,7583309,425422509,1740970,422945555,1726734,1471601,6884790,1555816635,2890510,729693835,2122,602852,2211178442,6380,11.06,9.19,458900785,393559000,64927000,480229806,8
242490736,6331994,130310870,604166,130470549,603625,1117771,4832788,566037577,214000,246408698,20,27701,976698813,3270,4.11,3.42,166513899,158211000,8010000,188347604,8
273515610,7453393,143872691,2975780,143494771,2956001,1355265,5762171,654442879,372022,279086281,450,33130,942393100,4625,4.57,3.79,191838184,184570000,7021000,213222642,8
229688736,6647038,132849204,2556495,130224197,2529061,1291573,5019020,532278888,238053,234204893,183,23413,813410826,4619,3.91,3.27,156892067,143361000,13032000,178983950,8
252356006,10175861,169385321,2981874,168656488,2983604,2186268,7729987,648495492,351162,258625137,190,27806,1043511858,5996,4.69,3.87,193774676,180360000,13026000,215964934,8
793273427,25124430,456592765,5091823,456075568,5090163,3062355,14485588,1820388160,3622875,791855591,743,669356,2485299821,6623,13.17,10.96,535188780,460818000,73970000,556642523,8
218943140,6983288,128124143,555940,127555594,555489,1305099,5072942,468104096,239325,220576271,19,23526,787677760,4626,3.36,2.78,139081671,126649000,11966000,160446499,8
730224689,6974961,434711709,4061156,436898781,4075017,1379513,6268776,1523477678,3072646,733877247,231,634445,2247478471,4420,10.99,9.16,448847572,369345000,79074000,470383038,8
336830828,10830121,206426203,3991264,207517260,3913210,2340060,8402094,1061730469,2486166,331178158,255,1020827,1163199326,16911,7.62,6.31,312260280,229923000,81972000,333462137,8
271451244,8584937,158502583,3884633,158266710,3918501,1779071,6634410,642841142,482313,272341796,813,156755,1025450002,6789,4.54,3.76,191936708,176714000,14891000,212778750,8
553102027,6833334,214119126,4472514,214123423,4459421,1284989,5466270,939580450,233259,555365268,113,198427,1562028683,4232,6.97,5.82,278725770,269409000,8980000,300938591,8
245187676,7930229,143540941,2566830,139249831,2562424,1654375,6141500,548766123,324552,232186189,3344,38917,857090708,7357,3.98,3.29,165300375,151960000,13082000,186510638,8
361848277,6724485,155076438,715484,154077472,696317,1277377,5268957,658555742,350250,362964750,224,28849,1037067157,4825,4.83,4.02,196185668,187731000,8031000,217885879,8
373657401,9978654,201564631,3404741,205895058,3423878,1618055,7249525,1047092245,2271523,375769127,309,831177,1264330537,4428,7.57,6.29,310595889,252225000,58051000,332009685,8
221172128,6487159,133415373,573869,130789331,562189,1238425,5242872,472493539,269956,209276342,143,31019,796583561,4230,3.39,2.81,138172732,128897000,8992000,159774101,8
350183759,11592286,203502772,3901359,207604697,3899672,1819038,6973820,777407953,1455034,355927709,276,44231,1331565334,6775,5.71,4.74,228030618,212617000,14973000,249000684,8
748968580,16622147,422837887,2128036,422930753,2141176,2368634,11319123,1562271586,3045128,748161592,580,562327,2245830377,3285,11.39,9.5,460007333,383822000,75767000,480011109,8
728458827,6932352,433842365,4078872,436777354,4084565,1324322,6224125,1509434972,2771033,733221465,452,571220,2243612790,4421,10.93,9.11,445503836,376079000,69014000,466404916,8
771376926,10034404,447896129,5335227,448394612,5337241,1889822,8350398,1668633124,2530359,776815463,445,985828,2486482267,6378,12.09,10.07,491723084,424328000,67051000,512140101,8
284857521,10175632,159657548,2840563,159295883,2845385,2848874,8152746,688465526,3588948,289012707,385,35484,1000918593,6670,4.93,4.07,203976545,191572000,12035000,225672406,8
721783066,7472191,428629836,2296728,430242600,2291610,1292416,6648700,1520826954,2794895,727911728,566,619010,2244274557,4618,10.92,9.07,449593041,392240000,57034000,469651168,8
228987982,20629672,128828148,607733,132964249,622490,2498349,11710981,581853036,397845,227210936,366,46676,756479543,4235,4.23,3.49,174670313,161257000,13020000,196298080,8
254679546,7063710,143802304,2504202,139811785,2490851,1533205,5500732,559847478,305849,254882287,2839,52400,848377536,7953,4.07,3.37,167212019,152807000,14074000,187500736,8
243469893,6583915,135878210,2665937,136197921,2646020,1255987,4844641,526944765,178892,250625634,3,38129,855195813,4621,3.83,3.19,155444246,144989000,9999000,176472017,8
281109014,9215495,153899319,2953669,155587525,2977556,1839411,6798224,600667089,244032,288780734,82,30366,972536509,6778,4.4,3.66,175742801,160509000,14861000,196931555,8
273275307,10339064,160509165,2725530,156907448,2696222,2901421,8289736,688489402,3607603,261863248,63,55376,896805910,9899,4.93,4.06,205520858,180171000,25023000,226202070,8
292283839,6819304,167293613,2956760,167128123,2957522,1457317,5469725,743355830,317529,292190836,144,37744,1070100951,6774,5.28,4.37,221777315,205485000,16037000,242508064,8
291807920,34113907,179217421,3106415,179557000,3125474,6742550,18850336,1220917184,4387101,299578731,297,93848,980040894,7748,8.46,6.89,361277358,345050000,16002000,381914144,8
277784173,8655814,148605487,664508,146790594,653671,1775138,6760197,541456304,335367,269376113,201,48594,1000562627,7948,3.98,3.3,161835603,142502000,19067000,183114861,8
271539435,18767687,174553753,2988010,174100041,2981231,2814697,11773280,737988544,718553,270516357,203,49891,1065109865,6567,5.46,4.54,216759612,202496000,13896000,238339481,8
257300010,8812575,151745387,3120084,150700134,3063360,1658303,6572791,576205736,298482,259200958,83,40002,894337013,4619,4.19,3.46,173926162,162602000,11040000,195574188,8
308330565,9259828,194734151,8650502,193986199,8761961,2507331,7530376,780457287,244925,310967217,148,35827,1068028827,6666,5.59,4.63,233779316,222466000,11023000,254797413,8
234246590,8739147,151764409,3395480,153506928,3420092,1535053,6531985,557569985,287241,228674894,44,32667,855959987,5017,4.09,3.4,163972204,155600000,7979000,184690564,8
356110799,6716132,178048749,3255972,178287268,3213319,1156384,5185753,692148144,328099,348165711,85,627070,1100048547,4623,5.02,4.19,203353573,190071000,13004000,223721177,8
341764067,11311837,224437261,3172649,228090331,3140119,4566373,9591473,968357496,1337571,338901164,82,260019,1308667686,63025,6.97,5.78,288741027,188278000,100147000,309744840,8
808949556,12451236,458262580,3947997,462657401,3929819,3482814,10894268,1913606753,4108971,810789124,32975,641257,2365238319,9895,13.55,11.23,564438626,483064000,81010000,585405608,8
252863406,8144109,191401254,3395953,192661871,3374512,1491490,6241214,670465337,281878,252747678,59,68681,1103597436,4423,4.8,3.97,200793862,192370000,8015000,222809051,8
290315074,6234559,195196237,5807193,194731943,5778934,1471062,5112924,664406884,933952,295087678,227,49102,1015990808,4621,4.76,3.94,199347707,184007000,15000000,219389733,8
422826391,11081913,194854255,1078800,192563716,1075610,1744928,7192002,813997844,270104,412518134,102,36414,1482373206,5801,6.0,5.0,242387049,230023000,11949000,263859011,8
300601270,6513048,151041042,3106917,150895682,3070880,1287607,5061171,607618142,275874,305056666,43,40589,935299742,4621,4.38,3.63,182705795,170482000,11894000,203759485,8
272495471,17905799,154448136,2994167,153510108,2949140,3125921,11805442,661532054,663260,278705565,173,36254,939390180,4625,4.78,3.95,195997351,183728000,11982000,216941037,8
756832560,35367806,431731209,4245927,433067208,4269069,5138350,18756251,1833898762,7733399,764186478,37,559321,2255499373,6785,13.35,11.12,537384250,472981000,63997000,558997188,8
231888255,6410518,139958835,2876733,138539712,2827109,1304140,4863630,512380373,221676,236606184,65,43081,839375685,4621,3.66,3.03,153882332,141623000,11884000,175474211,8
328913899,8768129,166532264,597819,166755674,597651,1426583,6364664,603743605,326235,331230203,1623,103905,1161852663,6385,4.5,3.76,178111556,166822000,10988000,199267935,8
231732344,19481787,125557095,582702,127362742,590211,2582496,11702084,578433826,424370,239617666,147,35266,768032935,4883,4.21,3.49,168972022,158553000,10035000,190054799,8
232095933,13890724,139710107,2951998,138827293,2911259,2353158,9168107,589275360,553596,237338845,150,39792,811346261,4625,4.32,3.57,176275967,166947000,8943000,196905149,8
493777461,8607921,211458093,4527888,213027965,4508203,1617232,6760702,910170029,410534,498825638,203228,1172452,1529685170,6662,6.62,5.54,266497499,258110000,7972000,288396503,8
342155660,9106912,187904465,3863520,188603748,3854717,1721622,6739144,700530965,397971,346862212,21,49657,1257774459,6385,5.12,4.26,208499405,192125000,16010000,229379579,8
251027743,8725784,140921313,4482028,140984290,4421546,1639369,6501908,571308425,219994,258484625,102,46673,872034075,4625,4.12,3.42,168613278,159212000,9012000,189869670,8
247404916,6460921,144350991,2954161,142367593,2896653,1336179,5038546,517135591,245468,246539736,1,32171,896769397,4622,3.73,3.08,157614007,150229000,7010000,176784060,8
242649638,6908077,137470268,2903882,137711599,2861676,1457215,5140605,546358448,579221,248903803,87,39316,850987430,4622,3.98,3.31,159840090,147450000,12036000,180813243,8
1021458182,39391838,447662141,2372341,447970874,2379875,1094242,7990938,2169637233,470476,1028773392,304,46468,4562303714,1705,15.92,13.28,638724090,633425000,5003000,659523894,8
314299723,8965819,167955027,3076931,168141287,3070872,1754373,6770182,702393342,335819,316112078,865,37415,1185664689,5645,5.31,4.43,210216654,198871000,10992000,230989893,8
954357412,17586993,519177589,7177198,520883240,7181343,2298957,11758176,2025432699,5033198,957481870,596,639274,3088421328,5011,14.72,12.3,597472214,531910000,64989000,617926159,8
288048731,8659015,156950333,3882027,156986217,3883532,1643956,6678575,628193022,377345,287181492,1087,158732,1016333542,6657,4.55,3.77,189083157,178650000,9980000,209679836,8
285902535,22227922,158554442,1087158,158054071,1087443,2784402,12058975,963412147,2789737,289801886,3364,404957,931025912,4626,6.88,5.69,285311959,243855000,41144000,306630547,8
346956154,6455727,170634048,3196579,169944004,3174183,1291554,5126879,662192114,277710,345551507,0,579622,1087165688,4620,4.85,4.04,198261040,189970000,7998000,219670100,8
370559904,9443026,221686375,3849358,221256813,3852370,2245309,7601218,1017311756,2567016,371317169,285,56329,1312454763,5375,7.17,5.93,302520019,294197000,8005000,323260552,8
236789847,6966287,147252179,2979796,150242406,2922374,1371703,5212672,520874537,250291,230502044,57,40508,853393591,4425,3.82,3.17,157533264,147311000,10021000,178329268,8
270260683,8560530,154593838,3010332,153150936,2957744,1663243,6346618,569614865,256270,276252558,29,32363,967166096,4426,4.15,3.44,170107658,158868000,10990000,190284405,8
750465337,19306432,418127696,2126062,419276195,2122182,2705229,12940812,1573513955,3377245,759433533,71,998032,2228330074,3291,11.5,9.61,462073961,401735000,59960000,483608337,8
233548484,19180576,134232858,2614940,133659339,2572254,2829483,12376849,553631379,500569,239688369,29,44094,774752819,4748,4.09,3.38,166596682,158314000,8015000,187592835,8
699789212,10599085,425561844,4320654,428988131,4330563,1762361,7749635,1496645741,2836548,703203103,459,825458,2185054874,4615,10.83,9.03,443205422,381827000,60972000,464080373,8
793638453,18871454,476951379,7014848,479057049,6962279,2576786,12144361,1772261435,5495973,798110681,199,783921,2475796903,5033,12.83,10.7,524261843,463792000,60102000,545054796,8
240974571,8469683,138730148,588384,140688097,587175,1419274,6127503,464689516,233988,234000784,3,28376,777837673,4235,3.41,2.82,140326545,129005000,11000000,160762022,8
474643427,30797102,227381641,2873538,231950660,2890817,5568700,18321520,1143114717,3327610,481708862,186,61499,1466834943,8734,8.26,6.82,340732670,324365000,16018000,361764689,8
363332246,17141872,217497353,1329166,212916946,1299273,3972644,12768836,1279032653,5462918,361571270,2784,533226,1245501953,9351,9.01,7.43,378300684,304971000,72993000,400053352,8
327188115,9054528,167353339,3538731,170838379,3476988,1828709,6831399,672644900,292938,334667311,164,43699,1126773525,6584,4.97,4.16,195480492,183144000,12009000,216584449,8
712381911,7019087,430683190,4451680,432919090,4444513,1362387,6146926,1470843685,2703061,715433059,502,484808,2218492785,4615,10.63,8.87,434670218,382337000,52045000,455099783,8
246802483,7034049,142482019,2843642,141170711,2841638,1543485,5572252,555113566,284907,247476127,35,38433,875470280,6777,4.07,3.38,165866474,150589000,15058000,186627899,8
399175061,6633877,179536594,4283988,179596123,4271388,1248491,5261823,793564884,253518,401311379,63,79534,1258495637,4234,5.83,4.86,237213069,222977000,13998000,257742137,8
285669619,8722242,156778668,3698279,156831270,3720861,1497645,6686294,648217140,246926,283168093,55,31045,1094910943,4230,4.72,3.92,193105684,182739000,9985000,213056212,8
440373499,11668274,186515803,3107841,186897530,3086952,2826353,8732060,940342694,472808,436613622,3094,91840,1378654206,11072,6.95,5.78,280079711,256585000,23052000,300900332,8
249338237,6888946,142145972,2859902,139955599,2797084,1510272,5271689,512201430,238483,250445798,1,33884,834327992,5139,3.71,3.08,154354612,142093000,12007000,175439664,8
755215190,8269498,445929022,4466732,445556015,4479860,1748510,7636819,1555166037,2927704,749751766,1244,776381,2353728484,4036,11.45,9.54,457761522,384382000,73072000,479012159,8
760781820,7871457,453074302,4175674,452561573,4183295,1759018,7305941,1592212573,2809241,762824742,1544,531685,2367700255,6831,11.66,9.74,461481931,397187000,64030000,482336464,8
477528365,14918124,254329143,8346568,256117036,8323863,3005214,11797370,1295415103,4142444,481713523,328,41325,1672587407,4042,9.37,7.75,379180280,365884000,12995000,400198270,8
791731341,7865380,447365671,5375992,447368448,5359740,1641509,6946956,1761337646,3155070,792650076,3953,1038265,2479005179,4615,12.84,10.7,516508928,449171000,67025000,538047201,8
796427386,21343525,456868560,6807578,457273416,6801980,3197199,14416049,1768130526,3118304,798929255,278,564135,2447095121,4618,13.13,10.96,519483099,448053000,71008000,542329628,8
734489261,7221420,437090931,4055295,435333803,4021735,1525993,6691567,1560655792,2933144,734402001,611863,376702,2273352975,6771,11.5,9.58,462393098,399019000,63003000,483616724,8
845190546,13547330,493555253,5737736,493571848,5760589,4075378,11748801,1925283995,4065739,850503803,180,1096407,2505283974,7940,14.06,11.65,570480294,501244000,68896000,591745018,8
404155532,6815190,180661578,805936,177962979,801311,1355326,5337596,795276164,458866,407674300,34,20567,1348483834,3653,5.74,4.77,236543983,229155000,7004000,257750261,8
725375413,7077932,434955382,4498233,434198876,4478135,1381344,6339960,1504086713,2678142,723138723,647,1023450,2216230385,4614,11.06,9.24,439900686,376706000,62784000,460965316,8
248799788,6834302,142758537,565130,142285552,564091,1171353,5043022,521213180,248426,251885765,0,30757,985311722,4428,3.81,3.16,156398184,143944000,11995000,177583046,8
245564905,6943178,140201737,2736485,140544459,2752143,1459612,5258972,538137914,267211,253425125,112,42495,858662068,6583,3.94,3.26,162602882,150282000,12022000,183448427,8
142553509,203255,76703938,118465,76665156,124699,93052,485063,179775221,24241,137214216,16,5574,367366870,418,1.25,1.01,59615292,57149000,2005000,108000202,9
138121037,234934,76135573,113251,75795854,113824,73093,422072,178253250,17976,141969329,0,4803,363262330,374,1.24,1.02,54941041,52738000,1990000,75787552,9
67867893,231495,34631170,106428,33404044,92067,63390,265626,76070239,27189,68186066,31,8251,183521495,611,0.58,0.48,22911948,20490000,2049000,43492734,9
138143665,227484,75956667,114052,75819325,113808,71260,415674,179601068,18237,142324518,0,4790,368875861,378,1.25,1.03,56316126,53949000,1961000,76904877,9
142491631,195081,77747930,113201,77080246,115288,72148,419225,177952427,24714,142112110,0,5115,370254344,377,1.28,1.05,56330930,54864000,997000,77339522,9
140344405,224390,76836170,111546,76843512,111241,70060,382879,181338769,19919,144492868,20,7098,369550320,1352,1.31,1.09,53350424,50953000,1998000,74314647,9
47146946,118219,22510121,69347,22656789,71761,72235,288036,52658482,37151,43990514,35,1544,129090764,621,0.36,0.29,17525112,14118000,3025000,38685088,9
12099755,91239,1876396,62331,4134576,47274,41217,162426,15961833,19529,11397302,70,4714,40814901,407,0.12,0.1,5721848,3258000,2172000,27095511,9
59173369,608776,30989034,89900,28568809,84572,179679,462627,70762616,84493,53037509,54,16213,158086164,2141,0.49,0.39,24141134,19828000,3965000,44874423,9
151069396,499610,79152146,144901,79855925,142214,148039,607811,205274723,72776,152464447,45,15698,396553095,1647,1.47,1.21,63575620,58165000,5014000,84693287,9
139739286,206461,75406055,109635,75460888,104851,65979,366637,177661104,20381,142739530,40,5842,365605313,373,1.29,1.08,52234481,49871000,1994000,73080369,9
44925915,152454,22717333,70272,23578609,73028,49157,247657,53208044,30391,46226426,4,2494,126322516,625,0.36,0.29,17526574,15074000,2009000,38435887,9
142207207,256477,78489605,117150,77487270,119125,97502,462871,190060051,21144,141403312,0,5659,370274034,620,1.34,1.1,58972076,57660000,1011000,79268573,9
49257212,125182,24592908,66198,24183044,69095,38415,220953,53454436,11028,43940069,58,1370,134636439,178,0.36,0.29,18134369,16921000,995000,39179236,9
2584584,175687,3747165,52540,5945438,47015,40275,156232,15788761,15960,6178482,126,10328,4021541,400,0.09,0.08,4626542,2138000,2138000,25043460,9
54135349,1250629,34923837,109028,34779149,108332,518581,1122796,136106986,164608,54206276,0,40503,166833099,6481,0.97,0.78,43708864,33342000,10103000,64622773,9
63800330,283870,34221200,103611,33858375,91456,84666,298237,80567612,34760,68519268,44,9172,188021476,859,0.56,0.47,23148699,20845000,1985000,44666060,9
140229693,163860,74168664,112352,73669288,102666,73781,371477,175826272,24988,139525454,56,4806,358943858,382,1.26,1.05,51730092,49456000,2018000,71889271,9
769394,85173,1908742,58156,4708814,45961,40016,157958,16285709,20757,12220864,81,5228,36591380,408,0.13,0.11,4879179,919000,3678000,26178154,9
66177120,541213,35861965,105670,39302677,100433,57376,280433,83759427,50183,69467765,46,16141,184255636,1375,0.61,0.51,24677411,19292000,5076000,44422600,9
142855475,214166,75783725,116687,75333245,114938,78809,418690,177048055,23162,144562507,132,4447,370871728,377,1.25,1.03,55185678,52863000,1957000,76334114,9
148161049,173041,77122277,120546,75701504,119717,82293,434974,179315366,32362,143716029,0,4135,373767510,381,1.28,1.05,57319737,55054000,2001000,77498941,9
48011188,175910,24860122,71966,24692745,69552,55048,257027,58015921,73431,42003794,50,4278,128535990,2339,0.39,0.31,19919752,15423000,4112000,40547659,9
167490960,1539653,110484645,159414,104418072,155206,583921,1901050,252355010,192982,156583353,155,30661,540718220,6234,1.86,1.55,73547249,57189000,16053000,94175290,9
44514369,443118,23227455,79305,24424443,71064,179440,471260,63539756,52152,45456390,44,9118,122719369,2087,0.43,0.34,21389284,16061000,5019000,41419520,9
49640099,451382,27935089,80325,26280516,74433,271875,631433,76977520,101148,41987256,71,16319,142596062,3120,0.53,0.43,22169047,15841000,5940000,43579053,9
45025545,132647,22074281,67229,22864540,70796,48815,243433,49146693,22287,40803459,25,2505,119339433,381,0.34,0.26,17697729,14382000,3081000,39089284,9
5821534,117736,2240084,68393,4230911,51328,45166,170625,15594012,21688,6854104,59,5234,28290249,453,0.1,0.08,5863553,4454000,1113000,26965498,9
143029149,209705,76517092,118197,76015760,117516,76571,428486,177372509,22316,142070206,0,4853,367229261,371,1.27,1.04,56646317,54270000,2010000,76862154,9
145440140,313484,79044050,119930,76910301,121007,186636,552421,190048864,53125,143557585,115,6242,378349925,1373,1.36,1.13,54992994,52602000,2023000,75764226,9
811054,179845,3828584,63626,6301883,47244,44202,163811,18919996,16944,11163837,39,3189,39690254,452,0.14,0.12,5403393,2609000,2609000,26138965,9
53685707,184176,23850655,70163,23849371,74089,140082,432863,59737425,52644,46999677,32,2634,138934019,1354,0.41,0.34,18872437,11110000,7406000,41110098,9
47165911,158947,22347899,70159,22970029,75024,60516,274675,51863249,22292,44257119,12,1728,126313198,432,0.37,0.29,18078852,15806000,1975000,38229993,9
2420208,153051,2517992,61474,7101983,42946,23823,133744,15353234,15116,7417633,12,3250,25355511,382,0.11,0.09,5618826,5306000,0,27036405,9
137497282,269665,77000455,113422,76951293,113015,72881,392359,186110645,30610,144001976,1,8398,361565395,2350,1.32,1.1,54378571,51045000,3002000,76029870,9
145751019,223418,76013994,119049,75789014,119271,79763,425497,178959816,22446,144994537,23,4344,370187455,382,1.27,1.04,56795766,54477000,1981000,79080434,9
70251888,223055,37157989,108245,36116831,106855,81174,330877,77121841,30961,68089502,156,6840,189272735,610,0.54,0.44,25903577,23495000,1957000,46473854,9
143539608,390964,77918364,119375,77168787,115605,165203,540379,182949899,30038,147204488,40,5315,378753371,1358,1.34,1.1,57599201,54199000,3011000,78928540,9
2937625,98240,1885558,58189,3957916,45439,40034,159893,15337248,20465,8803670,54,5393,33782488,404,0.11,0.08,5363563,3004000,2003000,27038171,9
148258536,191968,78293809,114138,77665307,115538,88422,466478,182976926,36491,144920301,164,6478,374328684,624,1.3,1.07,58160592,56833000,997000,79282669,9
142333374,244866,76412399,117437,76130945,116715,91867,447998,177321689,29066,141918858,48,5773,368278276,622,1.27,1.04,56680526,54245000,2009000,78194283,9
68931388,248809,36145198,109182,35043200,103810,74595,292773,79860645,29366,69991406,42,7399,193721123,654,0.61,0.51,24079579,21791000,1981000,44628394,9
65626273,561991,35553525,105973,39193106,100983,73140,293926,86371533,49822,70017418,53,17450,188226169,1598,0.62,0.52,25176822,22789000,2071000,45903378,9
141047117,210830,76906407,114483,75840005,116146,96239,459731,177424368,30553,141505489,0,4647,370843870,619,1.28,1.06,55327936,51010000,4000000,76210886,9
151152134,490007,109731060,123221,109286863,120041,220504,716306,207815968,98709,142664080,54,22388,510771296,2331,1.49,1.23,64518807,57160000,7019000,85845727,9
69806343,550263,35871971,101793,37378526,100881,82514,294986,83979194,45582,68639822,17,16537,189338849,1599,0.65,0.54,25406882,22257000,2903000,46530975,9
141760768,221997,76282342,111406,76104438,110320,71540,411226,181246519,20002,142171887,0,5174,366835291,374,1.3,1.07,57012172,53684000,3038000,77972686,9
70707787,163085,36780955,105728,36456008,105570,51266,292222,81023046,13127,73096165,0,2657,205373603,176,0.55,0.44,27534048,25335000,1948000,48474082,9
4599490,115290,2128868,62704,4449244,49085,43364,167448,16008799,19817,8839180,100,4755,28533084,453,0.11,0.09,5720177,4259000,1064000,26800969,9
43293657,487659,22925374,79854,24163577,73569,174563,469763,65430294,47428,45719442,43,11893,124635900,2090,0.47,0.37,22020739,13806000,7889000,43462722,9
138437205,248750,76533886,116954,76390246,119926,79762,433562,179454371,19426,142046731,0,5355,368063601,417,1.26,1.04,56035150,54710000,994000,76567170,9
47592088,336324,27715578,89845,25567823,75796,182345,447527,67748319,69397,42551944,38,18249,131569465,2349,0.47,0.37,22818865,18564000,3908000,44156166,9
49112252,998293,28177390,97938,28015608,96923,299170,623243,79443698,114101,50481661,1,20592,138272756,4065,0.59,0.46,28017267,18402000,9201000,48739059,9
47791431,162067,23545212,69178,24491558,69886,48915,238615,55537071,51246,44443420,40,5196,125078422,1363,0.39,0.31,18961954,17607000,1035000,39552006,9
49396174,95954,25070378,68856,22724585,74747,116923,347542,55040909,47607,40218109,68,5065,123442058,1123,0.37,0.29,19006937,15503000,3100000,40489269,9
46265180,154300,22560049,72259,22657722,71664,56524,254080,52063771,20662,48738919,6,1470,124792542,387,0.36,0.29,17537303,16260000,1016000,37578384,9
73894214,427547,41076590,99496,40137036,103737,167679,443462,97311022,96334,72300961,19,20748,212874430,4045,0.7,0.57,31446724,23071000,8024000,52044379,9
2623155,192408,4598694,56973,6816457,45921,40710,159698,20098726,48557,12066673,79,5824,30297401,1391,0.14,0.12,5581967,1075000,4302000,26378576,9
7275863,242476,13105172,63854,11227871,50233,89956,245008,27658890,41662,12031715,28,12573,47674615,1284,0.2,0.14,9592088,7164000,2047000,32869926,9
139868810,231132,76022714,120501,75837452,120085,76311,429057,178195741,19057,141950141,0,5250,365664933,373,1.24,1.02,55685220,51336000,3948000,75902159,9
142099048,248947,76771830,115154,76248179,114217,88856,457262,176824181,29173,141198254,24,7517,368633962,620,1.29,1.06,56434032,54117000,2004000,77424343,9
2313200,187920,3757228,57031,5621022,44149,38172,151977,16851732,17724,9269774,19,2667,30240542,379,0.12,0.09,6058456,3821000,1910000,26495057,9
2779024,168243,4023581,50775,5704850,47228,39916,159455,16922917,15136,10846809,226,14669,4246796,400,0.12,0.1,4808457,2266000,2266000,25801323,9
46017571,172553,23905156,65582,24369643,70537,49190,246939,54322523,50202,43555633,43,4216,124690221,1356,0.37,0.3,18470773,17170000,1010000,38987439,9
2452403,159046,3103539,57090,5124146,46546,43201,165298,16182777,18673,10842957,63,3488,29724919,452,0.1,0.07,5573836,3535000,1767000,26257607,9
68886063,248851,35312525,97442,34968862,97167,70194,296729,76166934,23179,68067709,19,6155,183898122,610,0.54,0.43,25808858,23481000,2041000,47087935,9
67092129,247401,35412533,89885,35093092,89292,68682,307228,78746976,19157,71549681,0,11780,185335456,881,0.54,0.43,26697796,21507000,4887000,49911276,9
43687737,148723,21917086,66920,22822259,71138,50249,243754,51228905,17102,43087992,16,2382,119961325,378,0.36,0.28,17445505,14149000,3032000,38421853,9
48593036,125652,24436289,65800,25031769,70306,40427,227191,54205058,11957,44492649,52,2749,130827745,181,0.37,0.29,18786894,15769000,2782000,39647507,9
51697005,573284,29194257,93693,26933383,79403,185145,500383,69595986,93342,45871209,70,16872,134119017,2350,0.49,0.39,23418591,17968000,4991000,44556764,9
13705663,797340,12759795,88141,15349501,82752,459252,805302,61731004,124756,18297793,87,39651,68361042,6277,0.41,0.32,21001041,6208000,14486000,42293454,9
62751127,261031,37764136,104682,37640235,105678,73087,331538,82163846,22193,72062703,0,8637,184384989,1587,0.56,0.46,27322231,24065000,2887000,47830949,9
1096128,146895,2803253,58287,5064816,46473,40969,162185,15866718,16680,6912463,117,3296,28015272,403,0.1,0.08,5322917,4085000,1021000,25937709,9
153446409,308588,80708527,122503,77728223,123668,187012,596987,187870335,61805,144334886,3,6089,386486230,1369,1.38,1.15,56123431,51818000,3986000,77545191,9
65815545,232997,35983364,91246,35721655,89204,56950,277753,75217472,15926,69041633,13,8641,182231921,633,0.52,0.42,25893752,22561000,3076000,46769897,9
139335826,267295,76360556,117359,75978695,116581,94645,452461,179148430,19102,142992449,3,4988,369040140,618,1.3,1.06,57032277,52731000,3979000,77572597,9
2453823,119928,2184916,59920,4639048,45242,38620,153850,15066749,26093,8249928,497,4315,25224626,623,0.11,0.09,5423176,3074000,2049000,26439240,9
2021050,155739,3058000,56261,5335170,49435,43352,164565,16518813,17576,11094511,2721,4010,31961811,450,0.12,0.1,5317068,2518000,2518000,25619616,9
139636625,228734,77490842,113820,77109999,113808,72244,419065,178420502,20677,143243496,0,4840,370711204,622,1.28,1.05,55605736,52352000,2963000,76222131,9
50314964,163857,23640369,69614,23617872,72378,59496,260219,54733512,21056,48245566,58,2116,132884949,431,0.39,0.31,18530857,16175000,2021000,39140428,9
48740053,205677,25620783,79855,23569068,75185,138703,374462,61275772,52312,43037274,40,5414,137087691,1368,0.44,0.35,20507645,17224000,2870000,40959254,9
48598838,146487,22915116,65900,22510803,70649,56618,256714,51646846,20886,47797859,41,1533,125884289,390,0.35,0.28,17921676,15627000,1953000,38211669,9
44662587,176763,23566056,70306,24034111,75382,53386,252819,53225635,23551,42802792,12,2969,121828834,623,0.37,0.29,17692095,13750000,3666000,38485237,9
141178867,211968,76297131,110765,76189605,114302,72791,417105,177075368,20675,141173245,0,4678,364271965,374,1.3,1.07,55941389,53515000,2019000,76491468,9
147147318,227487,76370789,144100,75934134,144003,96176,529170,185231622,29158,145862158,31,4096,377756717,444,1.34,1.11,57920691,54882000,2843000,78490667,9
61453927,254670,33640230,97585,34321314,89559,52546,244942,75503952,18369,64421745,43,4976,179085852,389,0.54,0.45,22171600,20892000,994000,42606423,9
54196546,164883,26010263,74005,23121503,68666,133964,380113,60517527,50057,48064429,68,5713,141349642,1373,0.41,0.33,20774781,15585000,4870000,42301858,9
116151552,254457,73267773,112685,73145532,111991,72265,418115,197831169,17205,118109821,0,4661,417616990,378,1.45,1.21,58036810,53781000,3983000,78510330,9
141942042,361921,77113053,115808,76749626,116247,132214,503896,183723738,41871,143010074,0,9123,372793565,1361,1.33,1.09,57898886,53564000,4042000,79172699,9
15631253,129903,2742166,70838,5763761,49960,43774,168794,19776307,18758,15480994,108,2625,48993880,444,0.14,0.12,6040410,3835000,1917000,26630267,9
149049048,1276480,83865347,139774,83334963,139066,550673,1380292,234166549,136362,158913628,3,40201,425603524,6293,1.69,1.39,72878410,57683000,14918000,94405410,9
2427209,154818,3941154,47979,6525707,43539,24541,128585,14172290,9439,12607530,57,14630,5113690,149,0.11,0.09,4574953,3216000,1072000,23881257,9
140253541,210476,75778036,114119,75593166,116312,72073,414448,178227526,21631,142408690,0,5657,367595429,372,1.28,1.05,55181335,54862000,0,76655591,9
43149616,230616,22324123,72446,22821030,66875,98192,302181,56539118,30781,45136356,40,6577,126308384,1117,0.41,0.32,19878652,13303000,6139000,40962688,9
50598876,171320,25523479,75800,23153395,70285,132156,377106,59641903,57276,43526631,49,7417,128568891,1373,0.4,0.32,20839945,17396000,3070000,42008307,9
14871098,739888,11684932,77665,11292429,74877,206021,404672,38152309,85643,9837333,5,21758,45362360,2363,0.29,0.23,13280805,5601000,7468000,33729223,9
8978887,117735,2312866,71145,4710240,50841,43055,166439,16484590,25093,9480383,59,4212,30656491,655,0.11,0.09,5921697,4501000,1125000,26152953,9
48324470,115521,24237836,66674,24815756,71693,39093,230411,55017986,13228,44843613,35,2609,132645791,179,0.38,0.3,18649326,17317000,962000,39720458,9
142750831,203088,76377357,115201,75987504,115614,72566,422236,175745339,23841,141036227,0,4820,365350414,374,1.27,1.05,56195589,51800000,3984000,76839783,9
2288910,189723,3503348,60287,5211332,52340,45697,174563,16548631,20133,10375609,99,3444,27835646,453,0.11,0.09,5772695,2171000,3257000,26327051,9
97966899,1514260,63777003,599033,61304894,597340,412998,1531249,192099835,212204,95441176,16,11748,338712038,2024,1.35,1.12,57306510,48720000,7954000,106050648,10
100706898,2823816,88421805,364381,85819218,376379,981260,2418581,293401387,863750,98478729,81,21890,430691657,3246,2.02,1.64,90190755,80867000,8985000,110362260,10
125382715,2811110,91863909,383322,90214800,375260,1198763,2788451,321301996,876395,122082727,179,28639,429461406,3520,2.18,1.77,98871433,92537000,6035000,120333159,10
104121165,3374363,75889895,376297,75671371,370726,1227908,2756955,302701366,876701,100661072,56,25383,374045345,4304,2.05,1.66,91698551,82406000,8935000,111708385,10
108313664,2369816,74979350,277829,70131126,361396,697556,1995180,241448371,399116,108507836,33,17501,390878185,3715,1.69,1.4,70832419,60478000,10079000,91277885,10
105767257,3262006,75176630,381495,74882133,380281,1233822,2693186,309189400,977126,104460427,72,27331,375969994,4302,2.11,1.72,94611075,82263000,12038000,115803255,10
104621827,2998397,75378605,367293,74140573,361353,1130939,2797405,294924794,922548,100932744,113,31256,369820734,3544,2.04,1.66,90288787,80898000,8988000,112254981,10
135905179,4610826,99178413,473148,98415071,413344,1403214,3435877,368294444,1014762,119174508,48,52386,487196961,7294,2.56,2.08,113110559,96764000,15961000,134623476,10
119476092,2889069,86999537,375798,85991109,363689,1223107,2836990,322361355,878422,118853174,0,29063,419744050,3592,2.18,1.78,98610729,88162000,10018000,119303128,10
105504343,3303529,74511202,433320,75011604,431927,1327954,2838665,328619238,964926,105397843,39,30722,375290937,4564,2.2,1.79,99573685,84337000,14883000,120635842,10
261226764,1610869,161032893,1087472,160217296,1077175,354420,1521069,416776504,216257,263979670,291,17302,793666160,2080,3.0,2.49,125095648,120734000,4024000,146127226,10
306565439,2804694,194776359,855091,191947696,836158,1256717,3080450,578989287,951544,297867302,331,22872,943019883,3517,4.04,3.33,174354615,161869000,11990000,195621567,10
296360389,3677342,192240326,975642,191548638,981489,1291877,3200585,584433833,898672,293265511,1569,40946,910884385,5792,4.06,3.34,175950674,160624000,15058000,196622363,10
267413636,1544055,162313632,1051481,159702140,1052613,490403,1885027,425743051,253322,266301231,176,16366,803461229,2213,3.0,2.49,128953365,125655000,3015000,149756599,10
113707801,1114067,80634408,750898,78190189,727599,361049,1468765,212573805,301512,111535034,250,12884,387955422,1986,1.5,1.25,62453886,57103000,5009000,83334635,10
235091442,7145291,171469140,1287623,170411798,1225730,3015486,6701835,704200771,1586005,236955711,157513,173174,856626747,9765,4.83,3.96,205575831,189130000,16011000,227540843,10
93865235,1689489,62157350,292314,58360224,333493,462110,1568176,179337494,330297,90778749,51,10271,322375373,2022,1.28,1.06,52976768,47610000,4959000,74188057,10
93635870,1665281,64071031,577884,61460744,583045,498966,1675837,200344256,277829,95309164,123,10196,340135491,2071,1.4,1.16,58718054,53512000,4954000,79581002,10
277560575,3736741,173178811,833210,173305378,838205,1386536,3582564,556595748,984707,274773959,151,39429,851322413,5984,3.91,3.22,167167862,154652000,12050000,187678885,10
276991290,2868727,175247425,830636,172478173,814737,1123216,3098402,514108664,999020,267088545,57,21899,846071956,3278,3.68,3.06,150564544,143233000,7011000,171506047,10
274686981,2995949,170970255,819112,168721107,816328,1310401,3012936,524576237,913340,274808460,64,20159,847712279,3519,3.67,3.04,154431566,145067000,9004000,175288351,10
123529809,3091231,90383967,393178,87484324,374698,1137310,2909099,309310404,924842,118408975,318,21989,431465500,4374,2.12,1.73,94450654,88118000,6008000,115946269,10
107160978,3559606,75011873,388690,75338850,392034,1326444,3132088,318264210,940118,106675352,133,35375,380974067,5795,2.15,1.74,97259160,83890000,12983000,118034935,10
109175791,1767107,76124610,327473,74281818,342885,430568,1438977,217261607,347197,106780907,205,12732,374037388,2023,1.49,1.22,66690757,61388000,4950000,87985990,10
104970446,1154522,68033771,750562,68373562,620444,336649,1496952,203090337,291370,106018849,76,13191,358636129,1891,1.43,1.17,63075515,56775000,5873000,84381035,10
124893014,3924616,91032573,773310,89492267,775713,1552609,3256668,376424755,1168593,126401430,201,40584,462228606,5749,2.59,2.11,113927784,105546000,8041000,134931760,10
94725070,1514723,63160739,704036,62002680,691991,352609,1413320,187786652,205938,96010627,11310,17406,336251707,1988,1.32,1.09,56990469,51758000,4976000,77136132,10
103896465,2854296,74321319,368235,72870751,363366,1149018,2638951,291506872,968959,100321931,204,26854,365852650,3521,1.98,1.6,89731464,77374000,12058000,110799651,10
105093619,2682024,74591269,377027,71741167,368747,1116674,2565308,272540030,872973,99824377,141,19542,367032552,3260,1.9,1.54,84802099,79513000,4908000,105827319,10
110005384,2404201,76125798,690563,74703731,673443,952758,2374170,294925219,767365,107337929,178,22690,394209996,3518,2.03,1.66,90337158,78886000,10984000,111323265,10
97803526,1502801,62837878,596908,60249191,592867,405559,1466029,194108576,226747,97263399,130,10262,336700211,2025,1.41,1.17,57602998,54224000,3012000,78879854,10
105527117,2849539,74580856,432384,72506153,430396,1264095,2761628,293340751,940626,101518699,158,19957,370971023,3619,2.01,1.64,88530436,79162000,9018000,108860306,10
279749111,3047611,174989976,690725,173550058,694553,1306454,3465281,539227603,884505,273395214,388,32167,851410256,5033,3.8,3.15,158597298,152331000,5973000,181415909,10
301980001,1736162,189360640,1320410,189872136,1318770,536388,1805287,509893955,363014,303376225,202,103102,938310195,2993,3.73,3.12,149481441,142172000,7008000,170146371,10
118546402,2960001,86062900,374487,84541761,363500,1198498,2558322,314414331,897598,116827473,3744,20807,409056327,3519,2.15,1.75,96258568,89981000,5998000,117079302,10
105836062,2656437,75956144,400717,72419516,397551,1117327,2611036,285417966,891445,102345109,160,22665,383972652,3307,1.97,1.61,86016559,77645000,7963000,107439573,10
108053081,3653926,75511692,395904,75066081,394295,1340429,3278473,321186174,951094,107496160,19,42945,386423254,5988,2.2,1.79,98499690,85227000,13034000,119305955,10
276378572,3091846,173439573,831108,171092983,819043,1203370,3210621,515329052,891211,270821813,60,23411,846371250,3841,3.69,3.07,150413946,141058000,9003000,170546663,10
144252769,4652820,116329466,3326611,114951885,3359633,1033417,3328412,470116376,1187458,136032589,54592,49094,504929621,6448,3.26,2.67,140775889,130293000,10022000,162196657,10
158666369,3771999,139439496,972991,137775745,976511,1974939,3429921,486792384,1020198,158460634,131107,65664,644738755,5991,3.36,2.76,142976797,121803000,20795000,163822967,10
279260291,1874850,172491191,1261414,172099091,1222500,745225,2228859,492069281,423531,277446120,46,22827,859081981,2764,3.48,2.88,146287030,140965000,4998000,166796286,10
157718851,2897035,108682538,878353,106649759,919468,933887,2157548,361645239,546691,159268920,29194,49946,572423109,6313,2.54,2.1,106159813,96842000,8985000,125310601,10
105163830,3442343,73428472,379239,73511438,369736,1221572,2730425,305901251,899611,102585482,69,28105,372501239,4693,2.12,1.73,92835589,82498000,10060000,114055329,10
276546877,2847871,176437153,818503,172867229,814132,1345364,3455860,538467386,901785,268512683,78,31793,845925936,4298,3.85,3.2,158252026,143818000,14080000,179428086,10
107897846,1693804,74710933,324241,72684162,332411,407586,1588073,209874575,362321,102909918,86,15197,364067324,2225,1.46,1.19,65783566,59453000,5945000,87018287,10
274040212,3800283,174842422,847844,174941305,840508,1374186,3306218,558098830,997519,275829541,62,39548,844603939,5987,4.0,3.31,166173234,157803000,8040000,186305741,10
109187213,3590819,76682962,394427,75876451,381652,1310949,2950280,324238798,1006394,105873697,63,37276,385098265,5989,2.25,1.85,94919012,79526000,15100000,116141767,10
145050393,4864331,110968051,1029321,110887714,956299,2501603,4394978,545281609,2065828,142359154,130,83831,537304201,6253,3.67,2.98,164266160,148902000,14990000,186266422,10
278238154,1962203,171427873,983240,169257933,1078731,583188,1821394,462325390,257193,280116607,191,15801,850381417,2993,3.31,2.74,140041211,132616000,6979000,160561057,10
257489768,1317081,158774555,747245,160665466,698652,392603,1785212,407936508,325068,261634632,48,17154,781724359,2017,2.95,2.47,120078238,116701000,3018000,141991491,10
266880741,1545526,161755947,1059261,159488350,1055333,458486,1833100,422452141,227782,264458565,103,15808,798766769,2016,3.02,2.5,127683738,123299000,4009000,149122061,10
87512760,1144730,75997919,714695,75042522,628342,344964,1474119,199681743,274248,85773486,144,10885,377651543,1890,1.4,1.14,62765257,50735000,11708000,83729347,10
268164099,1485938,162126328,1093873,159681047,1092958,464866,1833929,423063500,241474,264350439,34515,14831,802433467,2018,3.09,2.57,127859112,122505000,5020000,149081721,10
120202884,4606527,91063708,483091,93294158,438134,2142226,4285567,410228248,1260554,123635626,123,83435,471948046,17325,2.91,2.4,119740764,83866000,35520000,140774867,10
108972144,3374922,77251378,407826,76915875,409725,1331440,3292624,328401124,909879,109680927,41,35421,394089028,5801,2.23,1.82,99764555,85461000,13912000,121075308,10
99842834,1485683,71581370,412842,70836690,359814,539379,1570838,202506836,312064,97018155,64,10137,350226115,2869,1.44,1.18,62821925,53759000,8796000,83688281,10
96739919,1580669,61950610,664247,60529558,659706,359962,1469110,196587005,214491,101269899,5,17014,337447238,2070,1.4,1.17,57751647,51562000,5837000,78840939,10
107005019,1779666,73783147,593935,69429037,596655,539293,1548320,219847386,258869,103608896,10,15360,372888043,2999,1.58,1.29,70001820,65648000,3978000,91637407,10
274778808,2812131,173414051,814858,170024992,817249,1297444,3071619,523704983,968091,268682543,164,24057,836199476,3516,3.67,3.02,158155932,150850000,6993000,178843747,10
276696632,2794370,173195545,812949,168791092,812797,1268092,3039504,523262936,970173,269378551,20,22994,842330871,3516,3.68,3.03,157476606,146093000,11007000,178595736,10
267507874,1209499,163445571,1058021,161095780,1037432,427054,1918085,434327084,341402,259609639,46,14208,797299591,2016,3.14,2.61,131699576,127424000,3982000,152212011,10
269978430,1405807,163288087,1038237,159184151,1031943,468867,1884249,427703613,286114,262168983,41,13556,806112173,2019,3.07,2.55,129613806,122301000,6960000,150260085,10
277683874,2314681,173006066,906423,170882382,894167,713765,2216466,463671980,388189,277761964,340,21266,856369226,3450,3.37,2.8,138048596,131768000,5944000,158746246,10
293115642,3144815,187728111,866393,184945403,844938,1407115,3569626,578664068,844868,291926087,113,35122,898415670,5797,4.1,3.4,170674942,155178000,15017000,193516504,10
356246456,5141316,241817010,1143347,239075475,1145666,2450024,4775351,799077590,1106985,353097409,77,106490,1143706271,7683,5.59,4.6,240156857,223765000,16054000,261168093,10
108000088,3700273,75592984,401253,74833450,399906,1328794,3331730,323037388,983169,107549993,18,34816,385312825,5990,2.24,1.82,98475694,85114000,13017000,119589414,10
137009372,10536315,102763891,3647606,102199947,3563071,3494630,8092317,768304690,3391131,138340249,1648,63315,495715145,7146,5.2,4.22,229820388,214376000,15026000,251502527,10
127004459,3592277,90470826,369944,90669588,366980,1228209,2737387,353559967,906288,124199900,194,39486,436084707,5794,2.43,1.98,106623176,87436000,18878000,127252541,10
139563590,3648894,100838077,693787,97128660,683584,1870193,3957278,412515404,1143767,132967884,136446,41018,490154431,7031,2.85,2.32,124462333,112078000,12008000,144879962,10
108802811,3584525,76820062,393454,75312734,379604,1313796,2984872,324406928,977009,105700654,60,36681,384142658,5990,2.24,1.84,95218834,84774000,10092000,116535318,10
274407809,3726057,172632662,1035083,172894379,1029680,1340404,3461046,558081908,972699,276827101,204793,35613,849143284,5788,4.02,3.32,166754923,155404000,11028000,187641518,10
98777850,1602071,62878344,611293,61510420,605996,361131,1428179,196997226,217989,104809034,4,12447,348989822,2070,1.41,1.17,57185045,52845000,4065000,78220384,10
108253153,3600189,76319958,388957,75663459,383380,1326670,2960681,324624971,994005,106617907,51,30982,383996475,5990,2.27,1.86,95973950,81671000,13943000,115513274,10
116016721,2387503,83333307,637364,82485012,587111,1100861,2236200,307339761,670881,109758468,69,26336,421620928,4140,2.16,1.76,93452526,84030000,9003000,114455140,10
107950773,3695155,75215810,401149,74621601,396044,1328499,3304319,322915964,979594,107961880,210,58097,386094220,5991,2.25,1.84,98235392,82853000,14973000,118864292,10
276223796,2973876,172677835,807931,170734117,802345,1205492,3339972,529973828,833092,274637278,90,30006,852444691,4629,3.84,3.18,158033454,146547000,11041000,178960948,10
309645354,2772381,204234925,1168038,202700379,1166898,1217374,2965649,576751906,865250,309253410,194,23199,958421297,4231,4.16,3.44,173094198,162653000,10040000,193735228,10
277047970,3680745,174698634,849574,174817960,845474,1374188,3252874,555702389,993931,276515551,53,39121,854484572,5795,4.0,3.31,166043849,155715000,9918000,186469225,10
103901314,2999741,74765008,370632,74204942,363328,1075972,2670900,295641104,985863,100343305,95,26830,368041060,3518,2.06,1.68,91292307,83895000,6991000,112036599,10
108829659,3572095,76179433,397155,74751453,390987,1333600,2980732,327184779,1012103,107442456,43,32809,389224493,6184,2.31,1.9,95734385,81582000,13760000,117095865,10
100674751,1204851,63841791,635844,61520678,615168,394112,1508120,191779208,319802,93411045,64,11148,337693851,2020,1.37,1.12,60415485,57138000,3007000,81786135,10
108619003,3233171,74845777,666253,73660008,648618,1193207,2570489,307500226,922005,105634136,99,65629,374249093,4301,2.16,1.76,93452889,81993000,10999000,115324570,10
104893077,2770443,74903105,367317,73249320,363320,1183375,2656171,289372790,955704,99810954,63,31465,367858822,3521,2.02,1.65,89419807,84062000,5003000,110894132,10
146947371,7122541,110310509,2246032,108096313,2163200,2510490,5703168,642487417,2241898,147892974,9607,43191,518521470,5605,4.33,3.53,190454764,177013000,13000000,210678171,10
203910851,15683975,161888202,1019084,161453489,984209,1387992,3757960,585457929,1428603,205936527,94754,62601,695240908,7926,4.1,3.36,175435379,158039000,17004000,196414651,10
318369030,4380128,210771384,911960,206185914,825084,1971839,4278614,639557693,1190367,299182269,156,49429,1014138682,7033,4.56,3.76,191379873,177947000,13069000,212804043,10
266791821,1231048,164682423,1092896,162237950,1048120,439601,1944899,423114766,342208,256256665,226,16400,790486528,2016,3.04,2.5,132549014,124169000,8010000,153114302,10
94280434,1539552,61276029,615811,59949084,605572,402481,1435679,194184330,201097,97761996,141,15076,329453266,2217,1.42,1.18,57609725,53310000,4023000,78648809,10
115649726,3107924,85946831,703435,83923296,757220,1507260,3094073,358652756,1054565,109017586,105,39336,425159640,6482,2.48,2.03,107793935,89492000,17898000,128616285,10
112336711,2798256,78656498,825683,76937703,804688,1296961,2751858,336247586,1020605,115676774,44,25917,410009596,4135,2.31,1.88,102248009,90874000,10865000,124189353,10
269641899,1708516,169379855,1132111,172042921,1120291,535446,1809215,452328362,372517,267068758,112,21607,822603307,2993,3.28,2.72,136871136,128569000,7973000,157904972,10
264099932,1564180,161885831,848498,159639431,873756,429069,1662635,415570799,233688,262214000,62,14261,791433840,2017,3.03,2.51,125763589,117531000,7901000,146680368,10
447056782,19280102,358166689,2223357,358540694,2169145,1459352,4330379,1071408410,2293407,448509146,12278,77605,1556101672,5299,6.84,5.8,250217567,233911000,15993000,270152812,10
107521540,1843774,73628744,601635,70921168,642848,562462,1584024,228991214,225724,107654392,162,10583,370854128,2997,1.61,1.32,70944812,60638000,9940000,92591629,10
99044221,1472022,67759030,259313,65703628,262240,394719,1448374,184177850,213775,95025007,4,9430,336259241,2020,1.32,1.08,57766839,50271000,7037000,79982472,10
274275812,1530982,173154469,864146,169395541,842943,613577,1996703,440001628,316266,271552459,106,17966,833963688,2866,3.19,2.64,132788083,125308000,7017000,153630843,10
99378409,1321503,63258198,754183,61203604,727429,442468,1560125,202407802,379399,94552123,101,18380,342276475,2801,1.41,1.16,62742216,56548000,5849000,83353059,10
101374417,2315761,70542224,633527,70033991,622574,826693,2025100,242027897,348532,107337778,151,43447,369106013,7172,1.71,1.4,74571608,63212000,11037000,95731727,10
289732973,3003043,186303833,824487,183697566,822551,1208363,2879948,549942399,903378,283156425,251,27745,879794604,3520,3.91,3.23,165301389,156673000,8034000,186441086,10
122423272,3183432,89730442,420111,88688715,423874,1324820,3163611,344117107,883507,120064047,9143,38239,429347454,5894,2.4,1.96,104066735,92721000,10967000,124873648,10
67087153,12379596,26969699,4455649,29033805,4371179,56452,415737,201466719,17401,69246581,77,3130,165684788,175,1.46,1.23,60238640,57400000,2014000,109685845,11
74067813,12686934,55039254,4744742,56663934,4543575,63787,479719,232831527,18320,80810038,0,3346,243921846,169,1.68,1.4,71624570,71269000,0,92182064,11
86953993,13335197,39670212,5174897,42346642,4896366,224161,1295881,268022821,88029,90829578,3395,41947,224429105,1600,1.8,1.54,65759270,64367000,990000,85703281,11
192452469,12618450,58490547,4502506,60701878,4425038,71889,517322,301562396,22144,193341392,43,5490,447549637,180,2.14,1.77,92391771,90123000,2002000,114000127,11
94008660,12193191,33079932,4400778,34451605,4421818,60673,424663,212487130,13389,95011095,42,4055,197872097,222,1.53,1.26,66375139,65118000,1001000,87521416,11
771734731,23365316,609178300,6147110,609506912,6115544,213266,2325747,1308982158,50951,774523154,109,19573,2628248904,226,9.42,7.88,387342783,386958000,0,408567906,11
73712453,26029968,41875296,9383644,44064093,9161680,77345,1128697,339563499,466359,81802040,96,6395,251522343,186,2.42,2.01,103550663,102350000,993000,124179147,11
765260809,23277873,604730447,5983689,604553574,5975416,202885,2172943,1263739134,52493,765728467,188,18172,2592964421,214,9.35,7.88,370173728,369960000,0,391159785,11
72625738,7515546,29140076,4439152,32114889,4254765,55599,424073,205197450,15457,79550482,85,4430,171468224,187,1.41,1.16,63112962,60884000,1964000,83534897,11
66779156,12111880,28126151,4418839,29105341,4415920,58520,456174,192431234,12862,68143688,0,2514,151887236,212,1.4,1.17,56860814,55647000,993000,77477659,11
74186007,26159645,47384936,9449068,49369868,9190227,86219,3440851,340059906,467546,82641598,191,7776,224287029,222,2.4,1.99,103271120,100954000,1999000,123950415,11
66696742,5857310,39423037,4482789,41393988,4475751,59122,401535,207702525,19935,69348321,187,4230,185797628,182,1.41,1.15,64696739,63449000,1007000,85583919,11
77744832,12217683,27405626,4494493,29241574,4468502,63429,503430,198093802,20325,79569760,296,5030,157831773,211,1.43,1.18,61763158,60348000,1005000,82007443,11
95265210,12609648,30024112,4650880,31729501,4452027,77030,495311,224529655,21469,99209566,120,4269,231416768,209,1.62,1.34,70501612,68545000,993000,91058314,11
67290100,12486524,27168723,4435505,29143477,4416792,64983,435241,192549022,19277,69509153,139,2808,152291312,212,1.43,1.19,57276226,55010000,2000000,77525938,11
66638915,12186270,27845362,4856415,29774234,4812990,66767,456602,220810154,16063,69445997,0,4100,164274751,225,1.54,1.27,68143854,65797000,1964000,88323648,11
83942547,6313013,53041414,4636439,55062218,4448799,63312,445053,232891476,16309,90808479,0,3465,328681370,156,1.68,1.39,72229752,70051000,1973000,90663638,11
66452120,7399153,40356832,4399394,41292878,4433660,67803,427380,212142955,13140,68206645,22,4100,197496608,191,1.45,1.19,65865584,62534000,2931000,86001621,11
430885357,67675001,315266660,22318853,316594280,22298606,295935,34463431,1846288045,4692224,433539140,1058083,26475,1152505098,259,12.33,10.17,545238309,543952000,999000,566509998,11
66260508,12209623,27228880,4251662,29262292,4253126,57778,428394,203613504,16691,68635544,40,4103,138444519,222,1.4,1.15,63378863,60090000,2955000,84385696,11
66282808,9601451,32515351,4454361,34554946,4443011,60764,407643,203527797,15475,68372277,40,4033,143679389,199,1.47,1.21,63505369,61245000,1975000,84260812,11
101310174,22338054,30345806,4685801,31030178,4545675,67491,1388418,249912254,25968,106391799,132,4556,210660092,226,1.85,1.52,83194311,81899000,1011000,105657469,11
66768459,12347725,27787996,4454410,28988269,4454590,53888,543723,194798105,12588,68453538,122,2777,151769766,175,1.42,1.19,57358728,56075000,1001000,77622550,11
84066282,24149315,39708219,6185468,38174498,6177651,265523,869879,356317487,90385,84203346,283,22243,281833653,2893,2.58,2.15,108061272,100706000,6979000,128053665,11
66544998,12256906,26609863,4565782,27223342,4608578,63473,443426,204321198,22721,66453347,1524,3903,150567041,173,1.46,1.2,64081640,62752000,996000,84895670,11
69480961,24513305,42003768,8478761,43413502,8476972,76137,1178794,317289955,931791,71597101,427,5651,210650583,182,2.22,1.84,96751039,94327000,2006000,117232941,11
765792889,23170921,604995698,6115608,603791144,6100109,215558,2372293,1288520030,51854,764909577,281,17569,2594651778,221,9.42,7.9,381928697,381639000,0,401947730,11
66757507,12436802,27235960,4479147,29037106,4407962,53790,403890,192669870,14872,68806908,37,2640,152291976,175,1.38,1.15,60057863,58767000,996000,82392350,11
67304980,5920581,27021080,4451362,29209068,4350705,60553,387619,187186459,21943,69047219,0,2850,138852366,180,1.33,1.09,58727336,57495000,1008000,80175730,11
67729734,12366793,27077554,4360031,28735516,4234367,66018,461091,196483562,25732,69896354,40,4840,138735231,241,1.38,1.12,64758071,62558000,1985000,86238763,11
66877176,12456405,27452853,4539622,29289157,4493354,56712,428841,194102293,15265,68249035,32,3674,137324177,174,1.39,1.15,60863078,60605000,0,81930225,11
72060633,6018207,29521813,4560178,32560175,4393622,56916,396593,214312063,10506,78831684,57,4701,187590486,174,1.46,1.19,66214552,64848000,997000,86686543,11
72454435,7694400,33017645,4334677,34660564,4314620,65985,416947,221702015,14931,74365182,1681,5162,282496707,186,1.61,1.34,67682695,65485000,2014000,88213433,11
1025725,146206,2670415,61097,3739835,74214,23221,135336,13525074,10325,6297823,25,7561,5069345,208,0.1,0.08,4533980,2543000,1695000,24863487,11
279648259,59189463,171650338,36292862,174844631,36135120,221148,2080441,1404124555,4620217,288369783,1394,23112,739365546,180,9.72,8.06,415432920,414226000,1000000,436296315,11
66589138,12293820,28366302,4418228,29263873,4381406,59065,421601,196356834,15639,67417548,30,4133,138041392,235,1.4,1.15,61294262,59045000,2001000,81532821,11
67371559,12497479,27422192,4502481,29360693,4410750,60515,503805,194067758,20256,68573056,282,4774,151056648,223,1.42,1.17,60672471,59234000,1003000,81521380,11
73829716,10740719,29400083,4556507,31673617,4368371,60893,456117,199684223,17615,79302549,195,4760,173561906,206,1.43,1.18,62185506,60876000,997000,83514138,11
66307958,5767060,28142745,4219913,29300714,4218920,59684,415437,197242285,14740,67457467,28,4386,164765563,180,1.36,1.11,61844147,61604000,0,83491448,11
85721363,21164065,27234915,4472678,30181087,4365181,65405,1213499,238825795,20047,87108566,10,3741,176362628,209,1.75,1.45,74073180,72754000,1010000,95115195,11
133002525,12964219,54109787,8658530,55273525,8628812,79459,590899,361349809,18186,134633075,115,6445,293681067,173,2.56,2.12,109875932,107566000,1991000,130448027,11
66645817,12292313,27095338,4478743,29333689,4415125,62133,457386,212146083,16611,69483399,48,4207,151235809,222,1.5,1.24,66339367,62974000,2998000,87898904,11
91870814,27710312,59135510,8256904,60822805,8167020,79824,1659631,313045830,949670,94504307,3,5416,252307746,216,2.27,1.88,95835332,94598000,995000,116578416,11
78239465,5784105,27290808,4524990,29810163,4475025,58464,409360,205213391,19728,79657135,47,3881,176123432,194,1.42,1.16,64101803,61721000,2023000,85288483,11
66263209,12167674,28156644,4585535,29445552,4609320,61152,503557,205115740,17314,67532517,36,4102,138320154,225,1.45,1.19,63959867,60537000,2977000,85366210,11
66446429,12250835,27929169,4464779,29326251,4479131,57673,437064,207006653,15442,67937298,33,4052,164960032,212,1.46,1.2,64646680,63389000,1006000,85688933,11
64923761,22801869,35657984,5610927,38426881,5518891,73889,783997,284518147,424839,66924165,33,3967,192909263,199,2.08,1.73,87522500,86166000,1001000,108514901,11
95412921,12182676,40624294,4377022,41342301,4369500,59258,461956,224008069,10628,96822705,0,3072,217772766,173,1.61,1.33,69442350,68266000,1003000,90310591,11
78739692,23924598,42267495,9340650,45106447,9069421,77500,778234,328639870,466541,86714611,0,4637,222529410,178,2.38,1.98,99850462,98484000,1004000,120934464,11
75814872,20754256,47433105,7511100,49146203,7461791,76833,1133447,314456321,18490,78074943,32,5860,224807135,220,2.25,1.86,95861480,94539000,995000,116530059,11
75752995,20877589,47044621,7612375,49395160,7498482,78153,1076949,312983033,23477,78477665,1,4472,224053484,222,2.23,1.85,96523328,95297000,1003000,117181954,11
777392320,33628675,617962172,6094101,616782434,6059475,223191,3698227,1368108663,55189,777906832,114,18653,2680175124,261,10.18,8.56,405909717,404636000,999000,427022757,11
66256844,26580492,39958590,8177783,42283142,8070300,68966,1434079,291791638,973230,69272079,28,5095,200074472,194,2.13,1.77,90250727,87981000,1999000,111602929,11
66864011,7536580,27978403,4439788,30503744,4398797,67175,470447,201639399,17546,67497365,76,4065,164431919,158,1.46,1.2,61921232,60621000,1010000,81810479,11
803658826,23456280,654743385,6105488,654123541,6089038,231364,2395294,1375015345,54510,804589385,278,20015,2757757717,237,10.08,8.45,406492013,405154000,1000000,427338257,11
67058004,5871420,32360329,4478533,34287712,4392710,56539,396548,189124037,20543,68889681,39,2678,156984102,185,1.36,1.12,59660038,57318000,2011000,79640170,11
265830032,41841278,223557013,9485940,229444420,9214124,8501435,17783183,1373831255,2604337,275879192,431,404791,1156512576,117349,9.94,8.21,399697013,218129000,181107000,420612211,11
66499959,12238172,28176735,4481217,29339829,4474189,64127,517337,195880653,13142,68177783,57,3890,153038784,175,1.41,1.16,61370227,59919000,998000,81818018,11
66385631,12317017,27873867,4463620,29010851,4430777,54112,409483,193935678,14545,67936494,29,3141,151821069,176,1.42,1.17,60426179,59161000,1002000,81312031,11
135546116,11455350,57796718,8860253,59712779,8740220,84168,628363,381522721,24449,136836705,31,5014,299459307,184,2.67,2.2,115856081,114688000,1006000,136991466,11
73275421,12496727,28724395,4620212,31703972,4405584,63328,439408,218568059,15435,80505110,28,4820,178193864,206,1.54,1.27,67600093,64229000,2964000,88622865,11
105204892,15990917,61519172,4722134,63441851,4554211,61760,642664,246709114,17337,110904106,36,4722,286501442,182,1.8,1.49,75997887,74688000,995000,96642825,11
765671957,23239275,610280078,6151581,608713392,6118602,202055,2202443,1286482332,52180,767649279,108,17828,2644977647,215,9.52,7.99,380690595,377419000,2995000,401716244,11
73648694,12513069,28812766,4883989,31617980,4707164,56649,437320,210366082,15485,79856069,40,4685,178851094,216,1.55,1.27,65154836,64766000,0,86024578,11
70637593,12876102,18718543,2024888,19484532,1866446,122393,448591,130255453,32725,70132514,15,2494,140783790,994,0.98,0.81,42038847,39769000,1988000,63340259,11
72486182,38749120,31051388,5075582,31829749,5051116,256052,15109651,568976250,13826207,75115783,97,34541,190028760,3546,4.05,3.36,171468125,163056000,8002000,193233485,11
1545034869,39523580,1243011993,12204556,1242681356,12168096,421936,4219732,2594839578,94895,1547410843,191,36379,5319593512,227,19.06,15.99,762929991,760284000,1998000,783999175,11
66319192,7449762,27623904,4416996,30012809,4397852,53831,395780,200115725,13748,67429938,56,4009,164489619,159,1.45,1.19,62326246,61120000,1001000,82875963,11
67080889,12479695,27273872,4529627,29351385,4445647,60525,434427,193149637,16824,68720432,180,4171,151063105,172,1.42,1.17,60776731,59546000,1009000,81240371,11
747031879,23198810,604326983,6044387,605253237,6028131,205764,2233774,1262759612,52413,746908027,328,24726,2576734280,229,9.33,7.83,372726779,371217000,1000000,393855594,11
66914563,21624498,52355887,7619046,53800228,7602931,74544,3204385,317076043,990596,69398444,0,4330,240594810,191,2.32,1.93,97185138,94981000,1978000,117890707,11
80673904,26698543,42160538,8989580,43969337,8720308,75046,1638745,321137420,914423,88173228,1,4723,235868431,186,2.34,1.94,97652251,96469000,1004000,117776911,11
56997086,6992854,37256599,6308976,38814708,6242662,62168,470905,240614824,15832,59438310,24,4063,170205242,161,1.7,1.4,74598631,72353000,1982000,94908713,11
120613807,10538398,52466654,4662566,49474121,4606959,174095,681276,234293433,56772,116740901,18,5499,294802923,1348,1.74,1.44,72740234,69295000,3012000,94069145,11
765052248,23103320,603836970,6018404,604022289,6009634,210267,2156094,1280079279,51502,766809370,43,16874,2620532932,218,9.59,8.03,378352193,376067000,2000000,399296185,11
85603887,21482749,28550085,4728934,32274633,4520375,65880,1168106,255618510,19816,93988309,59,4623,217081533,204,1.91,1.61,74949050,73659000,1009000,95994993,11
67002195,8216789,32312142,4528395,34094299,4475491,54758,394939,199895493,19113,69261390,14,2554,170902057,174,1.48,1.24,59218262,57911000,998000,80379445,11
752499918,22897527,610547931,6051837,610373747,6034734,213655,2246259,1300178850,50956,753460179,18,17506,2595205346,213,9.6,8.06,384959369,382666000,1993000,405555455,11
142179026,18940043,42406082,4551717,43821412,4561157,67452,521325,272057965,17796,137365066,0,3789,336293794,169,1.99,1.66,83476055,80141000,3005000,105923680,11
66950933,12384416,27033459,4469628,29242217,4394418,56574,431968,200314372,22061,68771583,60,3871,151754938,212,1.47,1.21,62578534,60372000,2012000,83382371,11
66242251,12217551,27053055,4410943,29116909,4386318,55150,411155,195693131,16600,69139012,26,4127,138752915,173,1.4,1.15,61675957,60440000,974000,82515010,11
66927752,12345072,27117370,4324836,29220575,4273686,59368,421419,209521625,22523,69165094,1605,4470,152690934,213,1.52,1.25,64992445,63617000,1009000,86572165,11
747507902,23367750,604571122,6109703,604216345,6098058,219146,2332084,1278320340,49498,747960572,36,16669,2573664680,220,9.44,7.91,379289395,376848000,1999000,400001592,11
79980058,23617247,27441689,4508209,29906115,4475272,66881,1892829,246410165,27482,81956744,0,3268,190884117,229,1.91,1.62,72751062,72542000,0,93300473,11
74620720,7537885,29243232,4700204,31131169,4534536,57084,422673,209243358,17521,80344334,86,4808,173717953,191,1.46,1.2,65168469,63912000,1014000,86672157,11
86859094,22832552,29132023,4683777,32502485,4469425,64866,1245405,240654478,18405,92862579,64,4252,190318664,208,1.79,1.49,74696623,73318000,990000,94955605,11
74885048,12447230,29206234,4706783,30984651,4549097,59525,441550,209964392,18239,79789749,293,5353,180678064,168,1.49,1.23,65342419,63015000,2000000,86902592,11
85570517,6283945,47810447,6223304,49686292,6175852,81501,614335,334669772,23289,88318909,3,4279,398367636,182,2.38,1.97,100004320,99776000,0,121021142,11
71634960,12335316,32596828,5753829,34529698,5675579,67273,513858,243567342,18450,74248850,46,4590,172887693,222,1.74,1.44,75210638,72875000,1996000,96579835,11
786571987,23489923,608628584,6034584,608024141,6014898,248972,2323662,1312395847,53828,789242053,138,18850,2643678060,245,9.86,8.28,389881271,389281000,0,410942026,11
99045725,21149330,29741116,4678273,31291148,4519638,63476,1245234,260228362,19363,104334545,63,5854,201741226,216,1.94,1.61,80198012,78890000,1011000,101189999,11
56645769,17583099,29538255,4676324,32058566,4590375,78711,3264112,260467058,402476,60017694,1436,9175,168015791,329,1.93,1.61,80926454,78487000,2012000,103130398,11
80252876,22347528,28043989,4643881,30735388,4544565,73075,1201789,241896841,23263,82767732,81,4028,160249853,261,1.82,1.52,74582869,73367000,1005000,96025752,11
205530766,19314912,80447967,9163338,78705586,9139188,95137,961571,497264086,26102,210481137,227,8764,562623091,173,3.58,2.98,149578747,147250000,2003000,170235078,11
66038964,12168088,27902214,4196685,29042929,4182724,60276,448068,205372095,17185,68689236,40,2575,139340978,222,1.48,1.23,59858977,56529000,2923000,80969425,11
66376740,10409876,39504592,4497907,41228725,4495999,58362,450889,210893269,21113,69509571,35,3896,190036056,211,1.57,1.32,61716882,59499000,2016000,82357772,11
760388360,27353574,605218801,6023137,604848966,6007193,219691,2424970,1311158643,52147,761412572,111,21666,2581234623,231,9.82,8.25,387670053,385383000,2001000,407911578,11
89850538,12488380,32581824,4467325,30380287,4347648,241675,692399,219594522,102742,88498175,40,16861,192582233,2524,1.67,1.39,67922908,61569000,5958000,89073782,11
72383069,7369249,26823846,4459312,29156158,4435051,56051,414104,210159879,24566,74883904,45,4050,241981856,202,1.59,1.33,62173863,59889000,1996000,82965144,11
746729104,22181659,604115244,6051164,603587858,6029385,212243,2229899,1273041943,47327,748659489,6,16632,2590502172,221,9.42,7.9,377186798,375892000,997000,399060296,11
323630165,1246126,212428981,701544,207681695,677522,229457,1111449,457430414,92143,325426183,17,17324,978751428,1937,3.18,2.61,142029236,137451000,4013000,190396947,12
165714986,10871469,145049272,979946,145000137,978759,865794,3411326,604807610,3150366,159841597,31027,47013,609798602,6384,3.95,3.22,180450467,160192000,19899000,201874840,12
322609230,1288998,214309147,699183,215618896,710168,129942,902811,449543173,75042,326808472,65,19494,964119685,1939,3.19,2.66,131803898,127392000,4012000,149003167,12
95531544,695420,71338058,206407,70414632,197225,99346,476913,144022741,34137,102937463,53,8779,361916947,1042,0.99,0.81,46150932,41746000,3975000,67836855,12
248534896,38300877,167246281,2083571,165352752,2098365,677725,6636023,945712631,3162113,255920807,19684,40910,817292808,5694,6.21,5.09,279771585,267349000,12015000,300919824,12
91700057,625548,67929228,168336,66986871,140145,97052,498561,133421655,52399,95728405,1,6524,331805064,919,0.95,0.78,42101338,38792000,3062000,63383095,12
86147357,693135,88867403,167396,88843480,176684,136658,529764,166578022,52349,82170713,97,6563,394863670,917,1.15,0.94,52527965,48232000,4019000,73747921,12
250099052,30244632,182113811,1977072,179840988,1968752,2002720,8142312,1041674556,4173080,255430575,33379,190527,882836352,13462,6.89,5.65,299131390,278801000,20057000,320815203,12
324132906,510873,200405921,656929,198292994,659849,151575,821649,428189442,58277,320179368,153,9788,947072648,520,3.04,2.52,129539964,128222000,1001000,150499835,12
101029247,1659474,64029887,150006,64195158,152485,320175,1361036,157958480,83960,105354604,201,19825,336029074,3749,1.15,0.96,46915018,35716000,10913000,67539230,12
105936437,1056175,88038349,1716817,87670997,1728503,176278,769046,218575132,82622,106775349,58,11757,402983767,2296,1.5,1.22,67419803,58013000,9002000,88519461,12
327957836,1024392,205701212,656395,207470729,663339,194169,1021442,447230267,65424,321043725,222,15649,971220348,1938,3.19,2.65,135542082,131215000,4006000,156651902,12
105333539,1656874,79842529,192015,72630679,192036,344589,1410861,175243579,131420,95289018,1,15636,361917913,3750,1.24,1.01,55439396,50079000,5007000,77005274,12
325509359,908271,199261048,647868,199244915,660606,181487,1120339,441291466,63380,324823415,87,14644,953776029,1899,3.13,2.62,132177235,128864000,2996000,152786789,12
103251965,1822540,72661086,189905,75342474,198413,316244,1418071,180113725,82302,105140360,196,18244,361925510,3750,1.29,1.07,52745333,45391000,7060000,72937174,12
328198883,897332,213108981,669993,212665371,687583,178547,897520,436923447,64340,320263565,56,10347,963933371,910,3.11,2.58,132604665,128362000,4011000,153830092,12
326152060,622899,200386935,635456,198179699,644502,206600,911024,441184495,66086,316577696,78,10928,944964526,910,3.12,2.59,131900557,128123000,3002000,153059735,12
106494546,1448845,76975324,190264,72648150,194867,379772,1415220,176376517,116625,99174917,136,16319,362968485,3750,1.21,0.99,54858869,43799000,10706000,75772253,12
319737225,817168,202469084,667840,201585775,666599,166216,867801,430173533,49787,323488497,0,13324,936967563,1033,3.07,2.56,129277764,123820000,5033000,149903724,12
157147187,16122814,140101037,921036,142955997,945307,587612,1526292,498852719,1973860,161598257,75,43940,577439464,4827,3.34,2.74,150206256,143964000,5957000,170496080,12
225327108,40847825,161867351,702756,159408466,686833,498167,2979404,784259273,7100116,225292611,175,57781,731916235,4041,5.27,4.33,234351780,227993000,5999000,254817995,12
398667413,14917364,263753542,1206366,267532156,1227371,608557,1875929,799407563,1431073,398284262,163,44624,1191071705,4815,5.54,4.61,233543543,224201000,9008000,253767598,12
320533106,570840,198906006,644597,197151249,647184,149105,809746,427796057,53492,324459743,117,9531,948990536,520,3.05,2.53,128987438,125691000,2992000,150460491,12
147705464,13787262,106598809,447837,106027397,422841,336531,1057378,372583571,146314,149030550,106,20978,464586936,2476,2.55,2.1,111071181,103540000,7036000,134003148,12
160709426,16421908,142877093,950010,144973734,956798,657636,1623393,496715867,1491167,158757946,91,37641,593103168,4821,3.41,2.81,146703300,138374000,8021000,166702819,12
101194209,1696036,82396544,204656,81457374,226867,222005,975694,153456008,88630,95085613,48,12356,329279786,1696,1.09,0.89,48973659,44542000,4049000,69680308,12
324458519,454121,199074337,635237,198458154,639327,143975,785807,430577310,53909,319732716,176,10867,940764788,520,3.1,2.58,130718991,128443000,2006000,151760615,12
321151425,681613,198499249,641183,199668650,655360,138905,845450,433800370,49811,325011346,198,15701,942458708,993,3.1,2.58,130973962,126585000,3986000,151546315,12
471191011,18639429,292364899,1702334,285404907,1691852,1684176,4043501,1081568441,1916736,471288659,168885,67894,1489678304,10648,7.49,6.18,321051512,296481000,24039000,342641422,12
318159800,633357,198774403,632302,195759471,603461,137284,720100,421669774,46438,320934851,125,9966,942161147,516,3.04,2.54,123955561,122707000,1005000,144010458,12
98176681,1042929,67677125,181260,64718069,170810,140002,503814,136794348,61086,96987364,0,3995,337999653,915,0.98,0.8,44495940,39138000,5017000,65708551,12
132985605,7720234,109928222,488184,110397351,504986,330570,962219,290719365,154524,133381698,37,19758,460656787,2477,2.01,1.65,89339606,82930000,6068000,110254797,12
115627610,1168770,80884651,1970033,80425130,1943440,188847,734038,220237356,57055,121003903,32,12318,458992567,1945,1.57,1.29,67990342,63687000,3980000,89502294,12
321680038,1247790,201049186,639450,199069002,629264,180377,858091,433721949,69294,324774332,215,9575,957404255,908,3.11,2.6,127064968,122676000,3989000,148562423,12
314829182,682417,201282802,642910,199839984,632259,143177,794841,419338102,50274,319262444,1,9084,931210721,518,3.05,2.54,126539864,124241000,2003000,147070854,12
327447507,1057738,204465008,648047,200001439,644042,192453,919340,427909106,67453,319777036,142,9564,954357746,909,3.09,2.57,129492748,123278000,5965000,150115272,12
93697678,1027947,65137253,185807,63187363,162417,142853,489270,133376078,51747,95807848,141,4141,331312276,918,0.95,0.77,42685613,37579000,4817000,63614718,12
326535294,1064986,205250585,659645,208050680,670538,200524,1058151,451677964,61445,322078592,211,14736,969175729,1939,3.24,2.69,135844239,127480000,8030000,155840062,12
97910458,1182200,69106121,185355,65038180,150601,141993,503289,133684011,52456,98480382,0,3399,339636262,915,0.98,0.81,42315417,38092000,3906000,62621984,12
327163520,992173,205755961,667721,206814834,669151,208237,1035419,451562925,59897,321292603,268,16415,970140161,1938,3.24,2.69,136470161,130173000,6007000,157959159,12
89955574,559747,64054505,161859,63848595,134282,101040,425942,129944692,32568,95745363,0,3136,329726168,525,0.91,0.74,42251168,39998000,1999000,62748158,12
325665971,1087196,206485666,658876,211073415,677873,193106,1017296,450066912,56465,324195051,82,14686,963865254,1938,3.23,2.69,134990645,127692000,6983000,155734191,12
91577256,600438,65475542,167307,63339943,126846,89831,387418,124264296,26585,95532436,1,6343,315718492,524,0.87,0.71,40134932,38790000,1020000,61253129,12
92217695,598030,65929554,173669,64033394,134065,90029,400992,125682556,27832,96589650,0,4595,318594297,524,0.9,0.73,40764764,40456000,0,60660406,12
394840044,14904348,261283080,1093240,264067126,1114914,591213,1875867,803266313,1342464,403723371,41,40328,1189214460,4816,5.74,4.78,235271039,222802000,11989000,256796925,12
404932106,10993601,301518628,1424385,302841820,1451902,872969,2232166,842346672,3075154,401291248,64,53765,1396606290,6378,5.89,4.89,246987250,236653000,10027000,268185357,12
99986768,1116812,80165438,218135,82015943,256035,143686,621666,152591746,52373,102866373,65,11890,340312372,1947,1.09,0.89,48477988,43127000,5014000,69099685,12
326110089,1090875,206342448,657837,208597014,675910,211623,1046674,454197579,56490,321703838,317,15809,964158023,1939,3.23,2.68,136351618,129963000,5998000,157407034,12
101953522,1014971,78535503,204132,80949221,233905,166476,645125,153693415,57989,101907796,72,11108,344710347,1943,1.07,0.88,48761903,43455000,5052000,70436193,12
360485185,1859938,230119324,700263,226246557,700887,267043,995700,514010722,96626,357208911,92,12994,1053071397,1691,3.68,3.08,150548984,147217000,3004000,171695587,12
174947571,15877648,127011021,498491,127707927,515159,694258,1588798,477944075,1153164,184353922,1,35621,584817323,4823,3.28,2.71,140318551,130014000,10001000,161939482,12
406181817,16832159,266579209,1008525,263925572,993000,959691,2364123,868948814,3076652,408106926,193,128651,1218173939,6377,6.12,5.07,258587560,244212000,14012000,279144607,12
93793426,542783,66840231,163410,63693300,130168,98403,426568,126660779,33805,95395405,78,3981,319390694,522,0.89,0.72,40890006,37642000,2971000,60995290,12
326343097,1033394,205456114,646260,207108489,653073,195425,998269,450299886,52168,321477967,75,15601,968091464,1938,3.26,2.72,136340253,132097000,4002000,157268327,12
325145992,1115503,206499567,666238,209610470,673752,199744,1025566,453216433,61427,322937674,101,15431,965251812,1939,3.25,2.71,136132013,130952000,4960000,156772185,12
100689440,799084,79878330,169903,78695894,132939,83098,466372,152104092,31711,106786569,206,9288,349978630,1041,1.07,0.88,48137144,45937000,1954000,68422640,12
149006345,2613634,115918985,1538629,116071925,1716959,786808,1672209,390386729,379034,147731826,33,44620,572136057,11196,2.7,2.22,117144221,95376000,21083000,137632181,12
160169279,16632289,142532507,953328,144884587,965601,598210,1538038,492778943,1472196,158110522,49,48244,587762586,4822,3.36,2.75,148322889,134193000,13916000,169498095,12
97258548,1172976,78688510,208015,81086337,231926,145468,618960,155319934,47452,104152735,218,12578,341486829,1945,1.09,0.89,48911461,42441000,6063000,69030755,12
106600217,1515710,77551866,187869,71952984,186711,361854,1375907,174928262,122788,96782846,1,16249,363078248,3749,1.25,1.03,54769520,48412000,6051000,74496300,12
324310654,1144729,205976446,660691,207562535,665770,202904,1021102,453037831,52521,322753215,69,15311,969678390,1937,3.26,2.71,137220350,133027000,4000000,158172281,12
325273851,450872,199586325,625624,198414861,634716,138198,777441,431481706,52155,318443411,83,9754,939954155,522,3.11,2.59,130802617,128540000,2008000,151832660,12
470207216,17230348,328161512,2821058,335904730,2705924,2067852,11587428,921280510,373945,472210778,208,49243,1635810893,5596,6.82,5.61,271408232,259033000,12001000,292801538,12
328571620,32847684,241310045,1218209,244968860,1194174,1779296,3949881,1063903517,2294441,329215086,41311,101485,1137735283,15926,7.34,6.04,315443320,291043000,24003000,336458774,12
141973213,15614067,102269798,464094,104500247,481111,472087,1299255,441481271,2275692,146996842,79,22961,445706496,3258,3.0,2.46,133454226,123013000,10001000,154479101,12
325049499,1015266,205808738,662568,208944302,673287,166953,982640,497795794,84545,318814114,295,22271,958227533,1937,3.58,2.98,150227800,142896000,7044000,171233246,12
327071151,1222724,200730241,619453,198564565,626688,342710,1725562,465097588,120135,315972965,1580,27693,947035534,1692,3.33,2.77,136786522,130300000,5967000,157817986,12
90508325,545552,64302068,164694,63764197,136589,102222,425490,130785297,30951,95707590,0,3349,328983188,525,0.92,0.75,42017961,39686000,1984000,62333911,12
145382521,15050274,105946528,485029,107256724,468895,451797,1267070,440628811,2199667,143213876,1,23491,450599314,3257,2.99,2.47,129138719,121946000,6940000,150406083,12
318912396,787326,201716969,645164,200822616,649863,142975,849033,429986158,44195,321700941,63,14185,935121352,1034,3.11,2.59,130029435,126740000,2993000,150148152,12
115862754,2159207,91913005,222923,84423848,200087,338387,1232382,189525566,140162,109553293,32,19441,382159146,3748,1.39,1.12,59096246,48993000,9798000,79936656,12
172920472,15965406,138527014,892472,141487817,900603,630739,1530911,506385485,1124199,182361800,27,45194,585405861,4821,3.45,2.83,152327990,145013000,7000000,173016261,12
174937595,16348311,144113970,512466,146111564,509579,542150,1646462,538114647,1283446,178251063,28,45516,681329884,4809,3.69,3.06,161389080,151013000,10000000,182523287,12
347792031,4715498,200102401,453310,200495404,438495,827959,2685435,477044371,238632,334536307,98,34992,1016340768,8018,3.5,2.91,143624139,126208000,17028000,164116541,12
132364277,2022819,85714575,229684,88196965,234536,205867,723756,201480389,96366,134440763,64,14324,408793504,2478,1.43,1.18,62769169,54597000,7799000,83413127,12
145720053,14260539,106924024,445881,104365396,409067,363670,1070106,365610561,161686,145001168,0,22780,455833523,2477,2.5,2.05,111291193,105906000,4995000,132607668,12
111125719,1175540,81230229,1929963,80909368,1919073,179508,785558,221327850,52977,116129680,3,9948,454986793,1944,1.59,1.31,69057947,63714000,4977000,90088002,12
321484247,1265882,213705035,695281,215191894,711074,137992,917583,452537575,69634,326434462,90,23319,960908536,1938,3.28,2.75,132667674,131296000,1002000,154243621,12
331922473,2275563,220635343,733467,215671560,705858,369743,1537294,480252518,137349,322039576,110,26498,970193999,3743,3.48,2.89,144772269,139479000,5017000,165782744,12
96001867,1222068,80230632,216245,81100876,229041,144623,565600,153840309,50368,104821234,53,14905,338148752,1944,1.11,0.91,48237906,39875000,7975000,68403441,12
97469842,1264511,81264319,230432,81498388,238772,149372,565760,154267419,52487,104716418,80,14406,338558003,1945,1.1,0.91,47725904,43422000,3947000,68548848,12
331320559,2295009,211893923,695227,213549868,704898,464236,2039444,506155788,171154,328674590,35,37907,992416336,6299,3.65,3.03,152079300,140729000,10901000,172644803,12
87772309,1108056,96736893,229344,93173598,204281,168042,701084,186395731,93783,88629044,3,16164,408614606,1943,1.31,1.07,58300699,52893000,4989000,79178891,12
90586456,1112215,68402798,175330,64509131,147465,138487,478720,127652138,52871,91921735,0,3588,312018993,916,0.93,0.76,41905266,39467000,2023000,62198503,12
402887481,9166724,305044480,1458916,304192308,1462775,662071,1944562,774384294,1283875,394776721,81,53579,1385592777,4817,5.57,4.62,231481952,223065000,8002000,252624548,12
406662524,15435775,262445330,1078024,259856207,1061491,727949,2044144,807382520,1299267,409194249,3567,48165,1226448871,4817,5.75,4.77,240579289,227272000,12958000,261937707,12
180088722,17094655,129583822,1026696,129378985,1039096,929563,2095633,588779177,2945414,182927768,208187,47212,595576691,6384,4.01,3.29,175363615,160045000,15004000,197254016,12
328135929,1094075,207415401,652795,205514771,652202,247831,1069082,460555431,96799,323784415,6,14215,970811753,2328,3.35,2.79,138538229,134219000,4006000,159750494,12
97473455,1216274,72903815,743887,72655589,750247,128023,689450,170159273,59928,100505241,18,10442,349545425,1906,1.21,0.99,54006914,45599000,8106000,75917090,12
107411887,1451291,76809454,189178,72685625,192626,351597,1391343,173639691,149950,99543757,0,14070,365376475,3750,1.25,1.02,54447954,44023000,10005000,75059210,12
444035749,8558110,319801344,1599211,318590891,1620258,910323,4414688,758162127,292375,443998600,419433,251963,1455044227,8629,5.64,4.69,225243166,208966000,15921000,247216894,12
107251192,1516102,74025179,192303,73076538,192516,339296,1391794,173887537,120489,102927367,2,17608,364748189,3749,1.26,1.03,54212614,45911000,7984000,74792193,12
105324458,1551737,75921888,184960,72462663,182280,358533,1381250,175159289,126453,99430674,1,15895,357773247,3749,1.26,1.03,55243885,47959000,6851000,76645146,12
107419686,1612151,72292967,182130,73802994,188825,332226,1425058,175389030,97995,104425587,28,17374,362729566,3749,1.27,1.04,54026384,42681000,10918000,73617765,12
324995891,1119892,205847632,656984,208182523,661295,199272,1003854,454199551,57300,323312259,45,15672,970427600,1939,3.27,2.72,136843589,132467000,3983000,158029319,12
492140063,23149664,330511830,3860942,332160177,3876923,1456386,6989730,1188993157,3387369,486749566,85571,170886,1514860164,9577,7.33,6.25,263392053,255103000,8003000,284030860,12
102198105,991956,75343284,200092,79716653,223632,147572,607790,157491763,71855,100926465,52,12357,346583335,1945,1.12,0.92,49895891,46566000,3036000,70955854,12
93924631,421620,64982603,127404,63861281,118940,97856,393980,128859720,35316,91166666,191,4517,322797076,526,0.94,0.78,38431331,37058000,1001000,59259400,12
139671962,2073293,133169515,683041,140468014,776245,256427,1581333,304419212,180352,147469805,7190,29766,572074215,2311,1.65,1.41,51683803,40967000,7993000,71958137,12
326339435,1054119,207083121,650375,210927704,673025,196737,1014011,446784872,71266,324392861,117,16129,964052789,1938,3.29,2.74,134588499,132204000,2003000,155652288,12
33732324,126706,18680948,72662,16426259,71776,69222,276673,44494097,32465,31562805,27,971,112435080,524,0.38,0.32,13934327,11108000,2221000,60368808,13
78636467,104528,45520377,86422,45932231,79578,37354,269059,106118481,16340,80421230,86,3381,232378686,127,0.74,0.6,34614757,33332000,1010000,55049682,13
83706246,495495,53452051,115974,48164212,91146,73882,330057,118498701,28491,84279520,34,3265,263089406,518,0.83,0.68,37890500,35621000,2035000,58895126,13
40258380,67312,24965347,67090,24609491,67091,31540,206553,55042517,14926,39587303,2,1055,135489622,133,0.39,0.35,16559137,14227000,2032000,38521060,13
78238158,108122,45497647,81078,45812364,77446,39208,278062,106241679,13300,79034363,25,3467,227907839,129,0.75,0.61,34264343,31950000,1996000,54525233,13
76606086,153122,45609858,90134,46123047,85920,42008,287471,109292589,11145,79121172,55,3582,226958002,128,0.74,0.61,35230738,33828000,994000,55976745,13
29714258,108336,17253878,68158,17055657,67874,32575,206807,41839117,6723,31056290,0,935,99741638,134,0.28,0.22,14843826,12588000,1936000,36204242,13
36751884,221263,23532295,83101,25135078,91194,39758,262641,53369152,18347,35105794,41,6096,118613848,590,0.37,0.3,18199984,17889000,0,38674932,13
76862768,121987,45740815,81359,46270878,76780,39631,278273,105956798,11229,79422168,27,3405,228661156,128,0.74,0.6,34308739,32935000,998000,54582668,13
78867532,111109,45316783,87115,46052748,81568,39064,273227,108273161,14972,78534745,35,3410,228575163,127,0.74,0.6,35384474,34115000,1003000,56992939,13
84821910,213074,49875029,85538,50304821,93124,72324,372759,117770836,27043,81946265,85,3886,256439456,518,0.85,0.71,34593306,31290000,3028000,55575399,13
36595055,270033,23073748,78258,21984620,78089,64609,290619,50646106,23548,33802864,0,1111,117693435,525,0.35,0.28,16717055,14411000,2058000,36557878,13
78478074,102277,45226991,86786,45507517,83103,39675,283847,106889509,17030,79280777,68,3370,229174855,130,0.75,0.61,34665474,33373000,1011000,55094117,13
30476168,114836,17131626,71807,16768041,71692,51701,237952,45620924,14535,32155758,0,852,103926817,329,0.32,0.27,13202483,9943000,2983000,33437044,13
76605786,129666,46167018,79595,46514348,75247,38312,276067,104306537,11321,78780962,27,3183,228202404,128,0.71,0.58,34187356,32877000,996000,54188200,13
30025161,151221,16580630,70679,16210643,69725,65530,256607,46601611,24284,33535049,0,885,106019393,523,0.34,0.28,13377990,12065000,1005000,35579123,13
84057820,292919,51198025,103639,47346837,88172,63062,313861,116261500,17776,82633185,181,3803,261980428,325,0.82,0.67,37431039,34135000,3011000,58330050,13
79352391,88436,45414840,81681,45188362,81558,37754,266664,105275771,14359,80134656,0,1991,233058736,130,0.76,0.64,30897382,29573000,1019000,51910164,13
82571129,524172,53033915,113974,49358273,91947,74933,346806,119953991,26269,82883582,193,3702,257132663,517,0.85,0.69,38470432,36232000,2012000,59078783,13
28720933,104677,16132541,73063,16122860,73621,34184,200691,42736257,6023,31445658,0,1290,97338210,135,0.29,0.24,12301194,12021000,0,33014906,13
78289539,129548,46189181,84826,45535586,87112,43865,281683,107896518,10677,78154360,3,1943,229030728,126,0.78,0.65,31649025,30220000,1007000,52123109,13
82761380,245320,48418797,92164,48131873,83517,54490,298846,113413608,20348,83905189,207,3726,263274143,323,0.82,0.67,35957301,33628000,2038000,55960078,13
29245290,92527,17040425,76286,16877677,70031,31823,207410,43264644,9129,31796656,135,1561,102782445,133,0.31,0.24,14106493,13729000,0,35487558,13
28638117,98549,16801379,65629,16785490,65994,31308,198765,42780823,6319,31796552,0,875,101647136,135,0.3,0.24,13890769,13587000,0,34455607,13
79112635,97655,45676408,87078,45784133,83395,39874,286184,104874260,17602,79536410,26,3310,230966334,129,0.75,0.61,34353580,33006000,1000000,54654947,13
84336327,483325,51274953,107046,47383681,89337,73966,325540,115785700,27404,83387340,36,3378,266917312,519,0.82,0.67,37824005,35444000,2025000,58889997,13
81924201,275448,48746444,97907,47847178,85169,56216,294549,114904212,18038,84949512,20,3359,265099709,325,0.8,0.65,36629611,35306000,1008000,57262662,13
83262236,170009,49022801,85036,51676033,91470,56011,306057,112312213,14192,83515218,47,3460,243441803,324,0.82,0.68,33240849,30908000,1994000,54173311,13
29535095,92023,16273365,71748,16269739,71319,33111,211109,42635925,9067,32185674,163,1414,100265244,132,0.29,0.25,12320387,11991000,0,33297030,13
30838701,125287,17555400,79977,17084165,71394,48939,238959,45497610,16875,32785563,84,1552,107942567,329,0.31,0.25,14796774,13371000,955000,35594388,13
84273495,113502,48794827,82509,49300303,87620,55495,308292,114394005,21401,83320973,49,3273,258090289,326,0.83,0.69,33994659,32656000,1020000,55007506,13
29205979,120528,17295734,66934,17108412,66964,32872,201713,42476652,6028,29980781,0,971,97464574,134,0.31,0.24,15327583,15033000,0,35230788,13
82760807,266779,49300336,97001,48436164,83101,56650,289214,113741519,16949,83210219,28,3274,262340197,325,0.79,0.64,36649880,34399000,1965000,57704015,13
83087085,225560,50906382,91848,48724007,81783,54089,284523,113910715,24309,82070129,20,3216,259899101,322,0.82,0.67,36294722,33992000,1999000,56953928,13
81632311,309611,51092833,103592,48242219,85526,57777,292978,117068985,17303,83775076,32,3400,256993597,322,0.82,0.67,37708054,34341000,2943000,58252080,13
83835184,270445,52522279,103844,48031379,84103,56122,298981,113140908,21486,81424323,192,3735,257530821,321,0.79,0.65,37171714,35933000,998000,58561090,13
77700479,102217,45892642,79958,46407876,76843,39470,275149,104598036,12922,79156526,28,3304,227912766,128,0.73,0.6,34094849,32739000,1023000,54558330,13
28509452,104968,16895940,68139,16895529,69498,32335,205852,42531557,6181,31619849,0,891,100836143,135,0.31,0.25,13888373,11817000,1818000,34729108,13
520740,77526,1623157,37608,2694083,38095,23155,117415,11768415,8984,5724639,0,?,?,227,0.09,0.07,3059492,2767000,0,24223084,13
82871411,284767,50775770,105197,47405043,88429,59132,292861,114778381,20013,83977519,64,3864,263742291,325,0.8,0.65,37249278,34841000,1990000,57108795,13
30156660,83399,16939361,69284,16687573,69781,32212,220984,44057043,12790,31080415,107,1586,99680172,132,0.31,0.25,14658966,13272000,1020000,34604039,13
78832784,163693,45139764,90454,45207017,82688,54593,306201,109324246,22158,81120122,214,3852,236918319,323,0.78,0.63,35055276,33663000,1020000,56472661,13
77438885,199373,45259113,85118,45891298,78981,69649,320241,109756376,24760,80943450,53,3320,231884217,518,0.78,0.63,35387137,32995000,1999000,55900432,13
34741128,123834,26177204,68555,26813866,62260,31617,216408,61980137,9516,36749012,52,2913,140244095,132,0.43,0.35,20660368,19215000,1011000,40732142,13
36960123,116560,22198868,74183,21918796,76828,62666,302007,49305459,28192,32306602,46,1230,117220717,524,0.34,0.27,17635079,15306000,2040000,37712528,13
31006644,87548,17694212,71253,17424550,70653,36776,213013,40766487,9395,31726696,0,943,103780452,132,0.29,0.23,14578245,13240000,1018000,35182059,13
34563325,306197,22971844,79331,23075305,78470,45602,259584,52379786,23439,36526403,1,3993,126337063,588,0.37,0.31,15086275,12803000,1969000,35894719,13
78526444,110500,46199685,81725,45717749,85112,41095,280069,106297869,12446,79493640,31,2229,233893028,128,0.74,0.62,31310607,29939000,997000,52224998,13
77979919,118253,45792907,83172,46103789,78319,38583,281592,107362586,13180,79413866,25,3307,230004141,127,0.77,0.63,34434092,34154000,0,55046997,13
78413715,133531,45810605,82523,45585009,82678,54053,296703,108479734,18478,81180965,1,1972,237131903,324,0.79,0.66,31360789,29099000,1939000,52475673,13
79440211,160262,46458175,88728,47563969,82447,53327,290694,107962606,17642,80769730,50,3317,234825343,324,0.76,0.61,35803487,33565000,1974000,57177332,13
29509300,86421,15979935,70730,15972859,70012,34220,196089,41614121,9306,32045324,0,1220,99528387,133,0.31,0.26,12262307,11043000,1003000,33030818,13
78178253,122706,46219697,81586,46524805,78112,36960,272569,106895623,11718,78161280,38,3303,226602618,128,0.78,0.64,35023475,34693000,0,56263335,13
32824622,65916,18640155,68686,17834583,70295,31817,215845,41628951,14237,31830008,0,911,104945799,136,0.3,0.24,14586612,13201000,1015000,35548341,13
29834175,84092,16845950,68013,16730709,67710,32388,202553,41966900,10090,31191378,0,946,100500423,133,0.29,0.23,14548087,12285000,2047000,35832410,13
31136878,69274,17247689,68656,16591141,68853,31840,205534,40546541,13769,30307082,0,915,99579981,132,0.31,0.24,14411923,12091000,2015000,34919809,13
81826011,239325,47343052,89776,48130844,84743,54710,296337,114151692,17511,84710827,28,3398,266114262,324,0.8,0.65,36035412,34675000,963000,56882482,13
80064079,80346,46150446,83720,45920293,78585,37642,275468,103493631,17854,78331325,47,3106,230787735,130,0.73,0.59,34320765,33036000,1001000,55686515,13
80657656,92453,45313640,86016,45523611,81410,39006,285173,106877651,18573,79310070,18,3308,231600195,128,0.74,0.6,34957154,32582000,1916000,55903910,13
79336925,96624,45849186,84312,45918067,79632,37907,274353,103766475,17604,79209346,29,3287,230354326,128,0.74,0.6,34170715,32903000,997000,54576065,13
78043623,122903,45669384,83822,46483127,79447,38195,264129,105883278,12480,78633626,36,3196,227714316,128,0.76,0.62,35173337,34934000,0,54833530,13
76562800,145828,46103278,82438,46662859,78860,37745,272415,105614748,11827,78709112,57,3514,227134687,127,0.75,0.61,35119411,32800000,1987000,55336686,13
33023278,115659,19292533,67759,17671637,68381,65875,255734,42770233,26603,28804941,7,994,104197789,525,0.31,0.24,15617161,13316000,2048000,36922035,13
35276856,140625,21872893,79772,24368310,88595,52863,280941,53856311,18111,33100590,37,5090,113741500,523,0.39,0.31,18896784,13423000,5163000,39330935,13
82617843,510817,52142498,108952,48940932,90626,75590,343194,120495210,26238,82874637,28,3497,259648208,518,0.86,0.7,38309527,35022000,3001000,58627559,13
84078818,274866,50675504,94085,48095574,83798,56393,288495,111802613,22039,81750889,42,3373,263468305,323,0.8,0.65,36616215,34441000,2025000,57444117,13
38234248,169750,24827243,72634,25954156,64085,63590,271114,59463425,26559,38885771,162,3073,129615529,523,0.41,0.33,19901276,18700000,984000,40502158,13
76977996,157802,45631597,286450,45425583,280616,41098,265381,117567404,8487,78852412,27,214340,227988282,128,0.84,0.68,38019359,34802000,2983000,58128551,13
92213036,407801,55217989,128605,55068427,116470,68336,395657,130835164,21066,95213252,0,2998,280372894,421,0.94,0.74,43315957,41920000,998000,64406420,13
83289808,134896,47991042,83641,50511532,90663,54998,302637,113804822,17947,85117472,34,3321,251174786,324,0.82,0.69,33013653,31681000,990000,54117853,13
76215363,137122,46137651,80162,46664773,75980,39167,272072,104795974,10391,78472225,34,3490,227598691,129,0.75,0.61,34457900,33260000,1007000,54335851,13
77451605,136831,45855533,82055,45939280,81310,37970,265807,104086137,7748,80067308,0,1940,230822267,127,0.76,0.63,30692557,29450000,1015000,51944604,13
78137139,137935,46283261,85053,45492369,86280,46046,281825,108850912,9211,78480167,3,1905,230479317,128,0.79,0.66,31658376,28282000,3030000,52478787,13
78167844,94874,45771493,78843,46382688,80639,40006,269186,105302438,13793,79312547,23,3314,228098805,127,0.78,0.64,33158559,31805000,1025000,52928369,13
78619447,96154,45851473,85350,46070708,80306,38790,278266,104580414,17738,79353295,54,3526,230665657,128,0.77,0.62,34101027,31835000,1989000,54696752,13
83135988,289832,51677470,104667,48556589,93302,61653,313921,114893060,20451,82570975,36,3264,259023194,323,0.81,0.66,36872171,35649000,1018000,56787953,13
79202043,112090,46142442,77092,45347112,82202,38773,264683,106779011,11311,78355864,9,1993,229704663,129,0.79,0.66,31453343,29312000,1954000,51576053,13
78242612,112295,45366555,82968,45780540,78515,37620,277424,107518258,13703,79863631,25,3200,230321857,128,0.78,0.64,34419931,33068000,1002000,55326375,13
79859141,151591,45865847,80353,45783722,84241,71727,322929,113671864,29031,80993621,42,3288,236824651,519,0.82,0.69,32915432,30730000,1920000,54101496,13
79282334,106705,45138080,88116,45622445,84648,39225,274603,106728896,16360,78286361,34,3244,227853076,128,0.8,0.65,35058596,34740000,0,54824005,13
76741506,136139,45516676,81703,45930921,76612,36601,276442,106312549,11366,78645531,28,3520,227319367,129,0.74,0.59,34921797,33682000,990000,56366050,13
77534656,129405,45176641,84465,45962556,78776,37875,253699,109776948,11596,79184462,18,3504,229618819,129,0.77,0.63,35607525,34354000,981000,56067836,13
35381410,198162,26545671,56529,27728313,51500,36633,188184,63784475,10791,36875254,32,2439,146702947,259,0.45,0.35,22021942,19917000,1896000,42805025,13
29960632,99271,17360469,67698,17140948,66779,32578,203262,41405339,6974,31086157,0,965,101602719,134,0.3,0.22,14979935,12705000,1954000,35700168,13
77029010,138672,45823997,83895,46179812,79146,37509,274314,107546308,10870,79174767,34,3289,229645873,128,0.78,0.61,34963612,33694000,962000,55751183,13
78625185,108863,45748097,86588,46362959,81418,38576,278512,105502363,14440,78318137,44,3197,226298044,128,0.74,0.6,34909734,32631000,2039000,56384043,13
31416482,87374,17399447,69193,17205688,68995,32173,209334,38947385,9395,30888862,0,914,100901273,133,0.27,0.22,14395742,12082000,2013000,34728906,13
76793196,119091,45700642,83726,46218498,78391,39178,286740,106980654,12026,79967016,222,3743,231028774,128,0.78,0.64,33820328,30705000,2878000,54648462,13
80629253,203283,48990279,85976,52289792,99061,62916,351070,116717073,15774,82182557,30,5886,245711750,520,0.86,0.72,34271138,31987000,1999000,54182861,13
27724679,127994,16380726,73028,16247267,72026,34337,178868,43155897,5283,32024955,0,1780,100501261,132,0.3,0.25,12227612,11005000,917000,32653145,13
79246094,97542,45727369,96413,44902300,84038,38970,266350,113393045,16302,78943653,28,3261,230377068,128,0.83,0.67,36992473,34663000,1980000,57933210,13
82162837,317175,49621731,98632,48287400,88094,57599,300797,116292046,16704,83900852,60,3378,262662138,324,0.81,0.66,37573242,36290000,1008000,58853913,13
84924557,135749,48499305,90151,48461526,94749,75216,386380,115909368,28094,83881204,61,3549,263893367,518,0.85,0.71,34052488,32685000,1021000,54942196,13
31479791,73488,17834356,66041,17233904,66499,31562,204631,39184540,12328,30038763,0,1007,100890283,132,0.29,0.22,14680639,12316000,2052000,35068774,13
28382076,114529,16924576,70461,16677515,71063,32540,211107,42472096,6122,31783201,0,932,99765829,137,0.3,0.24,13376026,12081000,1006000,35034053,13
84067979,397214,51415680,109367,50249949,97213,52518,326178,118987794,24651,86722096,67,7527,264684542,777,0.85,0.7,38414315,37051000,1001000,58927773,13
78611671,118695,45757140,93413,46094914,87702,43403,285152,104817512,13770,79493763,31,3368,229606050,129,0.75,0.61,34291011,33014000,1000000,53901098,13
80933724,114004,46141247,90054,45500208,85474,56343,296231,107564713,24291,79337045,36,3384,234985747,323,0.77,0.63,35520171,33080000,2004000,55852898,13
79057290,98511,45112810,85324,45247417,78965,39121,274657,105583990,16162,79439759,33,3498,230001869,128,0.75,0.61,34705837,32331000,2020000,55063258,13
81381676,274351,48382458,93560,47980190,81487,56217,285929,117118939,18372,84692061,55,3499,264681079,325,0.83,0.68,36673359,34200000,2011000,57061375,13
82151942,1450810,92983776,2429288,95285307,2228604,207285,784566,250744021,93083,84292597,150,32976,471468923,3659,1.72,1.42,73818803,67318000,5939000,122359387,14
130597328,2573208,179317549,17376553,180046115,17565354,254408,1402660,638978572,154418,122726006,155,30752,838272143,4203,4.29,3.53,190812414,179535000,11032000,211606539,14
135076146,12116643,218498273,18042084,219803366,17941814,755344,2920743,755843967,896195,133897855,7,45317,927399759,8300,5.03,4.12,224936157,210604000,13973000,245219319,14
88224266,239185,123304376,13255002,123002521,13291228,103836,837815,605781968,77196,88256566,49,9068,527024527,134,4.04,3.33,177751117,176565000,1003000,198464170,14
33067951,86188,13978534,153472,13655217,143785,33476,198323,68780539,11310,32804764,12,2351,99789716,136,0.48,0.38,23331438,21069000,2006000,44274361,14
89271970,290826,132807194,13560331,132864402,13553653,124902,953545,687216974,96766,89421598,129,30418,575490242,132,4.52,3.7,204612044,203272000,1001000,225385085,14
95675193,1968591,150693072,16336987,153488639,16377297,247446,1288845,594196785,95158,94023420,364,26323,683706228,3621,3.94,3.22,178709637,168400000,9964000,202107244,14
97186990,13929203,178699000,16491374,179686400,16669095,510533,3242044,716383178,1240305,95292351,0,50389,832684085,6283,4.9,4.05,210660631,199308000,11017000,231843695,14
133117374,7750189,158183655,5481711,167861530,5448414,1150215,4137774,1539343834,295382,137808020,369,44116,750730914,4235,11.46,9.6,453918757,444668000,8973000,474615118,14
87062002,259646,125085286,13315059,125312771,13375420,109908,879341,635935703,66074,86712800,233,10393,494420703,135,4.15,3.39,190239949,189012000,1000000,210610795,14
154031358,17405431,254989902,17088977,255983222,17442367,710004,2682034,859047187,2054847,153412342,283,53648,1082887140,8301,5.7,4.66,256797611,242559000,13974000,277467527,14
118423677,16564203,229721074,15939970,229386716,16081464,648659,3826896,747809192,2302598,115111458,559,61159,909210830,8301,4.97,4.06,223535309,213188000,10008000,244714618,14
124043783,12410373,185499002,14996998,185068955,15524305,573502,3001314,709929070,879319,119977827,195,42953,945096057,8297,4.8,3.94,211728376,197507000,14036000,232985348,14
86995812,297463,125017232,13338209,125313599,13357425,115190,908918,635587252,91061,86849345,219,10750,493813666,135,4.17,3.41,189986530,188715000,998000,210132091,14
88763484,2867823,166733075,4012455,165338062,4053393,385775,1286643,388220078,125371,89320403,712,26235,677280346,2181,2.63,2.18,109847198,106501000,2986000,131240526,14
84821619,2987372,163189279,3305334,162491595,3411733,509284,1560378,356174264,174386,81771072,227,26392,608695623,4229,2.42,1.99,104317142,94892000,8989000,125687006,14
129518273,12054234,235643349,17682274,243440863,17474022,786441,3262158,786032988,1394460,129792948,452,58990,979554389,8301,5.28,4.32,232617735,219291000,13017000,253823533,14
134544788,12989517,247714413,17652586,247407431,17783139,747984,2629171,782155595,1263162,127800718,373,85362,989477593,8300,5.33,4.39,229579571,209286000,20027000,251691761,14
65802209,1143286,27865188,286205,26833114,260732,654741,1593592,203271646,166028,61757088,228,43492,197214756,8516,1.42,1.16,63228428,44619000,18253000,83939973,14
86328028,2580912,98803083,2594741,99654866,2452814,386540,1351311,285231544,184823,84713962,130,51576,475074391,7147,1.95,1.59,86919027,69675000,16921000,107602895,14
224002988,22705281,288147065,6395288,291675514,6291964,992877,3391391,749635031,283364,229360140,181,104479,1356359369,10349,5.21,4.29,223647818,212349000,11018000,244420137,14
99628177,11048350,186282427,15609027,192818128,15678375,651480,3157857,685865923,1156693,96169167,132,53874,794280715,8295,4.55,3.73,204098379,195707000,8029000,225356807,14
71440666,1566577,170615472,15120843,166166355,15121503,204081,954809,509110115,48663,66018553,96,15189,560466150,1603,3.3,2.69,153264131,146978000,5958000,174689295,14
141820762,16690528,229112666,15594287,228162436,15610019,671674,3541749,751580156,2305430,137411003,281,58480,920591406,8304,5.0,4.09,223104503,208828000,13988000,243329352,14
227871050,25124292,283853027,6416434,282723006,6593876,957626,3238853,750832122,287007,238391259,139,100763,1366688529,10349,5.26,4.33,226269401,205998000,19999000,247836383,14
103584028,17121118,246095884,15225808,248298002,15058865,644702,3530613,729354107,1529882,99861330,312,31508,939856003,4230,4.92,4.04,217754410,208453000,8976000,238255705,14
17290918,794620,22740403,75997,22523191,75100,155140,505860,47242167,86774,14973380,0,11928,109379829,2304,0.35,0.29,14378835,9087000,5048000,34903744,14
149450427,17065278,254415192,17913250,258257394,17885299,692655,2600472,825296027,2199071,151231782,523,53695,1063645959,8298,5.55,4.55,245746138,233348000,12017000,266540453,14
27102778,632923,15245985,156409,16049827,154165,247821,596930,133116386,109547,26869720,5,11676,100739576,2182,0.93,0.76,42458638,36104000,6017000,63004118,14
102108343,20889252,210770128,12794253,209299487,12993016,338748,2602911,692442247,2678588,104277091,117,22231,881376591,2183,4.65,3.82,206618997,201325000,5008000,227555170,14
118224876,1688440,219798124,15601712,219769744,15528501,254341,1414887,656916282,106727,116936306,117,28671,903831679,3627,4.34,3.54,196969827,192674000,3993000,219207530,14
73551177,1629089,129664418,2492418,128194714,2472246,191468,801744,269567712,103520,76238269,184,25241,498958627,3346,1.82,1.49,81129787,74659000,6053000,102455176,14
62277679,1179295,32310480,342381,31371894,321697,463331,1172372,193378234,180314,58263758,57,44909,199952011,8301,1.36,1.11,60683972,49421000,10872000,82503105,14
154538368,13063523,164621503,4610937,164431217,4649639,747204,2389290,470135241,821469,164407154,304,85452,847552174,8301,3.28,2.7,140553416,124279000,15907000,161372600,14
83907587,3517199,179620046,15607455,181418878,15698514,467695,1946854,599394184,174741,82216775,339,53366,627125950,7140,3.98,3.26,174832976,155523000,19064000,195629119,14
83022491,18907853,161507825,3839749,162891923,3669439,598716,3259241,386867112,1600784,86669138,148,32415,582277314,4228,2.71,2.22,117247947,107910000,8992000,138790570,14
110838619,22363560,215647392,16837508,215564366,16684018,468836,3635775,757827909,1716375,110369857,114,35472,976541164,4236,5.22,4.31,226088264,218766000,6992000,246183793,14
149912524,18693685,284642168,21611890,279146815,21815395,982921,3357776,947841440,1907099,147515273,108,45664,1137731843,8301,6.45,5.31,281083574,268825000,11947000,302592087,14
80023771,1481410,163567517,15453084,167259624,15405882,150642,956488,521852012,44306,78946529,66,18474,669162394,2029,3.52,2.9,153611883,146260000,7012000,175140771,14
602728084,18523647,529084311,12826511,528798987,12974169,853679,3659381,1385564590,2333308,608373333,1814340,1804605,2536500717,6282,9.7,8.04,409911497,394598000,15022000,431632963,14
85189658,228779,123551823,13229659,123462681,13246957,107752,868134,612789067,108739,84997429,0,8290,487640199,135,4.11,3.37,183561021,182299000,1001000,204410527,14
154215382,16870998,256018064,17667944,256062133,17535934,773896,2768187,842468598,2132819,149966796,39,56534,1122573562,8297,5.78,4.74,249732018,236345000,13019000,270634836,14
86336314,2944972,209414695,14989315,214681864,15117819,460376,1817815,632436033,170403,84254831,119,41787,744464865,7144,4.17,3.41,189713683,176378000,13027000,210976205,14
132230956,12739132,155216552,5134420,159887554,4953526,556645,2035384,448877799,1076429,134897679,77,61239,724046462,8301,3.17,2.63,131413975,118075000,13008000,152615439,14
161625626,17114494,175814569,5005099,176306097,5072083,762308,2467964,507353025,1979932,168283669,17,81562,921888823,8295,3.6,2.97,152808616,142453000,10031000,173779097,14
64856874,2852828,94661101,2562591,94715841,2482230,428930,1065612,248910673,164923,65817983,66,50569,418221585,7171,1.72,1.4,76673146,58256000,18079000,97853428,14
153939311,1563818,213543720,3326003,214615097,3351331,254210,1155795,502085655,92736,154526106,89,38319,1010123677,3340,3.42,2.83,147007255,141668000,5023000,168391550,14
77883630,5534868,140091097,12567406,143200309,12745751,2308394,5119492,773190156,713550,84016564,72,198304,538071794,35215,5.28,4.32,230113497,167817000,61932000,249851046,14
196323323,17713442,260733220,17728242,258447283,17687818,882552,3083687,849699522,1914841,193333649,55,56669,1216241496,8296,5.85,4.82,252737648,236331000,16022000,272867784,14
120369057,17335510,225361549,15501237,226955296,15740080,556006,2914703,725068716,2301746,122514203,77,48701,927961877,8303,4.89,4.02,216595896,200201000,16016000,236437128,14
151049876,16927491,253796650,17001755,253402329,17329446,818819,2856188,887604242,2166863,149887540,49,43176,1210284436,8302,6.05,4.97,263530050,245162000,18011000,284849114,14
86136346,292074,124694573,13344893,123931167,13314356,111927,895932,617099550,85077,86237296,42,8598,492133167,136,4.06,3.33,184049146,182742000,998000,203779251,14
197355413,17433312,257832348,17525821,256897281,18128790,762076,2801089,880113602,2216452,194431019,283,47410,1190199824,8297,6.0,4.93,261645006,250260000,11011000,282529140,14
85798057,253096,124056881,13401200,124298725,13422468,118639,906269,624855340,108924,86119900,233,10424,490126232,134,4.13,3.38,188210788,185824000,1998000,208114109,14
192511949,16834957,256598902,17535373,255894322,17481599,757937,2752725,839181822,2188886,190185403,70,56455,1159858659,8301,5.73,4.71,249290809,238753000,10031000,269299841,14
41809114,220139,97929751,12924148,97930510,12931493,89758,700872,469389005,20669,41542006,42,6821,385941331,136,3.1,2.53,141191001,139906000,999000,161636374,14
177126561,17277411,257890932,17414999,259656889,17756397,766072,2776716,868858800,2162498,171824878,166,49140,1181598900,8297,5.92,4.86,258789799,246438000,12021000,280620665,14
76867396,140269,77823215,610171,77620813,629073,58528,438357,250781809,15375,77581714,10,3305,397748501,134,1.74,1.44,73440816,71240000,1978000,93914801,14
148561818,17973080,259575989,17681890,259854836,17679418,871193,3232484,823664208,1955178,153481608,70,53101,1081483703,8296,5.73,4.72,241039095,228744000,11986000,261303699,14
120582603,18970688,214683137,19871486,212601614,19905229,722889,3741767,794838104,1724176,114946122,35,49214,869955049,8300,5.55,4.56,237857734,227588000,10025000,258317265,14
193943287,16848526,258607867,17711537,259793391,17599242,780964,2851913,849978251,2203506,192789836,53,50838,1220977230,8297,5.95,4.92,249661665,241348000,8011000,270517400,14
161396552,17708538,178682613,4906494,178224150,5079659,744819,2435507,512562603,1887732,167914425,5,81891,920190946,8302,3.67,3.02,155465116,141123000,14012000,177169769,14
173551822,17551691,258508824,17923414,256911873,17833750,868834,2968722,852780451,1894159,167535567,288,53792,1158043446,8302,5.79,4.76,252904564,240508000,11975000,273822646,14
190493450,18463126,287082049,22656863,281702309,22798221,925776,3339921,908654274,1946776,192734341,7,52056,1117634945,8301,6.39,5.28,267784100,258444000,8980000,288699179,14
41654091,226822,120252316,13384586,120548145,13373494,131933,731630,475780075,150977,40903910,18,6755,401573826,134,3.23,2.64,143612098,140980000,1999000,163795304,14
112755353,14430510,132603050,3004969,135292998,3056972,471962,2533138,365721688,1635222,122917731,24,84219,643820536,8301,2.62,2.15,112323587,95910000,15985000,132862191,14
128039600,11042344,135525829,4838559,136874134,4837788,588229,2019197,403401860,1023943,139011737,74,80290,665554966,8302,2.92,2.41,122135141,106701000,14958000,143187491,14
95530975,2489618,79901128,5100246,77617032,5203032,273701,1061262,262544736,122114,101126304,51,27398,447587463,4202,1.87,1.54,81543582,68137000,13026000,102051603,14
195284664,17903152,261422732,17229093,256019291,17317050,1032182,3314565,903783008,1895471,195241885,71,45022,1341518593,8296,6.34,5.23,267168250,253924000,12945000,287724871,14
153989268,17467914,260514997,17708502,258771058,17777228,680238,2548020,819600766,2271367,145133342,101,60249,1055810016,8299,5.66,4.64,245155709,233859000,10946000,265515744,14
68632883,804096,91035971,2087275,90474194,2080731,109663,583193,218446806,49408,70203460,16,25111,441898213,1735,1.49,1.22,68261773,61813000,6080000,89481462,14
141243188,16584342,230088562,15498310,229506937,15770954,662518,3685014,760088905,2296700,137700501,35,51732,1052175686,8306,5.37,4.44,223903387,207465000,16035000,244652148,14
89500994,795673,109900310,13629805,111457696,13760697,292798,1237849,549539679,135944,89687170,62,39233,553211226,4264,3.81,3.13,163830615,156475000,7021000,184684625,14
147741575,17140512,177525905,5111054,178840744,5132051,649766,2275746,506803169,2050648,157223362,1,83945,869841276,8303,3.61,2.98,153094674,135670000,17084000,174229849,14
148122836,17263634,172813625,4920426,173261288,5107397,621002,2144660,497812196,2187310,156310926,39,85346,857405295,8304,3.56,2.93,151077875,135778000,14975000,172717396,14
202499867,14878210,296701205,22464956,294530193,22847563,954746,3331571,989535701,278818,195611125,361,74389,1250960422,10347,6.77,5.57,291070722,277601000,13028000,312103069,14
39368575,232569,96043296,12384222,95831155,12361445,87164,703856,462445871,153234,38685877,0,6448,320619276,133,3.03,2.47,138932688,137613000,1004000,159172282,14
155361283,17002259,256417419,17859165,257331863,17861746,665673,2770298,883549368,2236941,150071886,106,60268,1193114621,8299,6.23,5.14,259936557,245646000,13923000,280691224,14
96465091,3275564,138184941,12527606,138664931,12307682,1336222,3467459,690795180,585037,106751684,79,114274,574338181,20355,4.78,3.93,202725174,170317000,32059000,224149966,14
174686256,19271169,294719538,17432217,297190519,17268860,765908,2816069,922175224,1660060,170337651,175,61994,1250307678,8300,6.39,5.24,273930877,257434000,15964000,294898197,14
160415428,4981626,221957820,17898703,223654379,17799123,916273,3094350,772185145,254090,160814418,58,51275,905775640,8300,5.37,4.4,231195518,214834000,15987000,252605989,14
82306721,1394560,93378106,2776135,93123119,2491891,187997,843805,249485526,96170,83267810,96,37122,474243585,3619,1.73,1.41,77525327,68272000,9036000,98169082,14
138251774,17974644,224079943,15823615,224707451,15921755,744443,3701268,773161788,1748354,138775438,86,53334,979342386,8302,5.28,4.34,230664460,220306000,10013000,251653970,14
157540199,16675083,265407667,17808215,267322582,17802188,626040,2632982,874818492,1880979,149664549,128,62019,1187616788,8299,6.08,5.02,260311777,242925000,16994000,281221288,14
116307409,18217948,149980594,2913582,150037228,3020537,463967,2839154,428334630,2210221,129866706,8,84259,722161299,8303,3.0,2.47,129482664,114215000,14897000,150443228,14
150902710,17358544,253314799,17227460,257624294,17104984,781351,3053543,826952524,2156505,152658472,135,58228,1062688376,8296,5.64,4.63,245462621,227177000,18014000,266745189,14
86772524,772460,116196066,1608004,116486969,1557310,113214,617066,242890028,61220,90000941,67,23391,513166702,1742,1.68,1.38,73759626,68378000,5027000,95551482,14
108636261,19709523,217879321,16423597,218492704,16815388,427798,3333732,744519425,1729717,104753654,0,39928,843973017,4236,5.07,4.16,223083047,215740000,6991000,243540557,14
132589270,3703003,123911169,3363649,116787495,3308767,918095,2089594,389566567,320083,127852368,104,88437,662707339,12137,2.77,2.28,117111335,94950000,21759000,139048097,14
53661597,266505,102023124,13131644,101584026,13121028,98746,728564,472883140,94386,52205850,0,11007,332816001,130,3.14,2.56,143300096,142014000,1000000,165066845,14
45706428,570805,60761706,5804873,58635639,6103561,200159,571966,218453773,67209,45158202,37,13289,266209877,2301,1.47,1.2,67584817,59517000,7805000,89046686,14
80785012,3444601,62993198,3225096,60579048,3518840,451206,1284150,233803932,189789,85471240,15,36941,371261296,7144,1.72,1.43,69123546,60685000,7958000,88153202,14
118083617,17472158,225318014,15850382,226495920,16026078,581550,2941966,723069676,2368800,121613096,82,52147,909614601,8301,4.96,4.07,217182465,202826000,14057000,238670995,14
118031259,16544604,222430308,15588425,224901973,15861692,506685,2724862,752147349,2227653,117018899,133,56298,1023194621,8295,5.24,4.34,220335603,203922000,16072000,241328347,14
36254791,168050,81018061,15253477,80523473,15207013,77071,641501,389268166,27236,36732824,80,7080,292882689,135,2.64,2.16,118361211,116111000,2001000,138866668,14
253154902,858912,222774911,7742444,222124654,7696036,146554,1256977,640178671,78687,252559665,875,19112,1359544105,1192,4.62,3.85,192066561,190805000,1004000,213585064,14
152823566,17216405,257072868,17813904,255120538,17759778,866954,2994504,839719328,1976342,147105199,37,56688,1096709496,8301,5.74,4.71,251013417,237691000,13037000,271737971,14
74615458,1438145,185215060,14598115,185978134,14255444,319233,1429614,637652563,155111,80397287,86,22433,783591353,3345,4.33,3.56,189794891,181452000,7975000,210393889,14
87151829,2783442,98249970,2475493,99018351,2315620,393749,1363024,287221117,183352,88245517,89,69754,473443994,7146,2.02,1.65,89793978,75365000,14068000,110722738,14
112299044,5417220,180967951,16968324,177512361,17345358,773575,2628782,664596384,212218,109448027,44,47396,717143010,8297,4.58,3.75,199610880,189297000,10015000,221036032,14
112801482,568596,81577238,1596459,80870584,1514263,172352,686980,183546052,43081,110934590,424,7759,365606256,524,1.24,1.0,60318557,56642000,3034000,107280162,15
115224868,5523509,121168748,2730920,122089495,2743716,1104305,3998694,508327704,1424639,116198965,5757,31822,521928424,3258,3.34,2.72,152990862,142647000,9975000,173815552,15
112143517,527906,79132925,1614779,78345399,1621363,112337,515772,181452169,34881,114770170,0,4486,369963438,524,1.24,1.02,56832618,54535000,2019000,78360958,15
115942628,994459,83042942,1679226,83545074,1557130,159722,730248,198215745,85670,112676761,179,17839,365092610,1943,1.39,1.14,62632803,57277000,5024000,84224353,15
158432518,3366159,104617329,2085168,103412476,2096536,1178117,2230348,358496573,538688,160952426,15855,214630,531207707,6468,1.83,1.6,54596478,51393000,2964000,76431358,15
18060409,581561,20126562,1523780,18935984,1538473,93497,349922,77062503,27959,15707204,32,2698,141889773,516,0.53,0.42,26078895,23683000,2059000,46787045,15
135280342,771736,84461040,1727159,81193747,1705439,147806,578866,197040367,57377,132594052,2,4795,420281126,914,1.45,1.21,58844693,54449000,3959000,80980246,15
117473928,923239,83496521,1561759,80561094,1566407,164928,718038,192981505,78430,109056360,219,12070,373836467,1946,1.36,1.11,60098328,50731000,8952000,80248498,15
423907189,670564,264227985,2140131,263213875,2088070,182908,1018654,599810211,49742,423432506,79,13816,1235695861,520,4.26,3.54,177650406,175092000,1989000,199413402,15
128851357,1258825,90820913,1780029,85399325,1811248,253314,1047895,217099417,102005,124522258,50,9352,450913073,1695,1.55,1.29,63431695,58948000,3996000,84406481,15
431320319,695318,272408312,2211045,273342978,2000947,195019,1071117,612643452,55524,436932035,221,13132,1279791870,519,4.4,3.66,182411349,178993000,2999000,204287169,15
102382215,567270,109118235,1442653,111315783,1437524,123871,578342,236526207,34150,101367933,0,8548,457831934,520,1.64,1.37,68800084,62607000,5869000,88192139,15
117569781,520518,81701880,1594840,79986186,1613241,116191,595615,185302367,48020,112682697,1,7985,376132207,1040,1.28,1.04,58794055,55483000,3026000,80598728,15
121102181,577237,87883269,1557792,84579981,1574101,245291,824524,196126482,89690,107626305,82,14456,374757759,2213,1.35,1.1,61495612,55188000,6020000,81654558,15
115107920,508686,80951949,1538110,79251468,1544687,115886,524303,179843511,32452,110347500,28,5413,371254743,525,1.27,1.04,56570808,52257000,4019000,77363342,15
443255831,999118,271896294,2309760,271118854,2301376,201264,1111889,621486930,60436,447243967,26,16463,1274637101,910,4.35,3.61,185814033,182420000,3006000,206024696,15
120426874,672611,82460279,1705187,82555834,1708387,121955,556756,199511034,32495,133078223,5,11068,414501460,1043,1.4,1.16,58489296,55175000,3009000,79679228,15
122987544,478605,84574132,1694657,82496954,1705436,113428,515458,195173127,36706,120079891,117,7029,427295651,526,1.35,1.11,60798992,58453000,1948000,82085445,15
423942437,675650,264994943,2194885,264027631,2082975,177643,1055659,599526851,55052,422768567,325,15109,1232652762,520,4.24,3.53,178888937,176695000,1996000,199362527,15
115487012,863824,80282665,1550382,77960253,1557873,156452,591192,187850963,53067,113833160,27,4549,380351344,915,1.31,1.08,56857175,54296000,2010000,77493270,15
117932237,641349,80125165,1552830,79330840,1555453,127477,593860,181016089,37970,114510060,0,7572,377435361,1039,1.32,1.09,55348578,51130000,4010000,75436985,15
93414920,554477,93939752,1883728,93295503,1772936,94161,519252,200493030,41899,94761801,57,10028,429136710,522,1.42,1.16,62703891,60384000,2012000,84814952,15
95231425,558430,99268813,1741908,100469544,1576214,106448,512416,211162448,36575,96396672,53,11459,433194376,523,1.48,1.21,66062247,60717000,4976000,87231980,15
428112076,547072,267002159,2053690,267798753,2033403,179633,1030648,590653181,58986,426462715,73,13802,1239241242,519,4.2,3.51,172973494,171630000,1003000,192828000,15
116411624,858311,80735409,1571186,77855207,1574632,155958,592523,182086813,52348,110236430,141,5708,374855620,916,1.3,1.07,56703747,50303000,6036000,77485771,15
457284235,7488518,287322913,1499311,288501220,1511988,1007180,6237827,857805770,1198885,463784011,1369,57157,1358245735,2474,6.02,4.98,255444608,247918000,6997000,276012582,15
423713174,654960,264653492,2180098,263601744,2066378,187396,1020520,598557979,55444,423156333,400,14110,1233674043,517,4.27,3.55,178490736,174955000,2999000,199525431,15
113643792,516092,79676829,1580731,77905868,1574882,112355,506620,177654624,31984,111105398,0,5046,374122120,524,1.24,1.01,56278217,53893000,1996000,77582566,15
117967676,537358,79989505,1555040,78913598,1562372,122284,575004,185046750,54713,117359787,5,8614,394575781,1040,1.32,1.08,58134697,55861000,1995000,79273712,15
119357622,581564,78112721,1503011,76845381,1497643,124729,594015,177398410,41136,112412921,26,8088,373222937,1039,1.24,1.02,55755350,48373000,7054000,76821658,15
114534996,850857,79690514,1653127,76892812,1674329,154212,562510,184658179,49187,114956000,110,5542,371366140,916,1.34,1.11,54932706,52602000,2023000,76317149,15
449085907,7482873,279977102,1495353,280134373,1492906,943126,6117782,839403177,1278037,446828550,9723,41183,1310625884,2472,5.92,4.89,250594041,240262000,10010000,271570238,15
425202348,1208561,263523306,2131120,262515933,2140015,251808,1330168,609778970,77403,430468781,222,16874,1242034581,1939,4.37,3.63,182248365,176829000,5023000,203437734,15
116480173,616302,76674990,1510845,75515909,1515099,119386,594360,177989837,42564,110683551,136,8609,370217080,1041,1.24,1.03,56094267,49757000,5970000,77316860,15
426866450,1220170,271034135,2001095,272904622,1791283,206147,1057795,613305409,53981,428860949,112,19110,1277792630,910,4.39,3.65,179595214,178172000,1000000,201325797,15
111718949,696250,79381246,1634572,79359741,1661752,117308,569560,186693550,31794,118587012,3,6998,365606540,1039,1.35,1.13,55101322,50745000,4059000,75619333,15
117284851,487892,76882062,1516701,74998741,1544444,113706,473462,171595937,33413,110712375,35,6056,372351569,524,1.22,1.0,53757426,51427000,2016000,74816120,15
117119206,825099,81023207,1527522,77430146,1524381,160885,665687,180990080,56181,107636071,35,4963,367759735,913,1.27,1.04,56651884,51412000,4943000,77195336,15
137661716,703435,87947445,1584677,82602613,1694611,149072,591923,195817563,58307,126304982,50,7201,418259098,916,1.41,1.15,61686716,58292000,3015000,83405360,15
116677245,488212,81339747,1542347,78913082,1547981,114181,516819,174763135,37663,109763422,1,5253,371662386,523,1.26,1.03,55943441,50730000,4877000,76095737,15
157356011,1460608,118282455,3995727,118781084,3971969,251997,1013246,309707456,47217,157694816,108,7828,543198044,1696,2.18,1.8,94249628,90950000,2998000,114835843,15
139182981,1034289,84766747,1681476,83302200,1726512,188011,757757,207065089,65848,136334526,90,12397,429577931,1942,1.51,1.26,60968773,53518000,6937000,82809446,15
116800418,803355,76989093,1578046,73875104,1581941,153772,595962,181631985,65881,110135841,5,5370,367354486,915,1.3,1.07,57322281,51886000,4989000,77808433,15
458390560,986122,272743259,2115764,268031426,2229068,206220,1069514,635142341,82213,452732603,60,14004,1316433544,910,4.55,3.79,190353639,185997000,3999000,212376213,15
434605241,645586,268264488,2252190,266407310,2138117,191526,1046517,609283847,61486,438222448,131,14066,1279183774,520,4.45,3.7,182762048,177302000,4952000,203397619,15
940967331,5967064,683130408,4172327,682362454,4079544,1054782,4778215,1441269705,1565839,941142553,307,57831,3085241698,4355,10.54,8.79,426286508,414948000,10972000,447556674,15
119675119,575508,78060406,1523250,76780970,1521720,120539,584097,174877400,45328,112259744,1,7339,366903161,1041,1.26,1.03,56137031,49877000,5985000,77273283,15
136133171,828854,91125148,1645924,87002562,1698888,151553,663845,199370132,57965,128897199,42,7072,420904607,914,1.41,1.16,62139877,58770000,2988000,83658931,15
129315595,836535,93500880,1435979,89320759,1502390,147813,651239,213879150,57464,115517036,52,7577,400816913,913,1.5,1.23,66780393,63469000,3022000,88056180,15
426365451,982740,265227256,2066086,262808687,2165843,202101,1046258,598924649,68052,423371478,144,14932,1234394269,912,4.28,3.57,179437394,175991000,2999000,201397662,15
131523208,648958,90959427,1617857,89201866,1706951,113427,580108,204568854,44892,124255527,67,9874,442526873,1041,1.45,1.2,63798203,57574000,5855000,84603655,15
152633750,1493986,115619177,4118682,114705943,4048204,246968,930488,311371541,59587,154309646,89,8354,529311102,1694,2.18,1.8,95460523,91198000,4008000,115946285,15
111097856,550233,79523607,1651886,78413065,1596795,114531,501936,186917746,31851,117899509,6,4468,365195861,525,1.32,1.1,54581325,51298000,2959000,73879675,15
104876947,653487,102957745,1707858,103610737,1713667,94619,608861,226539442,56028,105530721,5,13655,479643427,1039,1.61,1.32,71682289,66304000,5023000,92958297,15
115186244,837742,80649047,1589427,77142419,1656985,157682,538886,179760259,49129,112451860,5,5563,371809854,915,1.33,1.11,53836090,49567000,3965000,75165769,15
146955415,5649667,106140570,1714395,103612809,1693943,990375,3593877,340737541,1538643,153431350,70,21596,518871437,2868,2.4,1.96,104372038,95108000,8916000,125360979,15
432446049,838400,268247968,2264103,267909714,2114919,163152,1095857,613650589,52860,440967184,13,16263,1271909000,1033,4.49,3.75,183192827,179891000,2998000,203382178,15
122335987,512363,88415460,1784716,87555509,1779709,97685,507393,196386860,36841,130889155,0,7880,404404210,526,1.45,1.21,58247764,56874000,997000,79378206,15
428774729,768837,265699405,2212311,262824173,2211842,152485,1038451,588925222,61787,428196673,86,17467,1242899553,1035,4.3,3.58,176245946,170845000,4995000,197339656,15
450392644,1087051,274997570,2230429,273456396,2261531,238440,1266105,618694514,85738,446882477,87,19188,1299283064,1939,4.53,3.77,185999883,179670000,5955000,207098664,15
124560117,511430,87996676,1421407,85905940,1599871,109040,511598,208375882,35597,119300382,69,6578,400134577,525,1.48,1.21,65001559,63546000,1008000,85249477,15
113661909,593631,76870938,1501540,76302579,1539122,100868,494798,176121387,27705,113547071,6,7016,363688024,523,1.23,1.01,55334651,49933000,4993000,77340619,15
115314458,502344,80261578,1626148,77932793,1626580,119482,530722,178926232,37745,112653035,0,4859,376319216,524,1.28,1.05,56330817,52958000,2997000,76748857,15
114163280,507721,79926146,1615934,77769460,1727428,102568,464096,177826585,38623,115686112,68,6053,371753160,526,1.29,1.08,52723298,51359000,1007000,74029065,15
112587859,571057,78428378,1526291,77891739,1559526,102673,491424,173945659,26737,110586763,0,7390,365303190,523,1.22,1.0,54777196,50527000,3886000,75628313,15
130668919,569404,87407262,1591295,84754320,1687409,114578,607951,199846854,50957,124540313,78,9269,413293774,1043,1.43,1.18,62530766,60137000,2004000,83074434,15
117117929,915012,84467013,1600178,80389038,1580564,172966,718424,192417051,80606,108806530,66,11171,378946934,1946,1.36,1.11,60439123,55138000,5012000,82101083,15
128186154,678737,89763792,1661723,85059394,1820151,160693,830436,199980961,59804,121154056,71,6810,441879168,915,1.42,1.16,63141145,60734000,2024000,84630161,15
114557217,806036,80735802,1477234,77796718,1482648,159500,675560,178824421,57764,107446511,3,4710,363398408,916,1.26,1.03,57396323,53110000,4008000,78075172,15
101001156,689574,102218271,1800697,102763061,1647216,108675,651911,232432780,56886,103734166,1,14210,467896187,1037,1.63,1.34,71774518,65397000,6036000,92370184,15
114227011,816606,81983634,1771241,82097213,1711199,110935,529122,196011036,30541,125168161,0,8398,402829056,719,1.4,1.17,57674667,51360000,6042000,78930091,15
126456213,855130,85383455,1745591,82483668,1749567,151442,593506,201188508,47178,126355730,69,7134,422207980,915,1.44,1.19,62331391,55945000,5994000,82312236,15
434592024,752208,268807983,2207027,268536470,2070728,161746,1072279,600719246,63554,438238600,3,16219,1277761127,1034,4.41,3.67,180492257,175164000,5004000,201407126,15
430851023,838609,270598399,1958876,271546390,1904564,148583,1049964,605906727,56249,432835259,83,18355,1272416325,1034,4.41,3.7,178033176,172754000,4964000,198924242,15
116352172,538541,82441718,1739294,81931066,1699122,112638,517109,196243615,38565,130036763,0,5268,402908607,526,1.43,1.2,57864503,54419000,3023000,78826026,15
126720329,492623,86000379,1750786,84398184,1720629,115838,525585,194045583,42473,122627259,104,6064,417480313,524,1.38,1.13,60669086,57304000,3016000,81620231,15
425922797,1005677,264895093,2167458,262304256,2115975,205948,1042180,596173372,73331,422975111,58,14276,1233430435,910,4.27,3.55,178667636,174217000,4005000,198829295,15
130894195,600151,93558689,1645880,94910284,1560029,105032,522885,204903234,33985,133685200,111,7283,432457609,525,1.45,1.19,63930092,60515000,3025000,85091303,15
114845226,504067,80166412,1604652,78157834,1613091,112526,514550,179319722,33166,112810914,3,4496,374528266,524,1.25,1.03,56613696,53295000,3016000,77749353,15
422895123,686383,263939409,2091817,263894451,2062329,166825,961689,592510207,55029,422647124,256,14731,1230949160,520,4.25,3.54,176717475,171370000,4981000,197520278,15
441835966,1098915,276254251,1993505,274153650,2165142,229533,1256594,635599754,82731,432742993,82,20095,1291265447,1938,4.59,3.82,189935875,182512000,6943000,210665773,15
127270751,562935,84976529,1650555,84418683,1674907,118286,603210,194333897,45820,122129325,68,9318,406802252,1038,1.37,1.12,60869102,57468000,2972000,81394508,15
423491921,660438,264560686,2136245,263105328,2104885,169525,999239,598523869,53590,424416512,118,13537,1231390974,519,4.28,3.57,179610596,176318000,2971000,200604211,15
152852324,5599769,109466064,1629587,105747331,1575253,922604,3480348,355385662,1476608,141765501,72,18711,517985714,2869,2.55,2.09,107296971,102838000,4032000,128207380,15
127755908,807194,85201491,1709952,81232792,1706648,151106,651941,198061270,65300,126193550,1,4977,411807364,915,1.47,1.23,58438870,55208000,3011000,78998214,15
432341569,647417,272700167,2243337,272080347,2030844,178855,1039001,605246799,61847,434785936,39,13548,1290450251,519,4.38,3.65,181533311,178199000,3003000,203222211,15
424301065,645104,264892933,2192504,264380379,2074723,167076,1005048,591657269,59270,421630902,92,14100,1231856942,519,4.33,3.6,177815908,174578000,3009000,199025583,15
113618056,662440,78879262,1638387,78816566,1651039,118615,583950,186402025,36144,118538438,0,7944,370189448,1038,1.36,1.13,54931682,52618000,2023000,75851826,15
113394567,664508,79259187,1635322,79230770,1632909,118585,584966,187519946,33824,119062878,5,8272,373288395,1041,1.38,1.15,55626601,52395000,3022000,77248235,15
424730296,791644,264588330,2156951,263693527,2076967,150699,1057148,595572102,56217,426572290,120,17944,1233820316,1033,4.29,3.57,179064532,174666000,4015000,200519269,15
427643563,1186845,270984944,2061856,272012189,1842238,210081,1081632,617285583,67643,430522708,1,14177,1283647353,909,4.53,3.79,180802924,177500000,3008000,201161896,15
316517874,17453217,240197331,12032105,236328110,12120080,2823331,12542311,990221441,1495929,308474733,92262,144236,1128777069,11164,7.14,5.88,294323408,274930000,18995000,315639836,15
425787474,621261,265274876,2119051,262952809,2148892,166622,974613,593357434,59271,423705033,135,14134,1234645301,519,4.36,3.62,179241540,175932000,2998000,200710675,15
127696689,655639,89329806,1642003,85711547,1762108,144400,841165,202516567,54192,120737860,183,7557,435847643,914,1.45,1.19,63105145,57758000,4894000,83790781,15
452292079,5682201,301286342,3239148,299772295,3226791,1220379,4828040,923536358,1704202,451122680,1414,37256,1386716156,3253,6.6,5.48,271023136,260734000,10028000,292506239,15
114905616,1034451,79630963,1496650,78612022,1498148,207457,704721,188726650,45482,112337502,150,9723,369638088,1695,1.35,1.11,58760337,51535000,6937000,79761848,15
114121251,502151,79780094,1615714,78305919,1602406,116215,526665,185363931,39146,115726836,5,4828,380826383,524,1.31,1.07,57668579,55277000,2010000,79110865,15
122298253,479772,84765990,1736951,82121895,1718037,115515,544984,193378817,44182,119082290,94,5501,426580430,523,1.36,1.12,60017076,56675000,3036000,80743243,15
127632450,622038,88225551,1770625,87166076,1768687,114863,589798,202223331,41724,132042781,68,9230,427620967,1040,1.49,1.24,60125163,57912000,1996000,81409611,15
437124166,699367,272950060,1859258,272412357,2024911,209328,1073842,608302028,51135,434550842,101,13628,1272061291,520,4.44,3.73,177739634,172348000,5010000,198754523,15
308944370,487078,207479033,1297112,207065409,1283987,313598,1357371,831578582,104451,305352072,79,21491,1545163781,2087,5.43,4.46,245007426,240464000,3991000,293953580,16
306961126,512321,205985332,1283862,205717193,1284319,258298,1287525,824275129,71898,307038987,23,19223,1440006294,2081,5.32,4.36,241808354,235569000,5989000,261918487,16
228953450,1619919,321316752,1811709,318511615,1730629,450102,2622689,522239971,272704,226458342,14197,98159,1114436328,5599,3.09,2.59,125471782,119223000,6011000,145805308,16
416430399,20782463,354586621,701980,357329795,702002,6351179,12427051,1353559580,2688811,420685301,32,449417,2077999668,98767,9.7,7.93,398617314,177168000,221210000,417937636,16
307751969,375740,206118741,1285351,205840736,1271545,214835,1231364,819970413,76418,304535402,210,15256,1338514343,1106,5.34,4.36,244700600,241500000,3006000,265297016,16
309188869,737214,209696484,1311695,208715048,1299124,301849,1420007,833998808,117944,306234069,101,23502,1453485101,2081,5.45,4.47,247895984,241479000,5987000,268244686,16
208563431,426366,208586482,1235947,207037138,1217289,302246,1089495,562839205,126619,205671955,310,14613,1460165651,2084,3.75,3.08,169636548,163394000,5941000,190288579,16
308866070,475345,207582155,1306763,206398437,1302970,319406,1441716,857821673,128912,305038591,194,18865,1338803178,2087,5.59,4.58,255106257,249787000,4995000,275641279,16
308216483,391655,205882490,1298445,204457781,1296786,250814,1302880,823829950,74495,305832682,22,10624,1342615535,1109,5.4,4.44,241659492,238208000,3002000,262339789,16
309621397,443957,208784125,1305568,208346674,1300864,343390,1432885,831897716,115109,305805244,475,22928,1444876843,2085,5.49,4.52,242774000,239403000,3005000,263939996,16
308553868,754890,207779660,1320679,208459523,1308503,275096,1352181,833548410,129038,306523120,215,26637,1444150718,2086,5.5,4.51,247111346,240665000,6016000,268730416,16
209302942,13153641,205673100,224020,203335484,225382,2380872,6805815,587931953,306334,207342336,308,18005,1256804331,2083,4.2,3.37,171537596,166049000,5001000,193038793,16
312118717,859053,212474141,1232440,212113492,1227398,444159,1272454,577726721,167873,312449637,200,44944,1474220261,5993,3.95,3.25,173496082,162193000,11013000,195282406,16
317327066,616799,513150945,1440689,511169820,1422523,284121,1191078,648396703,131491,313091411,273,27917,1756913268,2518,4.32,3.55,193597329,186270000,7010000,214427949,16
308182648,764680,310716557,1314684,309849940,1299628,279104,1345073,832721000,121291,306144881,298,31063,1650453289,2085,5.5,4.51,248227744,240801000,6994000,269890409,16
311727091,966942,212310777,1305026,212455468,1305782,343484,1423676,854463314,168083,312448962,518,58213,1258275189,4041,5.59,4.59,250480964,240201000,10008000,271199312,16
318427990,461192,415997980,1413703,407425066,1394863,337039,1190429,584307627,121396,311148301,354,16211,1465534943,2518,3.95,3.26,171407859,166078000,5002000,192836133,16
306491276,468704,506760230,1367934,503395665,1372215,273066,1625730,1100990086,82040,305617766,102,14595,2347971618,1111,7.23,5.91,325510297,321140000,4001000,346364532,16
210807255,582312,210645631,1203849,208560331,1186922,240501,925123,433366326,113288,204655483,251,18903,1049978916,2081,2.93,2.41,129461714,121148000,8009000,150520628,16
1017177850,690493,607342424,1622971,604575638,1613002,342513,1850895,1273733771,133173,1012065431,621,48829,3559547693,2802,9.51,8.01,376355318,369086000,7001000,396712209,16
305706809,460843,205128473,1299612,205192663,1299183,203931,1214759,823199775,55097,305511495,121,16589,1533416192,1108,5.43,4.45,245439477,241022000,4000000,265975093,16
307499745,400691,206163084,1288598,206067377,1286813,232209,1267734,817824864,71793,305204035,186,12701,1540626563,1109,5.38,4.41,243398092,240036000,3000000,263560619,16
208190097,546889,312408680,1215692,307320856,1200432,269726,1067639,512631307,120592,205744044,174,16577,1565080525,2081,3.52,2.92,150655681,144215000,6008000,174283958,16
309013887,561301,207855330,1304755,207208260,1285266,268501,1307806,826569395,115418,306912565,290,31543,1244259963,2086,5.44,4.45,247745268,240406000,6982000,268210076,16
313505878,444130,209233845,1221086,207423257,1207038,282351,1033080,551422574,100624,308530598,252,12795,1466209133,2088,3.77,3.11,164769236,159478000,5015000,185023237,16
920865211,1003318,611494840,1610089,607857195,1599762,480324,1904945,1125872621,246727,913357824,281,90823,3270549255,6424,8.6,7.24,334899075,322553000,12020000,355272376,16
488493352,51800143,416430255,779610,418738123,806477,5508298,37758572,2215892922,707105,492171740,624,56286,2000373948,5995,16.35,13.16,624692883,614303000,9988000,645819327,16
1614789509,1114134,610506453,1752831,612177823,1744619,421141,2439644,1696707835,173346,1602093404,401,49899,4567376829,2956,12.83,10.82,498926906,490562000,7992000,520173220,16
304630524,438574,204766603,1288644,204892558,1296110,207600,1260413,828722908,61471,306173562,183,17812,1534054446,1107,5.6,4.62,242564533,238251000,3987000,263398367,16
309205981,450021,207480286,1304320,207059923,1291506,320904,1404024,824077014,122915,305603310,189,23560,1444716198,2082,5.55,4.57,243930360,237629000,5990000,264963797,16
305509663,418522,204952338,1288225,204981022,1287601,202813,1247223,823663549,60031,305654571,396,16895,1533318750,1107,5.46,4.49,243986641,239805000,3996000,264893033,16
410932177,491019,207374647,1300631,207229502,1300045,345576,1461967,835054674,109235,406686511,254,17514,1347149882,2096,5.65,4.67,243786724,238349000,4986000,265254492,16
310818596,422781,208558911,1223471,206767072,1207696,284742,1018506,552963867,92350,307401343,217,15568,1450138546,2117,3.83,3.17,165489608,162044000,3000000,186302498,16
309342696,441405,207283182,1292456,206993975,1286454,328810,1416525,828751613,109824,305644084,469,21199,1240265345,2085,5.43,4.46,242798312,238491000,4008000,264286985,16
308493765,545617,207206594,1311059,207131234,1291113,312686,1374020,825876630,123150,305794663,261,17060,1444893188,2088,5.49,4.51,246101991,241708000,4011000,267736833,16
309191969,487954,411193998,1317211,407912634,1299929,319759,1411978,860021190,118474,304948296,145,24151,1744425531,2082,5.86,4.82,256519939,250276000,6006000,276013015,16
306721690,417217,205754079,1297452,205872276,1294539,236834,1277891,826525076,69893,306365755,297,11573,1338571686,1107,5.45,4.47,240560242,237311000,2991000,260984096,16
208291205,392618,310005072,1189821,308097137,1175348,271141,910969,449120339,89780,204763651,230,16602,1457893501,2082,3.06,2.52,135201950,127893000,6939000,155920231,16
210594111,13371754,207658827,219960,204339972,221745,2478591,7060167,576213318,235211,207128081,207,16328,1157571714,2086,4.23,3.4,170138779,164836000,4995000,190694990,16
309978146,590635,413351264,1244177,409548198,1235117,289171,1198995,610631990,109028,302883396,78,16488,1761180194,2083,4.16,3.43,184168604,177836000,6028000,204711834,16
306946637,398160,306473839,1268838,305829116,1267689,224733,1215130,820596763,71336,304444583,310,14418,1741115737,1110,5.51,4.53,244963813,242760000,2006000,266105249,16
309425002,810814,310060918,1311420,308591127,1304794,323337,1419816,844451825,133377,307237124,278,28844,1557909629,2083,5.61,4.61,252327858,244822000,7023000,273775770,16
308762940,752431,310584547,1303441,308779823,1300257,327664,1441395,845092932,127780,307883262,63,20016,1454975336,2081,5.68,4.68,250044518,242521000,6986000,270000365,16
307905808,429852,207584302,1289199,206901366,1281925,238488,1259978,821061139,74991,305956387,195,12378,1551743987,1108,5.47,4.49,244443076,241040000,3000000,264684802,16
308399247,421558,205769230,1283395,205151917,1283635,238331,1265177,820661585,76430,306604665,137,11772,1339784402,1108,5.46,4.49,243660914,240323000,3004000,263781352,16
1118659681,1029571,612823099,1628947,610624805,1634975,473378,2125338,1336208998,181173,1107476542,100,48572,3565876050,4617,9.96,8.38,395967618,382582000,12985000,417071801,16
590023602,28591573,306440879,729423,305767667,733982,6990174,15702491,1469169783,2490217,577797516,303,432401,2276093315,98809,10.73,8.81,429044324,279851000,148920000,449747895,16
307434541,566901,205748339,1292327,205905944,1283412,255044,1246043,831369520,74999,306926869,42,19997,1538524187,2086,5.52,4.54,247679894,241976000,4999000,268924738,16
308387653,505505,208474179,1293777,208313499,1284683,323627,1354856,826737299,113181,305226650,63,22155,1243169239,2090,5.46,4.48,246153055,238943000,6998000,266761372,16
417441283,21048553,356624827,700862,358291110,700461,6433495,12194046,1378228168,2856199,413890449,256,370332,2267643179,98764,10.07,8.26,407638175,191140000,216158000,430222745,16
207527746,13097509,206514868,220349,205404932,222740,2228704,6482146,577780676,225365,203145598,4,18999,1234927630,2087,4.27,3.44,171033545,165730000,5022000,191801015,16
308323795,499620,310179919,1285864,308838776,1280883,304395,1363183,825201193,114001,304969948,302,22211,1442084168,2092,5.49,4.51,244893753,238678000,6017000,265438400,16
217941620,481556,510173402,1403192,504890860,1388166,284795,1170965,649060800,94343,216874681,62,15176,1673160045,1828,4.37,3.59,194131220,189512000,3989000,214913240,16
409936641,503209,207214338,1299891,207318166,1289259,333331,1377320,829823679,106154,405203939,60,19219,1444102690,2086,5.53,4.55,245531000,241161000,4002000,266083100,16
308230936,526245,207244398,1298519,207019057,1279174,309955,1319990,827081621,125783,305587093,184,22895,1242082301,2094,5.45,4.46,247306053,241028000,6000000,268536557,16
301685938,6560509,595295102,723046,593747026,603528,241907,1462214,655146904,164987,301593351,34,9415,1907044823,1107,4.42,3.63,194696853,193237000,1001000,215431049,16
306721790,512202,305396782,1347518,304489167,1344910,278536,1533001,1043363771,77123,306268296,54,14078,2046286272,1106,6.93,5.69,309259507,306753000,1998000,330183436,16
308355998,389194,206088152,1295261,205667658,1288000,239315,1292199,855684611,77816,305013504,163,12927,1340347215,1110,5.7,4.68,254290724,252845000,1003000,275882851,16
307986831,552699,206444100,1293437,206657876,1290925,250097,1284932,819605949,80839,306011214,97,20638,1439509094,2082,5.45,4.47,245298804,243936000,1003000,266961907,16
316491740,465985,309233033,1432672,307260366,1415692,300755,1189962,702709081,75660,314370414,1,14143,1562472232,1539,4.75,3.92,208896893,204118000,3982000,230434583,16
307017302,394113,206174211,1282017,205416534,1277199,226507,1234968,820659088,85190,305362685,37,13495,1338233504,1105,5.43,4.46,244650627,240253000,4004000,265925602,16
309515738,476204,207784004,1308494,206772246,1297344,324169,1417696,854097896,149317,304876395,13,18891,1242852424,2086,5.66,4.64,254600123,247282000,7008000,275553298,16
450664947,16046178,303132851,589307,301898323,590251,5880160,9030940,1230265732,2276325,447356120,169,320382,2306477906,98766,8.81,7.25,363663574,216543000,146690000,385248317,16
307939475,411482,205753901,1286434,204677252,1281346,222039,1270179,818777389,72258,305936463,61,11920,1339287351,1111,5.5,4.52,244969421,241620000,2995000,264906139,16
347353692,15968227,403288794,658354,401896335,662858,5941782,9330423,1017187628,2451671,349284349,25,400983,1915145692,98762,7.44,6.13,300957248,135259000,165317000,321876046,16
307554214,402987,306105020,1299976,304925316,1291373,234593,1281280,849054474,67706,305245212,0,11569,1542308644,1107,5.69,4.68,253117851,249660000,3007000,273453330,16
308501884,504512,207236408,1308827,206514307,1299452,324555,1373324,826506007,104830,305405663,79,16902,1240877852,2085,5.49,4.5,246501791,242197000,4003000,266630673,16
308364681,743918,208857103,1303316,207849799,1294283,264880,1319683,831112745,133724,305912387,79,19346,1244505176,2082,5.55,4.56,247620951,241228000,6005000,268484199,16
306826469,416038,206402398,1279178,206035368,1278865,224730,1242406,830559579,72700,306717359,130,11914,1542965893,1104,5.56,4.58,243477023,241211000,2001000,263442858,16
1215970761,919840,711621019,1735203,709559131,1725732,490869,2587065,1757658477,175620,1207859888,267,43523,4159247015,2806,12.96,10.9,513677309,509334000,3994000,534697691,16
207953512,292679,206241836,1171668,205445600,1168532,141895,725899,412654864,64433,207136086,0,22680,1045764565,2088,2.84,2.34,124927635,120606000,4020000,145543825,16
310588551,400090,209010367,1210794,207474542,1189864,268283,938460,497012109,85099,304743445,69,15292,1350974585,2086,3.51,2.91,149750519,142455000,6973000,171127115,16
310259243,284531,306685797,2745525,302498568,2705985,175300,783980,454473098,65983,305064593,12,9159,1164161019,1104,3.3,2.74,137854507,134508000,3011000,158792913,16
1017241251,559982,607226037,1571796,604825484,1559178,323983,1717463,1179427061,114113,1011342729,136,22772,3151068059,1544,8.82,7.43,348457824,343202000,4988000,370463363,16
1119328004,538555,509299999,1449866,507552902,1449117,330337,1958822,1331628377,102551,1107396645,18,26585,3871005960,1305,10.15,8.56,394555039,391137000,3001000,415847766,16
307236159,363263,206027542,1276087,206203032,1275983,227095,1237777,816755536,73233,304343052,129,13025,1537433255,1109,5.47,4.5,243424097,238048000,5001000,263438523,16
408667005,436626,204126116,1291398,203392941,1288425,235459,1277827,845472083,67920,406707574,0,11242,1335011681,1110,5.73,4.71,253384311,251090000,2000000,273536206,16
306066285,423933,205221072,1286686,205082916,1289042,201078,1230208,819112702,55356,305351274,29,15215,1331173109,1109,5.49,4.52,242943179,238624000,3993000,263785463,16
317598637,518109,517948541,1400295,512697562,1386313,331476,1267964,626475541,124515,311287194,102,18018,1762231377,2519,4.28,3.53,187318722,178089000,8954000,207635721,16
307618584,347229,405500300,1374009,402093695,1374029,182000,845082,500885506,57616,304154864,206,8179,1552104402,1107,3.46,2.86,150135856,145835000,3995000,171585964,16
1219144679,855979,711314712,1718490,707950938,1713568,494735,2485747,1630527391,176121,1209628591,245,32989,3863345948,2806,12.26,10.27,480879841,476496000,3995000,501839710,16
308475055,501988,207574947,1291389,206998243,1285457,308891,1394302,864546620,119570,305240153,154,22424,1441623801,2087,5.78,4.74,258431765,253115000,5002000,279277798,16
309005074,473596,207884733,1314816,206966430,1303397,325048,1432190,856754888,112680,304718297,0,19279,1342830394,2085,5.71,4.69,254481690,249132000,5002000,275181298,16
1016133615,579339,605658830,1446707,602853078,1437678,316384,1914189,1322938957,98788,1010741476,67,25851,3560036796,1263,9.88,8.3,393400502,390065000,3000000,414568582,16
2249076480,3500131,1331266779,2886183,1326268163,2872739,1601811,4993198,2783925501,456481,2238933158,422,112121,8988902462,16731,21.23,17.93,818692046,778353000,40018000,839743273,16
306765507,396855,204920997,1289101,204164817,1285837,244799,1298640,822948236,72647,305300925,86,12331,1336364346,1105,5.5,4.52,244632671,239980000,3983000,265340595,16
1218095489,724999,912236817,1731017,907481925,1734811,439316,2492420,1726049150,132963,1207991100,204,32585,4462205245,1829,12.65,10.62,507247830,502950000,4007000,527802074,16
307660916,345000,306658576,1288291,305525561,1287917,232236,1278493,827926421,81026,304738466,166,14557,1539795074,1112,5.69,4.7,243817560,241500000,1995000,264374944,16
308673929,530155,207731549,1294890,207280432,1282018,327175,1414820,828363498,122195,305901141,182,19799,1242526634,2088,5.53,4.55,245460572,238952000,5998000,266323261,16
207728676,651579,310867202,1242219,308362296,1230172,270945,1156276,598935023,116171,206461137,106,25722,1555471590,2085,4.13,3.4,178401053,172988000,4999000,199143440,16
309192508,538514,310236225,1310229,308201271,1297139,310672,1398027,835555503,110373,305614932,88,22833,1445141833,2082,5.68,4.67,248443912,242978000,4999000,269267446,16
410371746,412928,205924887,1276544,205628788,1282403,242988,1254173,827721763,69742,409036645,21,10489,1548254117,1106,5.66,4.68,241747976,238384000,3004000,262687506,16
1216801746,778079,709432573,1712714,706623355,1704425,436845,2318682,1564697647,118695,1210947059,227,35859,4676382062,1829,11.72,9.86,463210811,456815000,5997000,483611188,16
1205279147,6415545,776320363,4454898,771179480,4342790,972394,7024148,1846531181,595682,1196103507,78676,150586,3987958445,6014,12.36,10.53,450852664,444555000,6007000,472032083,16
1114315787,785310,609560883,1812872,608438218,1812889,432157,2409990,1796757601,149073,1106764200,266,38974,3558262800,2170,13.34,11.19,526582532,521291000,5002000,547512784,16
308468368,480970,207409474,1290739,206465784,1281837,305942,1372403,823436135,112872,305362690,104,23210,1239374093,2088,5.57,4.57,244624678,238292000,6007000,265746992,16
311823638,290679,410093911,1373874,404208984,1354169,175171,851870,492212981,73089,305637930,30,10943,1666686516,1108,3.46,2.86,147207931,141852000,4994000,168163199,16
219566289,553517,414655120,1395967,408364389,1376011,284132,1056126,555288339,1060353,217297064,1,61715,1482999667,4612,3.77,3.1,166621870,154326000,11947000,188101530,16
309224750,508547,209099305,1300881,208267548,1291699,291497,1372173,827086010,120505,307372179,65,17985,1449288054,2088,5.62,4.63,244681666,239293000,5006000,265606061,16
310457332,710529,210973884,1309300,211094706,1302070,339146,1428579,843293496,182570,307123879,59,28332,1257049524,4042,5.74,4.73,246711353,239404000,7011000,268132666,16
309680489,927269,208291660,1618995,208495723,1615501,418532,2659225,1974562185,141389,310761998,158,61152,1847796309,4039,12.36,10.06,578892349,573348000,4994000,626429363,17
1115439964,1180069,809768094,1895497,810433481,1890408,519894,3210293,2350173285,180438,1110060424,246,59850,6358588102,2810,16.54,13.78,693633665,685269000,7991000,716082549,17
307258420,618286,207645381,1556807,208116949,1560684,355789,2408574,1767366165,106434,307811287,43,29470,1839495526,1110,10.93,8.87,522207659,516914000,4999000,543589712,17
307944149,742101,206821139,1553838,206848123,1556670,330235,2380480,1758347815,93889,308172908,204,41374,2039873339,2085,10.95,8.89,522249216,515011000,7000000,543941298,17
409442640,678015,206794316,1556562,206839377,1547013,361555,2332418,1758948456,92156,409322930,171,25036,1838892423,1108,10.94,8.9,516443794,512149000,3993000,537765647,17
207988412,656601,207245952,1437022,207080409,1431964,406053,1966385,1375479253,111493,208052733,119,28444,1743815298,2087,8.61,7.0,406863515,400595000,5993000,427727648,17
312599016,1094609,210163520,1623031,209273167,1608022,451829,2702344,1977767444,178978,313070398,241,58336,2056752379,4041,12.29,9.97,583405153,576139000,7001000,604021933,17
309396081,853904,207390536,1617926,207985384,1615426,481268,2734236,2015641892,131593,310517298,569,39326,1844686101,2084,12.5,10.14,595105010,590813000,4005000,615918771,17
208371665,894384,208886850,1499124,209340442,1497860,405507,2310634,1510348408,144945,209495717,364,30521,2954662879,2086,10.09,8.32,445647526,438311000,7004000,467664338,17
309001529,864240,208084157,1645283,208010589,1634095,496648,2799256,1978673560,129891,309643547,303,35171,1945112277,2087,12.32,10.01,582489139,577034000,5000000,603297452,17
1016673738,732327,610183335,1779079,608032165,1786641,455949,2631959,1839690778,128428,1009774667,253,30071,4162676712,1688,12.8,10.67,536079973,532788000,2998000,555388101,17
309563380,698728,208587379,1335583,208232073,1327142,336819,1608747,866707214,134697,306835509,123,28753,1751439919,2080,5.89,4.87,254355127,246945000,6998000,274754155,17
308885799,625185,207548791,1377384,207136566,1372257,292518,1599932,1066456483,122482,309253371,466,49075,1345834187,4068,6.91,5.64,318126594,312769000,4996000,339858424,17
307535936,391942,206584686,1313355,205543099,1298387,225471,1251018,835177699,71420,305678621,433,15867,2045629468,1106,5.64,4.64,249365484,245964000,2999000,271167430,17
1419420703,1215262,711895998,2047310,711254723,2062079,622562,3742238,2667907645,200443,1412654081,875,61267,6877823379,3013,19.47,16.3,788490655,781061000,7000000,808657408,17
307720274,731617,206952172,1562983,207030963,1566953,333560,2383499,1757604924,103440,307603124,464,41206,2038655812,2081,11.2,9.13,518434846,515089000,3000000,539967483,17
208841499,892752,208709567,1497944,209653252,1503989,392720,2253080,1482103547,151855,211236764,420,38760,2755442326,2082,9.99,8.24,437263610,431839000,5009000,457371234,17
310559425,1221168,210067875,1991147,209605217,1978648,541510,4140180,3262386164,130838,310695182,750,51133,3850258677,1106,21.09,17.24,959806499,957357000,2000000,981703172,17
310721792,934811,209064501,1636068,208998340,1643099,429028,2723016,1976678824,141630,309920847,344,61240,1847153285,4038,12.37,10.04,585335117,578971000,5999000,606772069,17
307890543,674132,207990092,1565732,208350668,1565621,363271,2475810,1708256325,100879,307948609,310,25552,2650916014,1104,10.92,8.91,504463090,499946000,3999000,525062181,17
208457381,901762,208898010,1491571,209229712,1479456,380384,2160616,1516027706,135696,209648838,536,39000,2051220604,2080,9.56,7.77,449821247,443427000,6005000,470330979,17
307973408,822486,207374334,1596235,207631995,1592281,486428,2707897,1966200559,119839,309345943,572,32562,2043458080,2093,12.34,10.03,580037634,572574000,6994000,601337030,17
307708958,446083,206515820,1338660,205725492,1334500,247295,1459368,950320131,65873,306706436,114,13044,2155537670,1109,6.43,5.29,281566257,276271000,4968000,302588164,17
1048580897,3548201,633504587,1714553,631877726,1703660,1526707,4213222,2084063762,493272,1043403508,826,107710,4290312056,17711,14.87,12.38,614502863,573201000,41014000,634980605,17
309307342,510177,207376109,1327911,207063022,1321753,276869,1388015,910126321,106806,308494061,498,48838,2048027157,4035,6.22,5.13,271276187,263923000,6997000,292364282,17
612828968,1096526,411953958,2576117,411806546,2575644,472692,2567260,1808238852,187838,610602206,466,49294,4061923117,4040,12.3,10.13,536306834,527024000,8983000,557229211,17
225240965,1177808,412338025,1665576,412257431,1656509,540929,2535057,1723144731,174953,225786112,590,60633,3584842971,4758,11.74,9.68,509885573,500525000,9009000,531702370,17
306985867,648729,207632734,1577830,207856934,1581898,375942,2475628,1760321328,101987,307549495,297,23920,1841430362,1110,11.3,9.21,519986936,515719000,4005000,540807794,17
307538515,664123,206772765,1588057,207036435,1585101,377475,2469369,1802587553,107176,307484190,215,27008,1838752984,1112,11.57,9.43,533749641,531281000,2001000,555243396,17
250912475,3306044,335241171,2550781,334299211,2549069,1462143,3598634,1654056889,462787,249813385,772,1017504,2408770253,17704,10.81,8.83,487775216,446262000,41024000,508478834,17
1216683546,864975,609817246,1694307,608676719,1696513,427492,2166794,1382361941,153086,1204318494,384,42378,4076818914,2953,10.49,8.83,409319773,403893000,5011000,430794589,17
307100093,635513,309569794,1560153,309692251,1566143,364847,2521540,1781219915,111229,308717764,618,25357,2858054718,1108,11.91,9.81,521646667,518311000,3001000,542427066,17
308822472,800800,207385160,1628371,207853080,1630952,496805,2813630,1972777988,150352,309793221,626,34080,1843478604,2088,12.65,10.31,580370971,575914000,3999000,601215216,17
210075914,724001,208560019,1481877,208501687,1473645,351731,2127151,1491650598,146386,210480330,518,56314,1959389615,4038,9.69,7.91,440353624,436010000,4000000,461686952,17
712375362,470997,205763855,1382584,205535101,1374720,269611,1587973,1154951908,84072,706131586,76,18203,2546077372,1106,8.02,6.65,343183821,338748000,3997000,364544401,17
306498553,673243,206405025,1555355,206593091,1555556,348092,2343000,1753230957,89337,307400970,52,23741,1837019883,1105,11.32,9.25,514656845,509336000,4983000,535451852,17
210459044,1242774,208547337,1797733,209519843,1802130,547835,3529921,2714220999,176754,214268548,255,59131,3857399856,2080,17.79,14.57,800824712,796316000,4001000,822324469,17
310241895,936845,209785366,1607897,209419191,1599981,414752,2597380,1975770040,147868,310443318,47,60733,2050465320,4036,12.68,10.34,583046128,575576000,6994000,604151993,17
310274283,947710,209002824,1636044,208898137,1629841,420679,2656453,1973028463,147191,310406562,47,61102,2048984249,4040,12.7,10.34,584373909,579007000,5000000,605945147,17
312486140,1006782,209671395,1643845,209544114,1646504,456472,2804724,1995973075,169139,313651766,1190,65646,1958250579,4034,12.74,10.38,586731290,582301000,4002000,607813108,17
308317251,812397,207377348,1603986,207510562,1596412,482386,2738069,1968779420,139949,309922480,440,31511,2046608704,2086,12.68,10.35,579372106,575047000,3993000,600849080,17
308863321,841653,207454998,1636543,207706892,1619422,473222,2782989,2012581749,148297,309579983,204,33216,1842995254,2086,12.91,10.52,595004691,590595000,4004000,615758948,17
306730512,680005,206735617,1564423,206741872,1563103,370801,2367993,1798272073,96997,307343922,66,25254,2036876080,1112,11.54,9.43,525869986,523618000,2002000,545627783,17
308238974,676016,206751538,1571189,206941035,1583318,352115,2441245,1769681881,109210,308674376,110,40723,1840966185,2086,11.43,9.33,522096610,520717000,999000,542723425,17
1115820373,679826,812284214,1688464,808665595,1682003,389764,2240099,1535465648,118572,1106559591,68,36928,4253379423,1835,11.35,9.54,454229551,449896000,4007000,474857336,17
313041338,1448909,210239575,1986793,210838827,1992041,602435,4324466,3243324321,205234,315296410,199,61908,3960144402,2083,21.41,17.53,958505663,951081000,7000000,979749564,17
307650386,668816,206939257,1554622,207152980,1547924,357283,2322616,1753136534,102702,308100826,150,28568,2040677101,1108,11.17,9.11,516233830,511908000,4007000,536076545,17
310564986,1125338,209565666,1646279,209799695,1642399,426515,2779069,1975326981,156308,311507203,63,36113,2050887560,2087,12.5,10.17,582548179,575104000,7001000,603293279,17
308650279,707818,207058136,1567967,207134075,1565648,375465,2446921,1757993257,98362,308179849,319,24922,1841891051,1106,11.19,9.13,517718620,512324000,4983000,538856742,17
307146553,640700,206329565,1562714,206579904,1564229,355251,2379442,1752958200,96844,307296657,78,24564,1837401885,1106,11.33,9.23,516386036,513109000,3000000,537797321,17
308775255,780451,206950349,1616813,207388637,1615554,449715,2768060,1964184675,167904,309941248,196,35020,1843587373,2085,12.67,10.33,578921151,574565000,3996000,599865875,17
1014934456,976463,706773959,1770589,705033693,1779450,480497,2569158,1768456276,133389,1013347745,266,52913,4371858125,3153,13.02,10.91,518600095,512187000,6002000,539955342,17
310626282,1103965,209515858,1642657,209596460,1630592,423031,2737503,1978738325,177933,311714512,896,49570,1952282690,2082,12.8,10.44,582546812,577232000,5002000,603626077,17
310150235,919412,208869333,1616116,208763865,1613904,411133,2631383,1980739056,143972,310438836,357,61735,1947057407,4035,12.74,10.38,583784415,577391000,6004000,605190944,17
311485612,1167562,208285824,1681205,208642934,1672020,449358,2730653,1971849884,155554,311849528,143,45087,2051487025,2086,12.76,10.4,583394844,576033000,7000000,605203242,17
314792416,600684,407615581,1584697,405397186,1582177,343394,1816442,1197413653,112101,314927537,171,19603,2065492626,1540,7.93,6.51,350174104,344833000,4983000,372520402,17
207751644,593603,207889630,1502127,207987391,1504782,355924,2313565,1582307355,112482,208808864,235,24512,2045244991,1108,10.31,8.42,466970229,462550000,4004000,488248725,17
307625412,655135,207930854,1561528,208339415,1562238,371690,2534141,1770786693,103446,307780930,372,30230,1840990657,1104,11.27,9.18,523746494,520429000,3002000,545114879,17
409749947,639385,206433782,1538851,206638449,1540133,358951,2343892,1749090848,95908,408722976,16,23152,1838048404,1106,11.21,9.13,518505467,515234000,3001000,539747930,17
310549150,916582,208610871,1598462,208687296,1604741,423876,2695390,1979875375,148198,310408299,140,60557,1946804685,4035,12.59,10.28,581573887,573074000,8001000,603270152,17
308361200,817850,207268600,1547870,207320163,1543173,354535,2315984,1759919882,95365,307654780,301,46369,2040044794,2087,11.26,9.19,519281015,514683000,3997000,539716364,17
211776016,908233,208936757,1441802,208895493,1439486,400518,2059608,1391780992,151820,212165806,231,51349,1951119661,4039,8.96,7.31,413011445,404673000,8013000,433810509,17
310899579,924924,208540074,1633653,208610667,1639424,464185,2899713,1980549046,152213,312201618,329,36341,2050719080,2086,12.59,10.26,582623116,576286000,6002000,605088067,17
307924364,760244,207097802,1534823,207077731,1525668,340088,2270396,1800555106,96146,307998796,159,42729,2037430901,2085,11.5,9.39,530297758,528001000,2000000,551619175,17
309880794,501628,207648553,1316864,206833913,1307510,345618,1474533,908635352,89359,307909848,1,15543,2056238553,2082,6.2,5.13,266168614,262822000,3009000,287536542,17
308496332,785381,208364932,1615179,209065012,1613884,502139,2787677,1971417055,144197,309841262,338,31763,1845386740,2089,12.53,10.22,577183680,571654000,4996000,597962153,17
310438463,942615,209118743,1630384,208932492,1629973,424149,2683287,1978889155,138539,310502809,214,61955,1847506029,4038,12.54,10.21,583349831,578917000,3999000,603768746,17
1020438937,1435568,513244257,1811153,513335145,1803313,495441,2998214,1947428775,150292,1021467621,219,55656,4285404946,4713,13.89,11.6,574029399,564657000,8994000,595457737,17
309491678,870337,207906718,1621322,207992698,1620603,448119,2749207,1967206242,102377,309090873,58,33142,1843354333,2087,12.44,10.13,580256922,574764000,4997000,601055285,17
307245555,673779,207988039,1546932,208475592,1554330,369862,2444116,1758300140,96189,308109207,370,24631,2042814306,1109,11.23,9.18,514240746,511838000,2003000,535310993,17
310079317,929332,208724342,1607024,208668848,1595960,411806,2545202,1978372421,124075,309853938,270,62534,1947319563,4036,12.54,10.21,585488993,581069000,4000000,606572049,17
403497939,739652,434378039,1437553,433246109,1426832,351161,1709045,1039163126,128128,399865446,64,34363,2663567771,2519,7.25,6.01,308216867,300864000,6996000,329258713,17
214950228,621016,409983983,1605559,408777904,1607951,368292,2016732,1398510426,96579,215743964,238,28279,2970206285,1686,9.33,7.68,413305847,407870000,5010000,434095070,17
409442652,639502,206635138,1541443,207096444,1543230,383262,2344848,1762315448,98293,409460887,0,23309,2040236392,1112,11.28,9.2,519682729,516229000,3001000,541107276,17
308366984,824576,206541248,1633680,206382516,1623467,366454,2650554,2070718483,109568,308139297,62,46852,2237091944,2085,13.18,10.74,610606098,605314000,5002000,631475597,17
210273175,354056,208127066,1161994,203794792,1142257,265192,788764,359322334,69591,205288050,185,16077,854854273,2085,2.47,2.04,108403160,103122000,5005000,129608764,17
306456555,455441,305595303,1292451,304889887,1299684,205575,1282952,862208398,74273,306317503,180,29038,2245577426,2084,5.91,4.86,256382244,251109000,5002000,276755035,17
309649378,860732,207355031,1620299,207354120,1619436,432671,2795289,1964426659,153535,310040788,215,37260,2045310756,2086,12.76,10.41,581193473,575900000,4999000,602910709,17
207671475,528364,205630279,1399905,205474985,1400817,280704,1710896,1175417231,75356,207876424,16,15991,1844698382,1105,7.57,6.17,349321951,346086000,2992000,370005128,17
311165358,948674,209094410,1632688,208512542,1623534,409859,2686268,1981909049,140917,311306008,139,61367,1950493502,4036,12.63,10.31,581343389,574130000,7001000,602117851,17
311377099,878215,208814216,1620704,208740088,1622602,452139,2729843,1977898754,164898,311088879,288,62302,2050993654,4034,12.94,10.59,579643603,575136000,4000000,601288287,17
208297529,247045,206368035,1151680,202386478,1136248,155941,685768,343299776,53023,204250415,52,7525,1164088475,1111,2.41,1.98,104723792,101321000,3009000,126522234,17
307008144,413206,205669097,1366605,205304943,1368567,271214,1587388,1053123275,80674,305768576,49,17998,1334633077,1109,7.01,5.74,312782140,309389000,2994000,334155534,17
409442789,641302,206213271,1541750,206616671,1540137,359147,2314387,1755166227,100525,409493415,64,24429,1838208753,1107,11.47,9.37,518067141,515742000,1999000,538471533,17
310460118,930535,208502890,1609046,208429404,1611965,422461,2699038,1979903278,146401,311074495,143,60747,1849518652,4036,12.85,10.49,581006610,576719000,4004000,602978857,17
310211992,903144,208604677,1603039,208443613,1594276,421092,2585747,1976156222,133459,310953482,224,61382,1846527239,4038,12.78,10.42,582975862,577511000,4995000,603697165,17
308756636,805461,207121105,1588358,207534673,1588800,466272,2669379,1971246480,158936,309301470,108,35244,1943163322,2087,12.79,10.43,581213334,573763000,6997000,602710344,17
310303261,908713,208695928,1575802,208324570,1575457,412654,2546722,1976753960,152088,310486442,227,62079,2046566145,4035,12.84,10.48,582510338,574214000,8002000,604107111,17
1114845915,737795,608168299,1750882,606172836,1744723,451101,2563284,1827181767,127113,1109178873,121,33369,4360835887,1686,13.4,11.21,538202103,533793000,3990000,559558406,17
308012106,781446,131804979,595308,132936203,603258,491944,2654270,1956151538,132835,309158557,57,31164,1645920915,2086,12.8,10.46,577757761,573310000,4002000,598815111,17
309726177,503896,207743011,1307631,207621208,1302854,271980,1376247,912153586,122553,309665443,106,47609,2049758653,4037,6.29,5.19,271755253,266382000,5007000,293800513,17
317676707,914510,511940992,1651172,512164609,1654845,424184,2229518,1503131927,141916,316552374,54,44368,2664098948,2663,10.01,8.2,445641081,438261000,6988000,466345977,17
409429219,641409,206840351,1547220,208083189,1539731,362293,2366570,1762464158,96233,409105184,235,24211,2041975773,1107,11.53,9.42,520037373,514679000,4987000,541837334,17
306964338,656138,206509052,1552186,206608770,1547893,357990,2335791,1752191632,91166,306957098,57,23851,2039380219,1112,11.43,9.34,514777543,512411000,2001000,536285347,17
306852533,676553,206459921,1562482,206769672,1564550,364558,2400970,1751218440,86691,307115293,0,23807,1837989257,1107,11.23,9.15,518790797,514336000,4002000,539369635,17
1214368632,1047315,910016825,1785013,909175625,1777978,474247,2693958,1887701441,143675,1209215389,55,43456,5851591762,2805,14.12,11.89,557705369,550348000,6991000,578908283,17
308519417,745669,308571091,37251865,308354164,37063963,436934,2362990,1726924502,141460,308475827,132,31312,1541535935,2088,12.33,10.28,511226399,506757000,4005000,532899100,17
309715648,762812,206951387,1587008,207880199,1586254,473948,2701995,1969999273,141529,310712302,151,32438,1846460322,2084,12.83,10.48,580166243,574785000,5006000,601571987,17
308949129,860641,207804626,1613878,207780042,1607427,468404,2696944,1971916576,144364,309400748,79,33400,1944882203,2087,12.85,10.49,581983168,577494000,3996000,602960109,17
1215339458,977598,608910526,1716661,608420196,1711953,457105,2402587,1656601715,151883,1209599381,167,36759,4562181066,2810,12.56,10.56,489570721,483210000,6002000,510251621,17
210001560,13253641,206118360,289403,202600616,297889,1205376,4106220,823219324,296183,205517909,53,15465,1869272004,2083,5.62,4.51,241320555,235748000,5015000,289570359,18
206793900,13293469,207467846,288722,208515090,288004,1158939,4190845,825568615,309879,205063539,38,24790,1827935644,2085,5.67,4.55,244999156,237512000,7015000,266626701,18
206714513,6637416,202073726,237445,200465677,246375,247460,1481621,673775524,150800,206695403,70,9439,1862127345,1106,4.51,3.71,200338953,196912000,2998000,220903471,18
517395279,21998890,559121509,1062851,561288348,1066838,6291402,10751858,2643469999,2587738,526134803,289,495266,5286743512,98761,18.35,15.09,777097340,551826000,224929000,797982883,18
292888386,19644161,167060099,1342179,164840142,1326967,4821897,10244205,1499212421,1496858,287964601,29009,507769,1753003390,18603,7.63,6.41,248535182,239734000,6963000,269452431,18
205620375,13228432,104741247,279276,106780148,277332,1224016,4307002,768440023,314107,203797102,461,26693,1620202872,2084,5.43,4.37,228233683,222837000,5018000,250066381,18
588011200,28190534,306299077,787073,309177896,783577,6665529,14144008,1693530384,2695277,586174497,607,443673,2674366751,99784,11.91,9.71,497195418,339832000,156922000,517172001,18
209690805,6719209,205850768,229918,201708860,244289,205956,1505847,621157170,174816,205568989,134,12457,1763063509,1104,4.16,3.42,186236569,181985000,4021000,207117528,18
208867814,13170439,205865503,300885,203695141,302310,1128610,3961778,820280985,281736,205337784,0,15158,1961887407,2082,5.8,4.71,239001788,235676000,2995000,259833276,18
208961898,12970962,29032070,215008,29257861,214998,2561929,7041193,588768602,307870,208887815,281,44537,867270656,4040,4.37,3.55,168837916,163500000,4984000,189330679,18
203687602,6577569,204399202,235659,206366434,236564,243293,1506653,623894882,173275,202156919,1,8261,1718803536,1111,4.3,3.56,182487151,177214000,5006000,203500811,18
210996019,13251839,207235672,284953,202796513,288516,1238956,4165444,774160840,247033,206069358,146,13719,1777248683,2083,5.5,4.45,224732039,219330000,4984000,246179595,18
587794470,28573392,305930233,832972,305445417,824944,6736322,14298384,1694229497,2461147,591097022,687,471638,2662081678,99783,12.27,10.05,501291604,330907000,169952000,523179396,18
205841195,13224873,206453601,284655,209105981,285725,1222246,4329843,782070990,271990,204090673,318,30569,1715283331,2085,5.44,4.37,230877453,222572000,7949000,250880361,18
60487544,6682708,31378068,115683,31100830,119112,147658,1684285,196030569,181193,54774208,46,26864,360211301,2087,1.37,1.12,61451339,56167000,5014000,81217925,18
209527430,6682199,103701383,225953,101972082,226646,213640,1401751,566418919,205210,207696140,171,25148,1463725543,2080,3.86,3.18,169658967,165333000,3983000,190696543,18
306747999,13289200,307468407,358529,303234080,371497,1029684,3553840,1006458776,319001,300527632,195,19652,2324717422,2087,6.9,5.58,298050480,292640000,4993000,318806668,18
582102993,51505187,330448495,994875,329222008,992137,5972253,30406055,2845403802,948358,586850886,1395,100466,3728139025,7941,20.75,16.73,822352104,808783000,12996000,843537883,18
206258140,13244472,104923660,278238,106980468,274725,1180928,4221039,766775882,292866,203334945,603,26250,1620417662,2084,5.48,4.43,226766301,221409000,5009000,248757643,18
207027278,12915442,205105159,300586,207228422,308233,1090441,3983263,834300992,361682,205746657,517,60165,1817919319,4035,5.86,4.73,246342697,238950000,6998000,266848024,18
206834182,6585120,204062066,201554,202036967,210511,243384,1337443,489862946,197753,206934958,195,25129,1448371374,2083,3.38,2.78,147387679,144075000,3001000,167754997,18
427423172,27673944,362431816,853244,357306598,849044,6757450,16065867,1858109525,3155913,425332911,724,445410,2778828312,98766,13.31,10.87,542336802,321592000,220405000,564668281,18
206162139,12935559,205398086,298572,207414323,296198,1084531,3888178,829080951,350267,206244862,373,59754,1817806014,4038,5.72,4.61,243842910,235533000,8018000,263939092,18
589482378,28834079,309872700,807149,312094482,819139,6786889,14342267,1686549851,2419903,582595398,411,345792,2872096162,99787,12.07,9.9,494399550,342977000,150990000,515249918,18
206228302,12878144,205176433,289767,207404231,284753,1077364,3921183,829903052,345567,206489565,515,58651,1822937457,4038,5.86,4.73,245511642,235149000,9963000,268726830,18
588255467,28657964,306454371,765801,310025478,768070,6812132,14309664,1704602351,2295275,584348115,662,469556,2672759148,99784,12.17,9.98,496887649,347375000,149161000,517457834,18
412727780,21519893,355353965,847619,358260323,849922,6239800,10141683,1894120515,3070850,419260683,769,427329,3682074052,98763,13.3,10.92,551578336,335144000,216093000,572448460,18
104777156,6425828,31427792,116359,31284778,114243,185159,1758132,194843287,152293,105722764,42,2864,358347281,1108,1.43,1.2,56739875,51408000,4943000,76859678,18
408074518,6917613,204459049,514951,205656600,516486,395250,2615571,1453361243,206534,409242297,373,22702,1430686805,1110,9.96,8.25,427414197,423096000,4000000,447832856,18
350545820,15694883,302511567,576621,301519615,574244,5830190,9042665,1123201382,2458166,348942737,469,364229,1998211968,98765,8.06,6.64,333775731,173243000,160224000,354868298,18
450182799,15746305,504467318,909091,504247062,905840,5922113,10300388,2341624468,2554859,439104420,586,365311,4981269174,97790,16.39,13.55,687703755,555314000,132074000,708756717,18
597533384,30757715,312600716,759200,310494314,750937,6852944,14712735,1565312862,2631526,579633494,506,513821,2592355108,99782,11.27,9.22,463310130,310990000,151995000,484635599,18
206250692,6612658,204719099,179026,202817819,179507,197569,1139721,419242549,162398,202517880,3,5612,1242865199,1108,2.92,2.41,126519070,123282000,3006000,147422033,18
210321597,13476759,106230731,264368,105678640,269496,1310617,4581489,729742770,326086,206403473,296,26818,1557865093,2081,5.24,4.24,212157323,207580000,4011000,233708488,18
208347188,13092198,207827405,319166,208398283,318214,1068036,3857932,868177883,329186,204531070,113,50060,1835099652,4038,6.06,4.9,253480237,243256000,10010000,274194308,18
205442822,13053468,103325608,353236,104750163,360456,1060892,3596392,1054171120,333961,207093064,232,27168,2020633732,2091,7.24,5.85,312202763,307837000,3997000,332394481,18
206896013,6728737,207087252,276033,204769985,285022,234595,1604755,758914533,178374,201641682,63,10769,1939897178,1108,5.12,4.21,228118414,225749000,2006000,249086408,18
207741213,13327740,207886283,292792,208326668,295649,1085607,3985495,863088885,258501,204375804,168,32050,1833748475,2084,6.02,4.87,250723719,243456000,7013000,270378871,18
206029921,6539438,103272472,164596,102851655,169704,222567,1176372,380253149,192982,206869020,231,23161,929553083,2083,2.71,2.23,116784899,110499000,5972000,136039127,18
205897799,6573648,104189131,168279,102929851,177512,233310,1218880,381081029,200719,205802718,196,23690,926937306,2085,2.7,2.22,115414858,111053000,4001000,135919980,18
523310637,21193887,554440207,835495,552492139,838746,6108556,10270809,1808665065,3065603,518956205,209,450851,3621040298,98762,13.09,10.74,532732800,318992000,213326000,554021749,18
207173535,13248475,205310686,279730,205125677,285534,1179988,4277956,774585133,271358,208112191,48,18010,1741252792,2086,5.49,4.43,230145721,223711000,5992000,250754747,18
352882873,15880006,303166354,662466,301045694,658223,5692361,9181989,1505603369,2219381,350584588,82,543086,2719630522,98767,10.72,8.83,446920522,277310000,169189000,468358482,18
211208624,13127948,106922413,285861,107609818,286012,1420775,5014466,748824227,326851,214462527,31,30050,1541371025,4137,5.43,4.37,222769299,214439000,8016000,244062639,18
596714921,28893808,311261870,1131345,309413169,1125542,6986296,13929254,2836491739,2460799,590950611,271,466302,5291297480,99785,20.05,16.49,840641584,694208000,146043000,861949684,18
410727162,13604330,309211066,47269227,310935182,47052631,1008787,3880497,1934310583,425861,403919889,145,39521,1480681098,3065,13.89,11.46,573316368,566956000,5999000,594331144,18
206309893,12879136,204485050,295848,206743930,293952,1065676,3886504,827493850,344313,206471463,59,58149,1823687293,4033,5.88,4.74,246329716,238940000,6998000,267898757,18
206024891,12906337,205377286,287857,207368860,285500,1055809,3896229,825767125,342774,206044512,68,57880,1819573928,4037,5.8,4.68,244372478,234949000,9036000,265396470,18
208819466,6711000,205991444,237570,202524865,244224,251044,1515204,624512169,177130,205900890,50,13590,1754573932,1104,4.27,3.51,187315062,181027000,5967000,208288214,18
207063910,13192590,208374521,263564,207140611,273839,1212426,4164039,769448734,258685,201790967,188,21613,1734516906,2087,5.45,4.4,227824719,221494000,6013000,249016521,18
207759323,13194076,208790589,270203,208033110,273456,1236538,4299110,757359738,277709,201848531,172,24652,1626867075,2089,5.49,4.43,224929324,219533000,4989000,246628260,18
593135232,28287005,306378360,794864,305645310,805351,6840093,14450404,1702506563,2896963,593078411,198,519769,2702801294,99783,12.28,10.05,505273229,342901000,161953000,525941959,18
209431428,13183166,207188212,464526,206896695,464075,1073736,3337289,1378736035,336487,207826361,137,61680,2743930404,4039,9.39,7.6,408257642,401945000,5999000,428760217,18
520237522,21604060,555133431,832189,553290875,832846,6258321,10322426,1805779878,2713979,514561214,172,436100,3619856634,98761,12.93,10.6,535377630,328015000,207009000,556391813,18
549507102,16161949,404032167,867530,404095290,853680,5829443,10288065,2163450419,3091828,546468249,216,356385,4407625990,98766,15.75,13.12,634408117,487113000,147034000,655216105,18
247279099,19769121,211425761,381364,207511903,385670,1149536,6849441,926175416,334485,243357522,53,17843,1929480554,2082,6.72,5.47,267015586,261452000,4989000,288978147,18
207288277,13195254,207926308,279049,207194962,286104,1245783,4206777,773280170,254546,202676050,59,15930,1728279136,2086,5.5,4.43,229289059,225770000,3010000,250009590,18
286777070,38714098,217846883,843924,214182263,845145,3031393,16453350,2577666329,695790,287415801,471,53200,4019474768,4039,18.53,14.98,750560074,743168000,6992000,771788194,18
689255728,29451496,408318513,803171,410748865,799240,6760199,14050912,1771721528,2673591,688603834,208,452986,3389413284,99788,12.78,10.48,524933633,363353000,161156000,545492032,18
303450359,13190313,302647786,471485,301541002,464371,1076402,3309848,1467894609,304644,305028128,142,25520,3196714933,2085,10.44,8.54,436829351,434447000,2002000,457045080,18
206413173,12969448,205879205,276594,207824846,274174,1067002,3847406,824224478,352551,205431786,101,54472,1820502328,4035,5.78,4.67,244794640,238353000,6008000,265932061,18
209115315,6703354,206696272,223845,203716436,229559,212787,1371983,622506861,197439,204359691,110,29021,1736933070,2080,4.3,3.54,186728932,185414000,1002000,207814483,18
207751440,13327040,205842227,561558,206041378,552372,1042775,3523022,1761345260,344833,208071176,185,34493,3847190061,2085,12.39,10.16,521141489,517761000,3004000,542047267,18
212597569,7716601,208310331,1187138,208903974,1187717,763811,5842608,3930918679,254118,212167990,709,59567,1744049883,1109,26.53,21.92,1152066312,1147824000,3999000,1173837932,18
308902752,13165903,207057150,312893,206178282,312886,1100257,3818198,871660752,319571,302184534,81,19210,1833558644,2088,6.18,5.0,259021632,252710000,5993000,280719905,18
211422329,13312816,208418101,275697,204076265,279575,1212431,4155972,765518286,267780,204315497,0,16222,1762181297,2087,5.59,4.54,223983396,217628000,5989000,244938807,18
206084810,12987640,204205233,267028,204518201,270122,1178972,4130226,773886608,285190,205707377,113,23229,1827464996,2087,5.58,4.51,231579129,225246000,6006000,252705715,18
204697704,6535486,202806500,232478,202357368,239421,172863,1341397,621412521,185620,205855751,43,33368,1719542283,2084,4.28,3.53,186065932,181773000,4017000,207411806,18
206113364,13279429,207201264,262706,210174300,271767,1191707,4263626,765605169,274097,202333490,49,25205,1708876647,2084,5.51,4.45,229131702,222673000,6018000,249912298,18
308476070,13268967,205130091,555747,205880881,566300,1095256,3624569,1815464294,351055,309870542,303,33033,3955488305,2087,12.98,10.67,533590929,526618000,5995000,554360110,18
526614858,27448249,466186140,1070506,462716248,1069025,7077272,16248998,2666024524,3334805,521669506,246,385316,2463061144,98759,19.43,15.96,782049294,560514000,221202000,803464000,18
207215174,13194729,208457791,269623,207031982,278301,1195611,4129842,766693126,286068,202028604,33,20711,1737254229,2086,5.53,4.47,227361384,221977000,4999000,248789059,18
204250637,6545251,102743523,208336,103383581,199217,231978,1274376,498108517,137691,203106450,55,7727,1221988999,1111,3.56,2.95,149437264,147096000,2001000,170038017,18
406072582,6653903,203697627,263182,203751290,272250,282516,1601658,750132304,163363,403873096,174,10871,1925232793,1109,5.23,4.33,223320469,219951000,2999000,244379146,18
208096827,6704000,206355496,228330,203368962,228225,228476,1413136,625947087,206215,204931880,80,27624,1741314821,2085,4.33,3.56,188036601,185828000,1998000,208505584,18
206639201,13125068,207394675,271719,207318823,282250,1200130,4224696,764653444,258711,202446739,48,19944,1724775201,2089,5.53,4.46,228507177,222182000,6004000,249753448,18
206213566,6541879,201992626,186495,198471583,178975,204032,1166981,446974447,150598,207563328,56,9095,1339974950,1111,3.22,2.67,135756305,133332000,2004000,156867050,18
211546999,13256760,206737536,257303,202363822,256683,1253403,4274684,755357069,271873,205799213,56,19403,1664074234,2085,5.52,4.48,220489234,217208000,3002000,241534238,18
205137728,6604170,102060658,256199,101520231,255442,251852,1498774,714034479,166774,208970757,127,9681,1646308214,1105,4.93,4.08,209058499,204709000,3974000,230744748,18
208196510,13062479,105741601,256469,105936492,260443,1229736,4437262,721627538,349715,203146048,40,56752,1528690582,4038,5.23,4.22,213323182,205005000,8000000,233808214,18
593128149,28783116,310109641,970343,308463049,974617,6903752,13598138,2315976408,2936017,584943288,271,484443,4272102598,98805,16.73,13.77,686651819,514233000,172078000,707852284,18
207142792,6603620,102155769,230478,100728390,230593,254506,1424046,568735298,169701,210076997,1,7391,1465721186,1110,3.96,3.26,170024796,164574000,4957000,191052893,18
310111174,6718845,205412623,264524,202429230,272239,292349,1616570,768361828,171076,304685270,207,10815,1856470606,1105,5.37,4.42,228240961,224772000,2983000,249468013,18
207338610,12873779,204509026,300631,206194208,291398,1105101,3920218,835012976,341084,206841023,94,60553,1819861736,4036,5.87,4.74,247555677,237031000,10001000,268095372,18
206972644,6613291,103943549,189486,103698755,189516,205770,1191101,422123804,199839,203096363,0,26199,1028644488,2083,2.97,2.44,128378915,126129000,2002000,148913827,18
587796163,29144809,305843428,785322,308886054,787219,6832305,14317866,1705186406,2559566,584414843,223,455822,2671934392,99788,12.31,10.09,498484384,343082000,155037000,519378095,18
206925905,13324487,105544429,276029,107100783,286648,1307460,4530015,781387632,284744,203722841,207,18307,1630416852,2080,5.55,4.48,228887147,223529000,5011000,249419030,18
206483748,12836631,204789730,277245,207066444,274933,1078708,3920418,826805124,343405,206118462,93,59946,1817587454,4036,5.84,4.72,245057856,237701000,7020000,266395416,18
585197561,28752883,303627399,949549,306795998,949300,6854558,13286733,2351425312,2759510,589587688,423,435434,4463068244,98806,16.91,13.94,693344231,552012000,141003000,714620738,18
207919230,13234475,208409420,265613,206794001,278552,1211924,4145489,767534404,248489,202568948,140,17453,1735867157,2082,5.52,4.46,229158598,224857000,3997000,249716188,18
218390531,13568496,115375981,645886,115209629,623944,1575870,5243226,827018420,386587,215470102,3930,75072,1572259220,4862,5.61,4.57,219400908,213121000,6003000,239356023,18
278067660,14619057,295838271,950933,290867248,944323,1416667,5386987,1034211181,423371,275611736,15988,59813,2115888006,2452,6.31,5.21,235688049,226727000,5992000,256053677,18
207660550,13046225,106096969,266913,106218774,271112,1291518,4480705,725119183,340888,203105321,112,57469,1518205117,4034,5.2,4.19,215368815,208921000,6026000,235677309,18
205382810,12946708,103702550,259891,104502472,263182,1340429,4532431,717545683,305089,205686338,0,18487,1530806791,2087,5.15,4.16,209489049,206104000,3001000,230344771,18
207358341,13200666,208214645,273796,206892628,283617,1226754,4185990,769436360,261934,202249724,233,18166,1738573313,2082,5.52,4.46,227942707,221640000,5963000,248328697,18
208646382,13254527,208647976,280730,206618926,280392,1241456,4196631,774611006,281112,203491755,46,15444,1745826059,2087,5.54,4.48,227267622,220862000,5969000,248333988,18
207332477,13188894,208431102,271840,207495499,281272,1229060,4196426,767973734,257528,201577491,38,21549,1729803525,2089,5.53,4.47,228137151,223826000,4014000,248658611,18
587488804,29211497,305747799,781533,305288061,788859,6869999,14382929,1710727890,2447733,593843460,121,619885,2674537212,99786,12.47,10.23,503500915,360136000,143054000,524288778,18
590618821,28826611,309447812,788949,310199363,794201,6892815,14637295,1665536360,2405676,582494181,172,427695,2765905145,99784,12.06,9.87,490621641,322067000,168035000,512026937,18
206973065,13175387,208126660,256909,206846467,264674,1222891,4133453,770053818,260358,202157966,75,18835,1732918498,2087,5.52,4.45,227871421,223670000,4012000,248474110,18
654110472,20554727,343645630,9129415,342523173,8930758,2412880,7618823,1414493222,1869692,650503023,278,158019,2795258660,24690,10.21,8.54,414192645,374523000,39054000,460900140,19
170754772,7186849,87221037,1151245,87578630,1133106,2531982,3763154,489192726,897864,174106697,25,177309,663557337,45675,3.43,2.83,149024764,84765000,63823000,170129740,19
137631244,5461410,63806919,801902,65972813,786518,1570202,3641849,577100122,651147,145087758,8609,119029,578678054,21968,3.45,2.89,132268334,86002000,46001000,151732692,19
147058527,6260285,115135594,1056486,116318439,1045124,1332743,3144796,431674818,593326,153750363,50,98066,627042404,20542,3.1,2.54,130504864,81092000,49055000,151683564,19
190896663,11523874,130410908,1579927,130653991,1596693,2959253,6706057,665298287,1077167,187717325,33,199082,740150142,40944,4.81,3.93,198476009,106035000,92030000,219441395,19
274380291,6755216,106088122,223431,106855123,230801,1320251,2368328,437174162,407957,273388679,45,106391,853574249,20590,3.2,2.65,131304675,93234000,37690000,152660087,19
206790667,12570990,142619772,1177202,149252722,1164569,2570427,4343563,654859527,823254,199011840,100,215336,915476752,40988,4.52,3.7,195193914,121829000,72898000,216049707,19
271644340,13166994,127915639,2106610,125637369,2067302,3946294,6708058,843011903,1607206,268619128,29109,593150,858788548,36595,4.25,3.67,131465746,94013000,34004000,153121591,19
138999002,3625004,107695819,1060517,107266833,1024900,1306160,2130200,345789607,490037,140214502,488,91810,581474696,23440,2.4,1.98,104841288,65351000,39210000,125488896,19
128473619,4814123,75858231,1088173,75818308,1089629,1295469,2208560,422178009,535513,124801148,6,96561,531721855,20536,2.91,2.38,127781767,82638000,44803000,148279447,19
173412811,11855659,109554834,1160485,109901025,1191593,2874584,6389811,748641059,909653,173662209,222,187970,695479643,40939,5.32,4.33,225722206,125219000,100175000,247617856,19
214469762,11570639,149548345,399830,150671483,401705,2747548,6183883,767790483,1014189,210049253,374,185122,1045976099,40944,5.51,4.52,227000020,132457000,94325000,247834141,19
173045096,8997638,87020753,347336,88544710,350846,2625479,4226955,625952062,909748,171605904,447,204457,712416078,40943,4.34,3.56,186742456,91222000,95231000,207710466,19
735093191,49621509,411298838,10864486,409366875,10838485,5269205,19588427,1850351001,10107526,730586812,485,1348491,3307896638,55928,13.36,11.15,547197039,449985000,96996000,567303873,19
127530334,6136358,59979804,738812,59969217,750720,1436869,3210241,420028485,568524,132145156,180,87004,472739670,20542,2.97,2.43,126144876,75411000,50274000,146247614,19
888215501,93150704,472871839,20962848,472451345,20743843,2595962,35001612,2064414487,20873727,884273472,693,162788,3113201655,24742,15.35,12.9,609379421,567121000,42009000,630020989,19
650950532,87056319,428606665,11283655,426953614,11287413,2536934,30076150,1979743774,10499699,647482806,662,173543,3211911083,24688,14.38,12.03,583658232,538203000,45017000,607002197,19
939339225,25150920,522460921,15297904,522990826,15313972,2501576,8688732,1759952394,3360885,937915694,550,182304,3255248629,24693,12.64,10.56,518271864,473977000,43997000,539181980,19
162382849,3852783,108433109,236422,108404229,237379,1378121,2349369,426924399,446441,162210029,120,99419,863053981,23365,3.04,2.52,129113042,87123000,41058000,149716958,19
628869421,16457510,371599031,15372391,372110683,15355121,3391783,7222096,1585480509,1139797,625323420,299,219046,2451546041,49123,11.35,9.45,466896927,388672000,77934000,487837287,19
801793040,14211514,425335692,15854916,423729438,15777413,1833739,4977213,1551047165,630940,795661578,517,134470,2931770075,24770,11.19,9.35,458062664,413798000,43978000,478402012,19
939542489,31939780,378165489,9007223,379429790,8785305,4117836,11404376,1642943485,2413238,940163982,611,204328,2858702850,41096,11.9,9.93,484889841,416560000,68091000,505130519,19
237558981,9259344,147855082,1187115,146394557,1169619,2639182,4194395,642239618,1085807,237021608,339,203686,849136855,40943,4.53,3.72,192246315,98977000,92978000,213554604,19
191263843,4828364,117208392,1110462,117724363,1100748,1287070,2183646,446797620,457551,186518311,223,107564,663057858,20539,3.11,2.55,134672735,88297000,46155000,155163135,19
144481130,6593418,64807713,1079958,63317919,1063569,1393138,2425092,447228394,394256,144005997,178,94587,533797273,20592,3.05,2.49,134918461,94761000,39899000,155568363,19
171927421,9465328,84628715,352180,87323738,356614,2699239,4336932,628572166,964032,172890873,156,194328,712970093,40943,4.42,3.62,188230666,98433000,89393000,208688766,19
268971298,6704669,166578371,3371362,166265108,3385718,1384540,2471598,469721560,532463,276085711,175,89454,894373863,20592,3.41,2.83,141245648,104193000,36715000,162150825,19
142830685,6566989,66716309,1010473,66430868,1037068,1374942,2367799,413493532,439301,140883475,1,124297,506453640,20590,2.86,2.34,125215409,89945000,34978000,145828885,19
807335752,22039500,441209637,15440482,441467027,15378803,2943113,7167835,1576363944,891985,808188669,362,203988,2868323934,41171,11.68,9.77,467574044,396209000,71037000,488166589,19
237991256,9241645,147232230,1124537,145613009,1145251,2736744,4487398,568407663,1128825,237697197,355,259127,832095085,40959,4.11,3.38,170394867,79025000,91029000,191324438,19
131648569,4869758,74428708,1095659,72810674,1112198,1306923,2194187,447612300,701862,130930256,162,94300,566803027,20530,3.09,2.53,135859181,87399000,48220000,156904552,19
142651626,6894752,64085650,1017474,64907073,992199,1372709,2344311,344697976,447360,143481060,270,103387,527826229,20591,2.47,2.03,104583710,64192000,40120000,124907549,19
743111722,14858967,370886449,3769279,370831521,3778701,3180514,6455196,1279658286,1061350,737732660,374,249743,2669777340,50082,9.44,7.91,378210734,296661000,81180000,398732716,19
141624690,4739760,73412832,245902,73002769,242333,1595857,2544496,463623081,595151,142391659,296,116824,650983111,24558,3.13,2.55,140095562,98485000,41203000,160723917,19
163175683,6601592,87211459,1013253,86871763,1030364,1416144,2464137,422225101,465345,163627684,137,112325,587302454,20592,2.92,2.4,126850795,88936000,37550000,148429118,19
214876038,7236771,132210818,1120893,132508437,1131301,2644924,4205750,572429977,1058897,213238340,352,199438,725678496,45687,4.01,3.31,171499083,103161000,68106000,192059296,19
144007523,6494390,66710799,1009769,65523951,1046069,1383391,2355052,373371650,449131,145406824,157,93530,553673443,20591,2.64,2.17,111065456,74751000,35880000,131266702,19
177415056,2990699,126463214,3160064,125748392,3125883,74021,544246,320513034,18416,177459432,134,4632,710524554,147,2.29,1.9,97531211,96129000,1001000,118049234,19
163664985,6511205,67906176,1032344,67909274,1029994,1295654,2327278,431421035,441521,164434162,180,135852,628834485,20591,3.05,2.52,127399553,91001000,36000000,148365062,19
140895581,4039730,46830598,206052,44877785,204865,1363737,2180208,363335738,568724,139424022,42,108548,562553631,23385,2.55,2.1,109621203,65123000,44083000,131026379,19
140198140,4196594,68568501,1071759,67223562,1087701,1411151,2382069,486024849,486481,138119525,89,111658,598665766,23386,3.25,2.63,152495433,109085000,43033000,175052125,19
229337782,6531367,106491794,992301,104524564,986455,1401535,2393469,374496332,445838,234920988,83,102118,703988732,20591,2.73,2.26,113630316,75216000,38109000,134786519,19
298781046,12490898,130011990,330856,130859372,330753,2574532,4329708,620813904,1019971,305683578,12,173247,1048344631,40999,4.57,3.78,185659757,113248000,72158000,206275433,19
144345928,6531453,46753791,238634,46964900,240594,1430082,2489884,423529348,466718,142183603,3,121257,527909379,20591,2.9,2.37,128504013,90097000,38041000,148862944,19
140547088,4235667,67882064,1064078,67744065,1058818,1408504,2370628,430269837,561091,137601066,33,91679,579989168,23390,2.99,2.47,129293895,85968000,42984000,149685111,19
164393049,6659339,66477427,1026604,66639046,1014041,1385622,2463940,424432758,638437,162065995,1,108869,670654547,20591,3.04,2.49,129143556,96654000,32218000,149918612,19
126622325,6336737,51255492,238268,53844785,242995,1456002,3109714,449117894,598356,131935175,26,95672,541131446,20537,3.24,2.65,131584372,86150000,45078000,152935206,19
172910494,7554833,88239788,1120878,89983864,1104185,2579855,4269852,579392031,917498,171646835,15,196783,794320695,45679,4.19,3.47,174616625,101175000,73126000,195663567,19
236523367,12479730,130211957,1119517,131347079,1150514,2601143,4401070,585373849,1105838,236615820,16,267860,768054024,40999,4.18,3.45,171443676,101062000,70043000,192251729,19
220115213,12851671,86003935,1105783,87422063,1084997,2622705,4467702,537473633,804577,226127612,50,226667,771226552,41197,4.0,3.29,162103697,87454000,74386000,183016577,19
158063985,6248418,62432333,278118,61219910,279511,1742396,3812107,564653478,666505,156834707,56,147322,640985519,24601,4.09,3.36,165244608,107933000,56964000,185804597,19
632646824,14235799,345657314,15408476,344342716,15366617,1837690,4903797,1356763184,644660,627889235,183,153818,2533565489,24774,10.21,8.54,402492416,358018000,44125000,423637706,19
192397191,13812564,77991766,328028,77332750,345888,3292324,5495819,576955736,1222292,193074654,166,228409,693493594,49220,4.13,3.39,172182763,85945000,85945000,193210836,19
189362584,13726981,76721206,336128,77807602,337997,3127330,5199766,645276179,980649,191431236,192,262789,684575628,49115,4.67,3.85,188298736,105936000,81951000,209334859,19
159595218,4136769,86748067,3157117,86977211,3127711,1363448,2329802,421466750,536497,157764625,24,105019,582997586,23368,3.05,2.52,128998883,88740000,39883000,150382799,19
216910886,12548902,130392769,295414,130126072,294557,2790809,4781076,515198695,899644,217512604,3,155129,799795398,40997,3.72,3.06,153611161,79169000,74158000,174046442,19
146577781,6319714,95455137,4455988,95248166,4569669,1455177,3206283,566132099,598131,150651482,41,156805,544198057,20536,4.14,3.42,166133755,117886000,47953000,187316662,19
198044073,12719931,89834862,1123573,91777196,1144708,2630848,4437090,674310836,781639,198266490,119,214096,694434014,40996,4.72,3.87,200456630,129018000,71009000,221704263,19
266475502,6614884,107462048,234421,107033122,229546,1408951,2427414,455174662,482286,269354349,53,90047,903371458,20592,3.33,2.76,137014530,95819000,40922000,158272275,19
890730321,102508243,432187923,17836489,431607624,17666524,2619961,45142498,2075143520,20943796,885929841,166,164278,3089429031,24691,15.6,13.14,611234511,567991000,42999000,632348588,19
879551255,45401143,383705104,15400652,383004497,15487101,6808532,19805746,2091867495,3633222,880017071,50,237378,2603463859,41137,14.95,12.4,617717756,542446000,74923000,638856391,19
173797970,9244064,105297621,1169980,103963754,1170619,2825353,4609223,553193083,1055144,173323231,1,141786,723279494,40943,4.02,3.31,166374494,69011000,97016000,188025018,19
266590135,6891324,107267177,231375,107449030,223662,1393279,2433904,461108402,467494,268681757,98,126215,897247435,20587,3.46,2.88,135879303,94401000,41175000,157265389,19
182282953,6709903,66228971,1101266,64987752,1114147,1348872,2375624,422579967,457037,180890033,198,113812,537806659,20588,2.91,2.34,136463655,91036000,45018000,159797880,19
269369924,6710019,107908135,250231,106598364,247496,1366246,2440077,461609686,485735,270697790,167,117501,910210740,20592,3.44,2.86,137653804,96208000,41089000,158432450,19
503199848,67514807,302089525,1369839,300283753,1352412,1723375,23390198,952197236,1362463,499705051,61,295597,2023130957,24806,7.59,6.44,281647270,239328000,42057000,302749995,19
255175322,12188821,129271626,1097532,130127023,1136992,2720615,4658932,524952338,965556,261417184,3,217697,793464889,41003,3.91,3.23,156461429,79039000,77038000,177473405,19
162995259,6665252,66544854,1001223,66446906,1011019,1349516,2358658,422610074,487742,164158094,7,93982,666139300,20590,3.05,2.51,127483720,88119000,39052000,148074563,19
161622391,4623461,87137431,1100442,85440400,1122216,1503652,2402598,453588798,524576,158683958,168,97043,709079978,23388,3.17,2.6,136556976,96087000,40036000,156438082,19
184289614,6591006,46902193,223240,44656161,220696,1356414,2322957,411626517,451888,187002787,20,95036,654468444,20588,2.95,2.42,124279823,82912000,40956000,145955733,19
1205063502,46120331,343127380,15480903,342989074,15470715,2824729,14302992,2195792875,3414651,1207561738,301,118787,3434007609,20870,16.03,13.42,646036055,604800000,40918000,666890684,19
196960308,12522112,130300186,1128306,131463840,1151962,2719170,4579145,583685325,971603,195968706,160,246898,749615430,40999,4.24,3.5,171505530,106073000,65044000,192401094,19
144847756,6735189,64821152,1027442,65440735,1001589,1425216,2414040,344873694,462634,142330305,57,93102,506688993,20588,2.48,2.04,104675497,73186000,31079000,125881415,19
147702877,4936288,95249146,3356411,95376127,3296702,1319326,2254748,446909461,528581,146002561,52,109671,566769391,20537,3.21,2.64,135470677,85010000,50006000,156254851,19
140472340,6635884,66651149,1041656,65321232,1069211,1360220,2361892,415891836,467495,141548752,37,90456,517730744,20590,3.0,2.48,124284281,84006000,40002000,145065858,19
216882147,13020573,129345609,1119129,130335574,1103452,2746741,4619854,585497566,882011,222506170,72,195676,778412105,40995,4.21,3.46,174714516,97647000,76722000,195359068,19
139402532,4010093,65545943,1079909,64127143,1075549,1392847,2250592,398623545,541832,137948574,39,106234,513695421,23386,2.78,2.29,121099147,78525000,42282000,142171428,19
628847677,23918685,371311907,9427716,372037624,9358840,4605129,10854230,1628712964,2640017,625783581,166,268210,2585240709,49174,11.79,9.82,481206454,399809000,80961000,502169342,19
217145222,7493943,112094505,299455,111890793,298621,2524967,4175250,572872478,1228608,214845491,55,170595,784709753,45686,4.09,3.38,171504205,104107000,67069000,194827265,19
1002535141,57019197,445239714,15551410,444407811,15627632,6695111,22288722,2335487314,4159251,1003143677,241,237400,3310773759,41242,17.25,14.37,688121305,620790000,66977000,709056702,19
441686720,68372884,197043624,1366260,196120491,1373297,1755913,27674113,856319773,1185181,435603752,26,257446,1706694294,23576,7.01,5.94,254631039,215300000,39054000,276684595,19
139890629,6787859,66726710,1039528,65147422,1071261,1311689,2280381,420509512,469275,142523334,83,126314,519910450,20590,3.03,2.5,123534329,92152000,31051000,145298458,19
84902639,8398314,45799394,958479,45506890,948317,60586,441694,259169441,19041,85099259,126,5080,381666669,157,1.82,1.49,79568286,78315000,1004000,99735016,19
271031340,6641615,107622179,244118,106571414,240259,1418822,2481208,459300611,491705,271538317,3,101874,938163012,20591,3.41,2.82,139483559,101175000,38065000,160766625,19
1156592017,41471069,438341608,9033622,438243573,8928526,4113852,13505120,1926260332,2948147,1153862021,253,219071,3363698346,41144,14.48,12.1,569943640,494475000,75072000,590943733,19
159868246,4158266,97299989,4658105,97589813,4680080,1366069,2368648,465824855,574642,156036962,21,106214,594484324,23389,3.34,2.76,140441131,104016000,36005000,161450140,19
84949657,2939017,44716837,952573,44756865,955348,61031,466761,253109803,17984,85263064,24,3837,370838431,143,1.75,1.45,74322886,73020000,1000000,95192695,19
148720250,4896253,94731206,4630280,94134888,4757041,1265490,2205145,496522045,597123,148570121,63,92539,575471385,20542,3.61,2.98,150898563,104708000,45872000,171490580,19
241470365,12905545,150525201,314622,150868027,313940,2670387,4460376,604273678,800357,242168942,22,202320,936150462,40995,4.52,3.73,181169125,106813000,73871000,201170539,19
177253630,12581220,89111971,1142567,88159547,1172145,2644373,4460795,573874231,901574,175680437,26,231225,629036827,40995,4.23,3.49,168518828,95118000,73091000,190486928,19
824685432,21563542,335627231,9679802,338392403,9599307,2223417,7493155,1419903339,2198230,822971598,140,126566,2679439422,20665,10.61,8.87,419703836,379267000,40028000,440444032,19
228226444,6623995,107774303,1035166,107791687,1034496,1420519,2489976,432508160,466899,229882646,97,81690,671886063,20589,3.1,2.55,130286519,89713000,40320000,150811501,19
162132554,3965469,108472298,229009,107931960,237024,1418512,2427789,430130205,611255,161332770,114,94064,885174973,23391,3.14,2.61,129233481,91551000,37224000,149944163,19
216806106,12005044,152447335,398125,152723729,405099,2991805,6577187,767505499,968072,209687213,313,157444,898594305,40942,5.54,4.55,224332246,132561000,91386000,245600005,19
971500123,27642010,419526421,10015180,420555509,10008398,2356079,8701716,1640975241,7556549,970722758,175,147445,3160023288,20698,12.16,10.19,483100632,440667000,42063000,504188591,19
155357556,12603804,68580492,310518,70431042,313462,2747558,4588241,581128511,743689,155385909,138,236486,607368568,40997,4.13,3.38,174109740,95815000,77850000,194644392,19
820076760,13089377,475592575,4794443,468391317,4602920,1871723,5672682,1317358639,963657,799581691,8235,186225,3004881017,25579,8.92,7.66,301780819,256404000,45071000,323421048,19
851433833,110407883,368293945,12037663,368238808,12035079,4622622,43148719,2129480920,19890532,848765396,265,229268,2921288352,49271,16.24,13.63,626586671,547071000,79010000,647035495,19
210648169,11904144,167513395,1237467,168346210,1225556,2837017,6319904,774497546,1118259,218579408,36,249766,1052759810,40941,5.82,4.79,231333454,132396000,98550000,252215817,19
148675651,4978609,94703486,3331344,95413656,3214359,1344406,2327327,445494099,555105,147121811,21,112829,570544479,20535,3.29,2.73,131279579,83931000,46961000,152849296,19
42795841,277858,26144738,94664,26360973,89410,59201,267858,60845842,19415,45293387,44,4901,140652635,525,0.4,0.31,22730285,20249000,1928000,68969269,20
476790,60820,1053055,38707,1022967,38645,16790,98307,8563356,11418,488012,?,?,?,133,0.05,0.04,2413046,2018000,0,23791352,20
575984,55686,1025954,38878,1003598,38818,16998,102223,7769068,12100,1120501,?,?,?,134,0.04,0.03,2305717,1029000,1029000,22583001,20
461574,48211,997496,36877,991123,36573,16329,97016,6685317,16865,1232921,?,?,?,137,0.05,0.04,2116776,1811000,0,22162551,20
91620930,326271,57528148,113134,58279496,108780,73720,324907,130169572,19887,93972329,44,3962,278766176,520,0.91,0.75,37933052,35735000,1985000,58647021,20
38105640,188789,23028895,77205,22614650,82249,97019,337762,53806798,31618,32636931,55,2109,121300207,917,0.37,0.29,18530890,15117000,3023000,39464293,20
93874901,631450,69301852,170657,66135584,154069,81369,407845,133836003,24976,97083796,9,9164,285397862,1033,0.93,0.76,43121280,38872000,3986000,63625316,20
83610567,308122,53124707,110202,48781303,88618,74740,359569,116840401,26112,81718141,32,3614,257239265,519,0.81,0.66,37635014,34411000,3036000,58168145,20
76126488,4030285,51632693,421554,51909746,423658,264121,744883,229038037,461073,72048314,4,16492,256658344,2477,1.53,1.25,71766811,62516000,8930000,91301490,20
43128041,404631,30883717,107036,33479331,113706,62593,306039,72309147,25785,45458580,267,8115,146505987,1041,0.49,0.39,23335699,19076000,4016000,43393508,20
34564642,134336,19675541,70960,18532253,71273,64669,254967,46700987,24596,33723510,0,1048,112172291,524,0.3,0.24,16126975,12126000,3731000,37200775,20
398930,64350,1058794,37648,1014410,37587,16702,96859,7706888,9489,834851,?,?,?,130,0.06,0.05,2464329,1049000,1049000,23461789,20
39723058,224546,24974760,83680,26579057,91832,70818,298747,60428646,28962,37270157,48,6069,130759428,784,0.41,0.33,19144741,15694000,3138000,40551404,20
97124892,1039962,70342637,161934,69734657,168379,131349,565751,139838158,48705,96607025,17,10071,289310108,1937,0.99,0.8,45365532,38055000,7010000,66618259,20
93762272,304195,59787320,120258,57331963,103103,73783,322107,127870274,26916,91882100,73,3417,279355078,518,0.93,0.77,37567696,35309000,2017000,58205515,20
38970598,251391,28035957,88693,32225174,92016,50145,254803,59180397,17397,43214586,25,5016,131694893,523,0.41,0.33,20368247,17030000,3005000,41116625,20
36363745,231661,24583709,80786,25397910,87997,53321,243576,52717048,17431,34340804,20,3128,119600587,524,0.36,0.29,17738556,15442000,1930000,38119344,20
642674,76670,1167825,37474,1015756,37413,16620,96584,6820553,9136,373057,?,?,?,130,0.05,0.04,2556207,2181000,0,23993603,20
31149828,178042,19010473,72227,18497105,71704,42295,260486,45917769,17850,31980045,2,4077,104766264,588,0.3,0.24,16320726,14097000,1879000,36980422,20
82642986,446027,51317373,108033,48276987,93206,57564,360432,118425903,19570,85954765,62,8332,265135913,995,0.82,0.67,38096185,33803000,3976000,59210030,20
93470607,507870,67862246,161208,62116419,138901,86763,386258,127168725,23935,93524642,0,2852,282509659,518,0.9,0.73,41252689,38830000,2043000,62552677,20
44234340,416394,36040220,133496,30454201,116891,82245,322730,80652265,23826,44826742,184,2737,147505371,525,0.54,0.44,26417708,24118000,2009000,47756668,20
43233632,408504,30964773,116926,32836493,108100,67156,296138,69866382,20091,45035592,154,9248,145277164,1042,0.47,0.37,23554896,21297000,1936000,45365203,20
93405146,205415,56365861,105468,55957378,104552,68370,412982,127437065,16660,94946365,0,4156,281166457,583,0.9,0.73,41054196,37723000,2978000,62408877,20
79829838,118338,45813009,85780,45184295,84893,55637,305807,104631647,23182,77427691,90,3425,230385940,324,0.74,0.6,34672497,33446000,1013000,55317499,20
1140425,77404,1008854,36992,1008156,36930,16574,94476,6734448,10037,?,?,257,556941,133,0.06,0.05,2283885,993000,993000,22290931,20
44779757,541283,30821883,104499,34253197,109779,97898,325674,67860697,31669,43779562,65,2538,150694386,916,0.47,0.38,22507497,20300000,2030000,43037598,20
45094416,913274,35248414,129276,30715946,113670,127516,455827,76173038,46257,48582248,38,8560,150608553,1944,0.53,0.43,25524784,23194000,2016000,46610464,20
30874502,255700,19862663,68702,18628294,71316,64139,285556,47972633,30326,30199756,0,6817,103406159,1040,0.32,0.25,17369012,14018000,3004000,38571225,20
46845904,360283,37349712,117593,39452144,127342,64900,272560,65076722,22208,43350247,56,2554,145595986,527,0.49,0.41,19111944,17822000,1048000,39482044,20
415814,60929,970868,36412,994272,36350,15251,97049,7922246,11414,808135,?,?,?,129,0.05,0.04,2062753,1777000,0,22427670,20
44392212,924615,35250456,129112,30992273,114688,127041,462947,76252656,51578,48876988,1,8141,152137374,1944,0.51,0.4,26381399,23056000,3007000,47041123,20
432890,58680,1042208,38821,1028031,38759,17188,103924,8475942,11812,1180122,?,?,?,134,0.06,0.04,2413054,2133000,0,23189788,20
41796542,451926,34212862,110447,33575475,111615,49727,241887,60285735,17304,40109635,6,5046,137557769,524,0.43,0.35,17740964,14408000,3087000,38232047,20
84334653,285529,51566880,109713,47647683,92850,77486,329412,117682153,25368,84214229,72,3902,268092581,522,0.83,0.67,37817815,35579000,2033000,57979595,20
93799912,496099,69420014,157601,63545080,140640,84446,383222,129928408,25458,93510217,0,2556,283911286,521,0.92,0.75,41766382,40489000,1012000,62209572,20
51842097,449137,45318990,141230,44695310,142688,73924,342985,96469688,25107,43092196,0,501805,179040088,523,0.65,0.53,30373049,28919000,1032000,50898393,20
79053472,127406,45483672,85724,45396832,81070,54181,309920,105535381,21481,77029735,81,3663,227470936,325,0.75,0.61,34926816,32616000,2038000,57298842,20
31184613,106500,18258079,69147,17491861,69063,49040,232996,44571576,18811,31414332,0,1002,106499269,329,0.3,0.24,15589314,13178000,2027000,36840586,20
31423646,85447,17745688,71086,17661827,70466,34532,196661,43104422,10444,34057883,0,1047,106187233,133,0.31,0.26,12568785,11259000,1023000,33130386,20
46771660,482771,34961172,103886,36356590,114910,94854,341394,66494883,53922,41940431,58,2828,153397942,914,0.48,0.4,20000406,15749000,3937000,41187181,20
79401643,112846,45288042,84967,44891335,83870,58125,295701,105596500,26596,79086974,0,2012,232006924,324,0.78,0.65,30743091,29578000,1019000,50771689,20
45075126,908362,34611721,125087,30287455,110544,123636,456073,76243730,38418,48806657,41,9426,152085428,1944,0.53,0.42,25309723,23971000,1042000,46538883,20
652371,67249,1028264,36925,1030986,36863,17436,98640,7853392,11524,523908,0,2987,1370946,135,0.04,0.03,2342694,1040000,1040000,22514989,20
31371207,120593,17756366,66885,17341884,67356,48695,225030,42201094,14865,31691951,0,989,105521376,329,0.29,0.23,14827214,12650000,1946000,35383225,20
92551015,512621,67152391,147647,61905259,134218,84460,396203,130363169,23622,94084721,94,3240,280051468,522,0.93,0.76,41221983,39046000,2002000,61267614,20
38261286,296986,29187712,90095,33006187,101596,53011,251639,59523926,16106,42734490,44,5167,131155963,525,0.41,0.33,20328491,17266000,2877000,40715216,20
37445923,218313,25127984,91876,24563882,94468,63785,269219,52326550,23946,34747272,0,1132,124525204,523,0.37,0.3,17616166,14388000,2877000,38542589,20
82257190,351549,53868538,128304,52793942,117031,75658,351860,125855998,20413,86014331,0,5616,257207097,520,0.89,0.73,40427716,39977000,0,61703970,20
92636700,605607,66547680,150297,61941726,130730,67059,402844,138509759,34816,95903514,1,8094,282445260,1034,1.0,0.83,40587626,36264000,4029000,60731818,20
679048,69978,1092443,37015,1014732,36952,16571,99880,7001638,9136,764080,?,?,?,138,0.06,0.05,2526850,1069000,1069000,23711618,20
95789639,1175072,70481832,175310,69477085,168551,133344,546560,140941265,39465,98262265,131,12739,288729855,1942,1.02,0.83,45046184,39739000,4967000,68183719,20
35132030,153801,25947668,76699,26459430,67215,41734,212205,65487141,13848,37526017,48,3941,144298782,317,0.43,0.34,22464277,20110000,2011000,43686450,20
93829594,552515,63691716,157250,58142115,141860,70003,341137,124475081,20758,94955860,40,4966,272830773,520,0.89,0.72,40393835,35086000,5012000,61402867,20
78212487,122817,44895990,85077,44866267,80788,54689,297817,106034942,23352,78742075,49,3490,230362616,327,0.75,0.6,34778566,30362000,4048000,55049764,20
439957,50250,1008067,38054,1009730,37992,16812,99420,7889126,15289,1406667,?,?,?,135,0.06,0.05,2422970,1071000,1071000,22991938,20
45295900,458014,30865155,103787,32832621,103081,97013,321946,68799436,33777,43030816,45,2729,152747444,916,0.46,0.37,22494998,18121000,4026000,42997440,20
46342905,1187468,36308535,130499,31813502,114372,198210,600327,82638471,46992,52889973,31,10915,164561434,2815,0.6,0.48,28149272,20531000,7186000,48298171,20
47143877,278819,35134813,105611,37076576,118665,60992,266221,64167296,30948,42968668,55,2609,151736946,525,0.48,0.4,19285989,17021000,2002000,40880623,20
92994950,541502,64764896,140114,60893414,123299,66455,365197,134914103,36393,95910189,16,8109,282198329,1035,0.99,0.83,39684859,38382000,1010000,60150166,20
84189187,303401,47956513,94268,47303139,88482,87915,406557,116423988,52454,82532517,76,8712,247095137,1424,0.88,0.73,34771594,29622000,4777000,55628000,20
91399179,659718,67609982,158267,63211314,139291,67531,411024,132751095,20458,95418137,8,7370,282464998,1035,0.96,0.79,41834925,34447000,7092000,62899167,20
92645260,520882,67077788,155921,61639004,132522,81076,380786,127638162,23475,94938645,93,2934,280818266,520,0.89,0.72,41563579,39256000,2013000,63307445,20
70581376,7474562,65482599,394125,64912727,392160,259804,748213,190995091,111625,68490861,5,18449,257259753,2674,1.32,1.09,59890436,48571000,10903000,81660681,20
95344165,625249,69824459,168540,68697991,158900,87591,420749,136549149,27918,96787274,9,8463,285289701,1036,0.95,0.78,43977362,41722000,1986000,65929411,20
39099585,271774,25647874,73013,24912761,79738,64480,296846,53328675,20376,36029482,26,1185,125090799,525,0.39,0.31,17503966,16115000,1007000,38440787,20
93251144,645462,69605772,166817,65934831,147707,67282,414534,132936015,25517,97066933,3,7777,286125150,1035,0.93,0.76,43184161,39922000,2994000,64632423,20
95735405,343690,58065545,105832,54260458,103899,81696,378159,127923586,31739,92995607,60,3455,304764202,778,0.94,0.78,37606975,36374000,1010000,58270203,20
72514233,8245593,48122028,322677,48428908,330971,356419,962810,246960618,997268,70061931,73,33066,235721273,4137,1.68,1.36,76502255,67149000,9020000,98378930,20
44429072,386041,31054652,111279,31875685,105973,63522,293095,69460235,25808,45206328,37,8437,144697223,1040,0.48,0.38,23399349,19053000,4011000,44145502,20
81913970,389923,50597627,99834,49700850,87486,59376,351651,117246252,24920,83703239,58,7954,262537313,779,0.82,0.67,37312754,35922000,997000,58723653,20
35576739,441521,25419113,89340,24886504,90863,74547,303378,56191400,27392,36842456,0,7552,123703857,915,0.41,0.35,16557558,15222000,1014000,37814305,20
94744982,525119,63092947,135061,57485210,122595,80990,351123,125184526,25670,95214081,0,3182,274662984,519,0.87,0.71,40347325,37987000,1999000,61280913,20
412365,70940,1111143,36840,970909,36778,15553,96307,6362279,9587,403944,?,?,?,129,0.04,0.03,2462438,1067000,1067000,23378716,20
47985448,1032380,39497590,145356,34801503,127627,125963,498203,76783233,56801,47595990,1,9041,160581840,1945,0.55,0.44,26805508,21631000,4702000,48244526,20
46274858,940730,36356626,127031,31344809,113070,127558,461115,73737747,52351,48330747,28,7616,156305697,1944,0.53,0.43,25368956,19922000,4980000,46913572,20
95304683,506050,62963744,157390,56766869,143797,83091,366183,124265893,28987,95278244,15,3476,279341885,518,0.88,0.72,39949143,37536000,2028000,60311868,20
80249856,98757,45496831,82962,44603167,83920,54338,294908,104561731,27148,79149607,0,1961,234941131,324,0.77,0.65,30836887,28501000,2035000,52537148,20
31923738,101860,18994609,69482,18831094,69024,43084,225037,45794718,17691,33212508,0,2330,107530010,327,0.33,0.26,15414033,13989000,999000,36095965,20
46996933,916023,30049830,107008,32239305,122448,126958,418613,82585127,67420,50232015,75,19196,155319999,2815,0.61,0.51,24819110,16026000,8484000,46723787,20
37498742,364307,26092398,102164,23958208,102314,101776,346069,60298410,45710,35605572,2,1063,130116993,915,0.42,0.35,16999855,13669000,2929000,37562311,20
462151,45024,954505,37176,980724,37117,15929,98335,6823380,14489,1455073,?,?,?,135,0.06,0.04,2346124,1020000,1020000,23498419,20
419131,49944,1023038,36479,971309,36417,15494,95394,7075108,13731,369358,?,?,?,128,0.07,0.06,2031766,1834000,0,22740304,20
97049723,961972,70274110,167099,66559242,155366,118767,456493,134508926,48055,93175321,0,2705,288659778,910,0.95,0.78,43273525,41841000,996000,64160036,20
51685840,524121,41902004,137898,37087487,121436,66179,270917,79919634,16428,53422389,0,3854,183328951,521,0.58,0.47,26372242,24068000,1925000,47877873,20
1357194,73594,995482,36703,991751,36642,15749,95634,7080983,9077,27401,?,?,?,130,0.06,0.05,2366577,1044000,1044000,22969952,20
95923247,501101,63929502,150713,57637912,136363,82718,345055,124755209,29462,94624585,52,3964,276616791,521,0.9,0.74,39885577,37540000,2029000,60196942,20
81726276,163362,47625513,85745,47415330,80224,69903,302282,109913663,27722,80449478,28,3610,239914234,519,0.79,0.64,35633113,32352000,2941000,56336765,20
102327587,805612,79086425,160750,75735654,181079,120258,451860,146169075,39962,97138737,67,4428,346398935,912,1.05,0.86,46735025,44366000,2016000,67392384,20
94367863,605774,69453972,167520,66479758,151106,74049,415303,131303221,29388,97886835,0,7362,287174890,1036,0.95,0.78,42586772,39205000,3015000,62940595,20
38895139,216896,26927022,102615,25900514,79094,84754,317890,70374808,35121,39324125,203,6107,156115793,978,0.5,0.4,23377186,18722000,4160000,43444407,20
30627926,263088,19058259,73482,18677394,73689,57402,302899,49379641,32256,32836681,0,7511,105276791,1041,0.34,0.28,15934741,11946000,3675000,36301251,20
97034158,554188,70378154,170958,69397411,164124,88873,449436,132965270,46743,96102992,10,6919,286045251,1036,0.99,0.81,43414064,37070000,6011000,65588808,20
85695203,736365,51490299,117918,51528877,116338,104744,545450,125746442,40241,90677317,5,9312,271768083,1898,0.92,0.75,40544156,36123000,4013000,61415338,20
75996693,2746894,48947711,174656,46815004,176035,1836549,2666122,256612620,674976,72530091,68,131536,291344075,31043,1.86,1.54,77422704,24021000,53047000,98877949,20
42352175,393526,27544995,94774,28590110,93563,70602,298785,69028537,26724,43243755,211,8376,153774115,1042,0.5,0.4,23065410,19632000,3099000,44293671,20
42986786,388698,32908973,104971,36942995,112820,52635,291852,72217841,22901,45406356,46,9172,150142639,1039,0.5,0.42,20769077,17402000,3070000,41716437,20
427083,50456,975365,38572,1021288,38512,16960,99191,7368727,14287,1809037,?,?,?,129,0.06,0.05,2290737,995000,995000,22605780,20
94158426,487403,68689340,158511,62736988,138767,81148,387836,127379079,28548,93749762,1,2559,284477266,521,0.92,0.75,41322416,37951000,2996000,62471741,20
93026074,390598,61390385,123559,58348548,107155,74764,331380,132457261,22607,95755644,39,3505,282998647,520,0.97,0.81,38993105,35636000,2969000,59981220,20
1241889,83919,1818471,49407,6527306,40308,16542,106866,13775824,10081,12556368,132,2497,34291914,136,0.12,0.1,4468362,4014000,0,50665318,21
7768748,68114,1633068,57707,5945024,42034,16993,107942,13875451,11117,11020197,78,3353,46365761,131,0.09,0.07,5198468,3972000,993000,26348259,21
55179787,3329804,49157780,177002,51939303,194300,349064,1569172,119603260,145713,63414903,44,18599,181522644,3062,0.87,0.7,38125310,27874000,9955000,59337261,21
24034360,553969,14148969,78098,13716135,76944,111879,409200,40536825,100525,18267584,164,18930,73881466,3111,0.28,0.22,13651242,8174000,5109000,34398216,21
15278046,789008,8730352,89938,9673153,90869,270690,570003,90293698,126291,18375226,4,15712,61807424,4326,0.65,0.54,26512806,21192000,5045000,46724278,21
671425537,397643,996717845,843686,995996787,858804,180458,1438786,1060988917,43564,669011668,24,14543,3520494847,208,7.04,5.8,312307843,311038000,1000000,333978766,21
1041053,121244,3839368,45431,7757760,42046,17815,110444,15974667,6262,12772330,64,9417,3320576,134,0.09,0.08,4409795,4068000,0,25579864,21
200516152,47757896,137525229,948194,138717288,957526,631998,1985025,903034739,4321808,201600260,161,42079,598574240,5990,5.83,4.76,269798483,256597000,13030000,289731185,21
118624025,2634779,55044459,147490,52471302,146610,385390,992171,154272897,139771,111949541,0,15704,303687215,3057,1.17,0.98,45041887,38714000,5956000,66344111,21
15833027,661869,11715281,73957,14745880,77301,138651,480322,52051881,100051,23330378,68,26753,54805058,4143,0.36,0.29,17642854,11176000,6096000,38416949,21
31237720,1764423,18302230,109537,19987163,106984,215769,1281217,72009846,119884,34874414,227,25934,116456787,4143,0.51,0.41,23931755,12348000,11319000,45236721,21
271409817,54474569,236494801,2165814,237274916,2177374,816843,2917197,1181300871,7803675,271179212,682,52957,912614514,7925,7.8,6.39,349599255,333167000,16008000,370609541,21
673785769,51252535,500629025,782268,499613517,772610,144649,1146657,837320696,41353,673045112,173,12232,2693463592,150,6.03,5.02,249873763,247443000,1995000,271179248,21
9154456,140317,2521788,65391,6848412,47006,18330,118858,19751331,7519,14869663,28,1891,49438240,136,0.13,0.1,6753979,6400000,0,28542678,21
397971,67283,1195634,38285,1139314,38014,17295,101367,8197653,10027,1233333,?,?,?,138,0.05,0.04,2591343,562000,1686000,23626545,21
9809628,177631,4427472,63426,8140109,44169,16238,116174,21320532,5234,15551095,53,2169,48919709,121,0.15,0.12,6590045,6210000,0,27424390,21
338431198,301017,665234829,719557,665454439,730858,132704,1020615,732813694,33703,337540874,125,10602,2021358863,138,4.79,3.92,217784346,216094000,1000000,238085680,21
338236640,289398,498872148,747729,498164231,763482,124734,1043017,727158828,40419,337254350,101,10345,2358643825,144,4.97,4.11,214454948,212119000,2001000,235898058,21
42314761,2323869,49456500,261723,49198966,258447,218367,1112212,96332504,109655,43520322,48,29691,168432964,4144,0.66,0.53,31952307,24506000,7147000,51702945,21
337875667,277600,500688120,738326,499779531,742502,125080,1038492,724260937,37610,337081199,184,11007,2189447485,132,4.9,4.03,216291264,213984000,1999000,237208369,21
35269866,1963499,21492047,129219,21044153,129426,723563,1559171,128099006,291324,33542043,181,64804,125127513,12063,0.89,0.71,40386403,19023000,21026000,61351585,21
1760319,138452,3410124,52047,7088022,42524,17797,111251,15283880,5871,15247669,57,3679,30831357,136,0.11,0.08,5358739,4053000,1013000,26243476,21
335982830,318652,415425180,731751,415475849,719574,121631,997183,688889711,27604,336423378,92,10136,2270950984,139,4.58,3.77,205728081,204465000,997000,226837469,21
505830066,311407,665118813,779612,662726499,782658,136124,1115096,812944782,37201,504452563,161,12134,3368861637,139,5.53,4.57,242375819,241080000,1000000,263440554,21
69593621,3583086,70135206,217050,62177062,198736,606451,2045071,145681932,202535,69221043,171,29999,227815634,6140,1.06,0.87,42774854,30302000,12120000,64223452,21
5227607,215135,6066320,61529,7820188,43744,18983,117066,19012988,4026,13358353,36,2666,42062484,137,0.12,0.1,6412811,5049000,1009000,26557260,21
15543585,106788,2675419,79230,7549327,53210,20284,118305,19727473,9280,16068682,16,1731,52499174,134,0.14,0.11,7183119,3943000,2957000,28221013,21
7841588,179346,4309115,63795,9045204,44467,19303,121886,19097048,5875,17057635,25,2294,41101911,137,0.13,0.1,6563780,4485000,1794000,27112002,21
990488,131629,2820920,53173,6696335,43907,19987,114311,14956569,6708,15857094,60,4444,28851222,136,0.1,0.08,4976998,3810000,952000,25400198,21
63031541,1834600,80670250,218899,86907558,229880,178182,651736,163476454,104488,67308722,251,21299,304609235,3333,1.09,0.88,51663505,43272000,8050000,72305097,21
336209640,253223,496660438,713487,496645351,706396,103185,838241,560075761,23011,339314744,121,8280,1860314067,130,3.79,3.13,167685868,164451000,2972000,189803473,21
20089789,90809,11295845,78506,11660051,69651,31220,199252,62210516,11381,19882907,28,2126,79288040,136,0.42,0.33,21430482,19132000,2013000,41956034,21
12308370,105150,5524371,84579,6707916,79895,29900,150084,31575640,4680,13324194,13,1478,41264414,136,0.21,0.16,10442297,9035000,1003000,30178209,21
65343597,1612401,82691529,210846,88371639,231362,153968,608137,161717921,93894,68141267,201,21861,303614188,3139,1.07,0.86,51298498,44964000,5995000,72741347,21
337427227,296463,499865272,764635,498062865,758792,126013,1034679,713656344,34791,336057422,298,10374,2359074770,138,4.82,3.97,212660944,210353000,1993000,233537259,21
163470312,40932609,107294320,998944,109174711,998955,825839,2321318,916887687,8336681,165710713,50861,51356,498457971,7939,5.95,4.86,272230202,260894000,11037000,293480423,21
842235633,841582,1671903850,2701871,1670715378,2705852,372319,3090395,2444273825,88126,841566421,437,35683,7523506734,136,16.55,13.69,720352631,719734000,0,740742874,21
26603814,765959,12650110,92078,12761989,95333,369958,982735,94431658,177478,23838916,9,45471,86801656,6206,0.68,0.55,31121690,19515000,11298000,52261060,21
1332260,165397,3624528,55152,8568747,42532,18378,116131,15559616,5562,16547796,38,3118,35544569,131,0.11,0.09,5551643,3530000,1765000,26305939,21
17473345,769155,11337647,87829,11042506,80328,336084,786292,65313959,150371,16614783,65,33766,65770083,6092,0.44,0.35,21641565,7444000,13958000,42463297,21
13323629,305158,9611133,81638,8800344,74641,95784,315558,37152254,58016,15202351,49,13316,51037830,2133,0.25,0.21,10748717,6320000,4213000,31627693,21
674444485,283193,500068234,778649,498237507,780913,139071,1135749,805872815,38622,672333113,139,10611,2695828747,136,5.56,4.6,240552225,239336000,1001000,261689825,21
19970091,799090,11091650,81866,10711757,79376,324832,793774,64586656,162881,17738463,68,28116,69833273,6094,0.48,0.39,19318758,9003000,10003000,40538315,21
12264803,160673,3268540,65950,7347353,46027,18203,115878,18802384,7593,16698363,59,3224,48695244,137,0.14,0.11,5703763,4343000,1085000,25882997,21
337502622,258473,498306376,771880,497512490,760850,121826,1035690,726213215,38512,338396266,42,9568,2192525729,135,4.96,4.1,212759233,211471000,1002000,233625307,21
10130189,170258,3873629,65565,8161243,46482,17897,126365,21002757,6281,16935229,21,2046,52137314,131,0.15,0.12,6509364,5150000,1030000,26759288,21
337103260,262534,498400896,722825,498278447,712791,115568,933858,659898446,30107,338167875,24,9682,2022342724,137,4.52,3.74,193307658,190955000,1999000,214420790,21
336618106,345851,498442873,792907,498504564,784570,141574,1170680,843297839,34060,337861068,0,11013,2855783459,134,5.78,4.77,251188846,250891000,0,271835296,21
337542541,229349,496837064,670049,498470497,667539,96598,786852,557133921,28030,338270061,83,8643,2025393577,139,3.91,3.25,162640285,162358000,0,183209616,21
346953002,291679,502631407,728649,501981715,725574,118699,954478,660666707,30465,347221125,46,9123,2228467951,140,4.53,3.73,198039602,195659000,1986000,218334788,21
15438326,628432,14257321,75007,14831776,78872,150355,482752,51722542,91253,17469468,23,28989,54465018,4142,0.36,0.28,18262365,7961000,9951000,39540103,21
21754939,90420,9748869,79925,9499762,69127,28184,145016,27383322,5826,22525643,36,1461,76020937,135,0.19,0.15,9831162,8530000,1066000,30947471,21
340645400,327119,499485548,736676,501278784,731495,122302,989394,730856783,31642,340485299,59,11090,2356492923,134,4.93,4.06,218652088,217355000,997000,239719921,21
14866251,88037,6663299,68269,6292821,67809,29978,200072,45983187,8848,10435397,0,850,41896634,131,0.32,0.25,16388371,15117000,1007000,37657117,21
21901266,646120,10946237,94224,11003975,93853,305178,620040,80374738,118827,22964160,20,17779,70158482,4201,0.54,0.43,27274470,18959000,7983000,48586911,21
336680166,259701,497690455,715903,497916251,702335,115439,910093,640610009,29334,336499261,127,9664,2185622562,139,4.31,3.54,191363822,190990000,0,210978833,21
42060215,122548,15289261,86485,15168212,86763,38150,268298,94133658,9749,41976012,0,1401,113902144,139,0.66,0.53,31277413,29923000,997000,51799471,21
91194452,4285651,105671364,276150,109145146,286248,564287,2013034,221867501,251241,90676642,33,42808,397015341,8093,1.55,1.26,69073299,49507000,19196000,89968136,21
337440728,230420,497341583,665695,499654242,671398,101010,755946,540149709,25696,336581514,29,8756,1517646538,133,3.65,3.0,162420576,160036000,2000000,183004182,21
337070863,231542,498458611,677992,497727128,698329,97448,791965,540858811,25074,337618941,23,8189,1355477112,146,3.65,3.01,159238724,158005000,1000000,178160089,21
2823843,157428,4820552,44482,7237925,41905,17240,112786,13572883,3945,12405057,72,7211,2415142,137,0.09,0.07,4967332,3568000,1189000,25706410,21
13024766,320840,8371839,84557,8904916,76041,206092,525421,68183978,72657,14583255,63,12611,49439754,2196,0.47,0.37,22771125,18383000,4085000,43767166,21
677447170,317083,499736836,766160,499356212,760060,137082,1084100,757357168,31132,678312626,31,10253,2709163037,137,5.29,4.38,225396984,224014000,1000000,245563182,21
1225468,137211,2227842,50761,7487638,41890,17852,110781,13105432,7233,11018581,86,4982,18038413,135,0.08,0.07,4554063,4198000,0,24425055,21
19734142,435309,12823637,74054,13151690,76495,62972,325736,42185948,47699,22060368,1,15612,65811246,2140,0.29,0.23,14584546,8099000,6074000,35743423,21
20987682,225435,13038712,80213,11438348,80823,129958,377413,42101848,66930,20860490,44,11242,64682331,2142,0.29,0.24,12224960,8622000,3233000,32659141,21
337273563,380636,664911496,782768,664894275,776348,152426,1259158,933845153,36765,337025711,170,14383,2847991835,143,6.23,5.12,276313504,275108000,1000000,297042343,21
3011645,168965,3967484,51349,6845381,41720,18707,110236,15614232,5496,9927627,56,4955,20630210,137,0.12,0.09,5209682,3896000,974000,25199019,21
8051043,222782,5633807,61145,8567649,43954,18023,116281,19445184,3363,17438539,45,2234,48290557,135,0.13,0.11,6534607,5218000,1043000,27327097,21
668526,89505,1409431,39630,1429853,39571,18058,105780,7809841,7806,2006748,?,?,?,142,0.06,0.05,2667537,1128000,1128000,23113965,21
8078835,222261,6505109,62053,8706945,44666,19493,124643,20449716,3825,17462231,38,2170,46713658,137,0.15,0.12,6895268,5408000,1081000,27499850,21
21907984,637693,10908269,91726,11025993,90631,308654,616504,80666876,132653,23087649,22,22931,70139367,4198,0.57,0.46,27388660,17038000,10022000,48036999,21
11179142,199697,5298075,67960,8485951,47988,20029,120312,20701744,5355,18149521,35,1999,49396355,135,0.14,0.11,6961876,5621000,936000,27354649,21
676267715,50628195,500617052,753494,500297565,748366,130543,1060957,762181912,41647,678002921,213,10351,2540303432,149,5.64,4.73,223718569,222471000,1002000,244644069,21
338191654,268184,334157729,755618,333380324,750144,120339,1008520,725383638,39155,337998274,224,9919,2362064713,133,4.99,4.13,212773664,210438000,2004000,234497481,21
62745768,1747745,40749101,121844,36762155,120262,277227,665625,83716673,98350,62742894,36,11919,187743312,2082,0.6,0.48,28039680,22768000,4949000,48771069,21
9157117,56873,5217582,68915,5294537,69504,29308,203729,43150796,14266,6815061,0,708,28632390,131,0.3,0.23,15429256,14046000,1003000,36466803,21
2258825,116633,2197848,57936,7249380,42251,18809,114149,16779342,10387,16290583,78,3591,42919514,152,0.13,0.1,5485044,4128000,1032000,26098508,21
336840678,293077,500103012,717989,499255386,726399,122014,999753,727444496,35273,336395606,43,10342,2356515250,139,5.01,4.13,216794282,216510000,0,238182315,21
337114156,327347,498937881,764654,498967518,749280,132997,1068401,795153905,35361,337372364,33,11721,2521483117,138,5.49,4.54,233275528,230958000,1999000,254837571,21
21836786,640274,10841441,93079,11081534,93163,286122,711846,80387788,159661,22102539,17,34347,69836921,4200,0.57,0.46,27614106,20243000,7085000,48514882,21
12447388,339169,6822494,79272,6675410,79680,83878,301025,34729333,68868,13348527,18,12744,44142130,2135,0.25,0.2,11582707,7114000,4065000,32424021,21
336654009,310302,497683927,737325,497907413,731880,123217,966697,657426543,26557,338056756,0,8766,2194016640,137,4.52,3.72,197392962,196000000,1000000,218855093,21
340977927,229309,501922682,715270,498228151,708008,108768,855452,563453341,29082,340512797,0,7350,1878413520,131,3.93,3.25,168729766,167406000,1002000,189696305,21
18910880,889367,11976000,88755,11182719,82324,318851,805058,64857714,184026,17655259,73,34348,66492150,6099,0.45,0.35,21728331,9195000,12260000,42738524,21
33567133,2012219,28409531,138186,25803125,116936,241416,864271,56316498,110699,21133188,66,10459,106459272,2083,0.41,0.33,18752177,14327000,4093000,39299953,21
347740789,1205864,506114356,905787,507252735,906415,433131,2218452,1260671664,174022,348548809,68,46469,3725778672,4034,8.66,7.14,372976612,363647000,9016000,394562872,21
180173952,9317480,160951772,339730,167318581,322319,1106460,3722932,356803322,318619,192090003,100,42884,727762579,9996,2.68,2.18,107153921,89651000,17124000,128226449,21
29266663,1191031,17536584,114756,16902638,111045,611388,1419405,135510010,199512,20788041,50,30090,102137985,8644,0.95,0.78,38995979,25404000,13210000,60746139,21
734729,118700,4255050,39344,7557045,38525,16280,102033,15545473,6491,12365619,109,4010,1614478,136,0.09,0.08,4229884,2912000,970000,25641891,21
696177,86833,1907919,45918,7302808,40550,16380,105688,14757178,9755,14699192,45,3924,25370950,130,0.11,0.09,4401838,4004000,0,25881567,21
337529376,317094,499349392,732704,500024737,737730,127838,1031051,734130893,38617,337198657,235,10850,2357755170,142,5.08,4.19,218150122,214826000,2997000,239355915,21
971222,93673,1814834,53833,6467424,42715,18502,112017,14448547,10563,13256541,65,7174,45368096,135,0.1,0.08,4815404,2233000,2233000,25631941,21
1525517,141823,3210570,55320,7164933,40153,19105,117096,18608387,6200,16548686,48,2885,39793913,133,0.12,0.09,5765138,3850000,1540000,26374078,21
172127229,208045,497282493,692814,495477390,685173,101119,776001,550333190,31732,172136560,0,8069,2025892337,138,3.79,3.11,165874234,162558000,2973000,186756633,21
338345925,222557,333556526,677538,333435507,699392,98930,809187,537760985,26211,336504012,98,8112,1851629025,138,3.74,3.1,158807234,157462000,1002000,177649643,21
338435983,186001,334167393,662838,332914339,672548,94597,781772,529958553,32928,337063391,68,8281,1859214757,130,3.73,3.08,159654138,157315000,1991000,179931853,21
56117522,1834761,66373651,203614,70780037,213422,138727,566270,114265291,99565,58379629,84,21600,195294702,3135,0.78,0.62,36559840,30074000,6014000,56813359,21
17750820,878314,12160922,89300,11042034,81593,312818,796747,64216422,148464,16747202,89,38111,65037061,6093,0.43,0.34,21958494,11343000,10312000,43253428,21
780229,94264,1749315,49889,6403407,40192,16955,110007,14151786,9852,15484653,40,4897,38669747,133,0.12,0.09,4909936,2336000,2336000,26467444,21
30901891,70308,16163507,67801,14987080,67278,38650,226489,40361995,13065,30595438,14,788,102993206,133,0.35,0.29,12892223,9497000,2849000,57567709,22
29175496,190642,15614989,70792,15443751,72413,70543,252736,44975668,20000,32612039,0,897,99033167,524,0.31,0.25,13163210,10859000,1974000,32250079,22
37456002,118018,19579600,71576,19431595,70710,53756,234748,53532222,25591,38354548,0,2954,115943335,524,0.4,0.33,15940586,12481000,3120000,37778877,22
78532839,199596,45373561,96684,43769299,96979,75898,324389,109755580,27384,80546933,50,3569,235769491,521,0.75,0.59,39100736,35007000,3889000,59793063,22
76358463,180170,44805286,97674,46284758,84061,51557,278424,114840557,17481,77369680,27,4585,225332777,322,0.79,0.65,36582942,32431000,3931000,57494030,22
76817703,420461,45258582,94466,47292510,86448,71676,359057,113360780,37691,79440069,61,7969,230124846,911,0.78,0.64,36792833,35452000,1012000,57523686,22
76191271,126328,44979394,78149,45398575,74347,38658,267915,104070964,11956,77905969,22,3190,223691732,128,0.74,0.6,33958902,31714000,1922000,54669663,22
31418770,178625,16854396,67439,16029753,67084,63818,248775,42765091,24769,30598788,0,984,103281101,525,0.3,0.24,15313655,11317000,3772000,36755689,22
75054419,148876,45310874,85741,45751889,81030,40306,288346,105223152,10009,77597825,28,3598,224344007,127,0.74,0.6,34309566,32981000,999000,55773019,22
38050515,400576,25040491,92121,25588557,92202,101877,339853,60957448,31719,34247409,57,7423,121698413,1307,0.46,0.39,18195008,15729000,2097000,38898316,22
29042205,206228,16129786,69299,16056086,69896,66114,256772,44585820,21978,32836987,0,925,105015130,523,0.3,0.24,14940991,11462000,3126000,35703237,22
30328674,187400,16455361,71072,15920007,70799,66945,259881,43718526,24803,31336114,0,963,103177627,525,0.31,0.25,14895374,12547000,1930000,35825129,22
31842881,178159,17144882,70378,16180246,70238,66323,260172,43337141,25693,30344815,0,1068,103915373,524,0.3,0.24,15442746,13137000,2021000,36823631,22
30259310,291445,17824343,69893,17623755,67778,77454,276417,46342537,29865,31545145,4,4760,103356795,918,0.33,0.27,16328379,11008000,5003000,36817583,22
30127136,267233,17466969,71503,17099584,70963,57441,292251,47930191,25599,32328572,0,6506,103439767,1042,0.34,0.28,16408220,13007000,3001000,36946845,22
32224039,183024,17356297,69219,16341840,69372,64678,253223,43725591,27631,30537747,0,1050,105506248,523,0.31,0.25,15427523,14137000,1009000,35769855,22
34189248,153643,19068931,69104,16870695,72832,95200,300136,51570619,44084,29280172,33,1169,111931715,914,0.35,0.28,17842274,14589000,2917000,39309271,22
79166695,324975,45130717,95360,46694683,88439,58084,349653,111591666,30317,80315522,56,8026,233360085,1035,0.81,0.66,36068594,33676000,2041000,57106439,22
78132850,349441,46507935,90659,47809588,84746,77209,343431,116870151,43120,77760436,221,5919,231399473,908,0.82,0.67,36365663,32954000,2995000,57372323,22
78381293,296189,45982445,100661,47078256,106508,66969,430814,116856651,43253,80276176,156,9706,232614430,1035,0.88,0.74,33875288,31977000,1031000,55027895,22
31442423,181977,17108752,69750,16196416,69496,65524,256228,45274437,30088,31192768,0,1035,106218306,524,0.31,0.25,15348638,12306000,2840000,36162676,22
78298911,160823,45244202,86475,44978873,84439,74757,335019,110588397,27813,78245312,199,3850,230333884,519,0.79,0.65,34872082,33556000,1016000,55721105,22
31044252,242445,18375584,80667,17484576,82861,56101,322052,49211703,32791,30948300,0,7349,103186202,1040,0.33,0.27,16708898,13490000,2890000,37516829,22
26203455,203273,15917208,70507,15829345,71193,51255,205142,44144535,3418,31596060,0,1181,95462242,327,0.32,0.27,12767681,11519000,1047000,33899308,22
30533085,199812,16510821,73266,16131901,72512,68631,263970,44229336,23484,32355135,0,1043,106520773,525,0.31,0.25,15529746,13153000,2023000,36867887,22
28805489,181834,15535527,71131,15095717,70412,67573,256334,46385415,23200,33007187,0,941,103722294,526,0.31,0.26,13217180,11894000,991000,34316093,22
30481838,86922,16484564,69173,16253275,71675,37323,217173,40282269,10638,30015915,0,994,99533557,133,0.29,0.23,14372206,12077000,2012000,34976756,22
29000441,84648,15117369,72908,15121688,72608,33737,187887,39838426,9696,30620041,0,1768,94082811,135,0.31,0.26,12021565,11768000,0,33376283,22
79157291,204952,46030654,86857,45519207,80832,69967,323279,107797178,29708,77559613,235,3619,230364781,517,0.77,0.63,35018800,32608000,2038000,56280077,22
30961709,185817,16670078,69369,15959098,69606,65129,256607,44032647,24738,31367214,0,1065,105596040,524,0.3,0.24,15266578,12999000,1999000,35993268,22
77346979,114174,44971888,84049,45441699,78972,37819,271698,106919937,13999,77975374,33,3266,225846870,128,0.77,0.63,34682565,34468000,0,55052706,22
49025876,770554,35716160,86997,36246358,92367,277939,798242,97150563,106889,49646641,55,36159,187488476,3258,0.69,0.55,32481512,26135000,6031000,52895125,22
76970821,188756,45831831,81202,45421694,81408,61102,301616,107575068,17025,77673556,16,4362,229856091,519,0.78,0.65,31746501,30565000,1018000,52155448,22
81968314,118226,46333330,80673,45507142,85606,71996,325048,108373885,34215,77146490,29,2876,230668052,519,0.78,0.65,32281957,30026000,2001000,52784876,22
79826119,205163,45462610,94381,45364731,85442,71981,309375,109283650,29229,77925268,169,3968,232574547,517,0.77,0.63,35738745,33405000,2024000,56364031,22
27391243,173229,15592509,70693,15662736,69064,51098,206004,43792622,10139,32339719,0,1552,98942002,330,0.32,0.26,12558828,10280000,2056000,33131838,22
136327888,3526448,87458500,235894,85658359,235592,2363827,3396991,376190748,970393,131542842,116,168934,470535848,39192,2.67,2.2,114328868,44987000,68981000,134659543,22
32170828,173313,17214247,71835,16186786,70753,66121,262401,45739218,25367,30584192,1,966,104446628,524,0.3,0.24,15376261,13058000,2008000,35239741,22
77430109,195955,44718568,92555,44926500,85484,74013,327031,108754271,27354,79175414,35,3754,229692241,518,0.77,0.63,35249903,31000000,4000000,55434215,22
80825447,160147,45730871,87367,44891238,84293,73555,320142,109156088,39568,77344418,36,3436,234801012,518,0.8,0.66,35048322,31812000,2892000,55664020,22
32002129,107765,17213968,72558,15981512,72379,48178,240846,42038895,26845,30386298,0,951,105900553,328,0.31,0.25,14573382,13240000,1018000,35688931,22
33242632,146451,18106104,71301,16802699,71163,97451,377243,50095317,45391,31745107,12,1147,114243416,914,0.32,0.25,17218722,13090000,3740000,38704360,22
30276658,69987,16585918,69284,15906460,70470,33788,207909,38796626,15537,29761830,0,957,99357118,134,0.29,0.23,13619605,12376000,952000,33981229,22
77921673,7310398,44957829,262514,40791595,240557,269026,762340,213400795,321084,74503687,54,46771,256207048,3260,1.46,1.19,66259370,59886000,5988000,87820596,22
31327125,120638,17140383,71204,16378200,70758,48999,234271,42242181,18879,30538317,0,929,103765873,329,0.28,0.22,15053834,12728000,2121000,35747160,22
79800169,140430,45140136,86870,44612909,81658,68839,314672,107647344,31435,77482542,43,3439,233451515,519,0.77,0.63,35391193,32046000,3004000,56847089,22
78624398,206946,45306524,96274,44798705,85178,70083,312430,111497536,29430,78938038,28,3325,234412831,517,0.76,0.61,36629698,32373000,3924000,58013064,22
77192710,178065,45700268,82866,45588503,80339,66992,322335,111392843,29769,79471629,28,3436,234416584,516,0.77,0.63,34967131,31687000,2880000,56920006,22
29029857,187094,15754764,69515,15465804,69292,68446,258708,45044507,22244,32200264,0,874,100018113,523,0.31,0.26,13025510,10835000,1970000,33979389,22
79301863,150896,45151472,86266,45544948,86473,64443,298059,108102049,26877,77689763,72,3817,231902029,322,0.75,0.61,35396852,35120000,0,56581339,22
29429083,191498,16113682,75228,15806273,74237,67549,265141,44527161,25326,32281953,0,1042,104688462,524,0.3,0.24,14763331,10516000,3824000,36069088,22
35635975,132216,19360154,69560,16294985,70809,99068,310419,49973574,52668,29841992,0,1143,118269629,914,0.35,0.28,16688377,12271000,4090000,38060729,22
79375217,191539,45801423,86549,45449214,81352,70005,326165,108123079,31581,76886968,34,3608,232578375,520,0.76,0.62,35138413,30838000,3979000,55789818,22
77189821,2358274,58805492,266362,58017787,282683,267446,657693,153306581,326978,73615405,86,19873,265447832,2868,1.05,0.86,48430270,41102000,7017000,69836005,22
77641802,151222,45147277,84400,45404029,81496,55578,311189,109946417,20793,78956585,84,3842,230529479,322,0.76,0.62,35052129,32819000,1989000,55628221,22
77008959,171985,45489871,86279,45731454,78414,52694,302104,107663477,22595,78437641,156,4022,231288478,324,0.74,0.6,35025476,30887000,3860000,56642960,22
29639320,198656,16849630,67649,16560415,67044,54094,238402,43498047,17938,30446187,0,3742,99769159,524,0.3,0.24,15455388,14184000,1013000,35696699,22
32287370,159385,17097494,68984,15830654,69412,65856,255635,43036922,27378,30244384,1,1012,104247894,524,0.3,0.24,14860223,12499000,2083000,35764160,22
77994576,104994,43789564,86876,44674091,82411,38261,266258,106561332,18804,77980413,26,3463,224128012,128,0.75,0.61,35079388,32814000,1988000,55492077,22
28196867,107690,16050837,69638,15866825,69869,33175,207735,40959759,6775,29929893,0,976,97828633,133,0.28,0.22,14594412,12407000,1908000,35341786,22
27761264,101638,15596445,70268,15565171,70413,32771,203491,41446521,6841,30506973,0,908,97542867,131,0.29,0.23,13602924,12325000,948000,33334019,22
31574270,125165,17347195,68671,16246671,67858,64054,247583,44514728,27532,30268669,0,1088,104140625,524,0.3,0.23,16028535,12763000,2945000,35573132,22
30773976,193838,16562795,70063,15999352,69956,66971,258476,45625277,30664,32700192,0,1029,106337623,523,0.32,0.26,15188600,11886000,2971000,36233901,22
79478803,194420,45246492,85578,45115910,80561,71076,310529,108434335,32703,77866412,36,3381,231587878,519,0.77,0.63,35357891,34110000,1003000,56216086,22
32595044,151506,17548197,73309,16067417,73439,67549,266676,43451033,28650,29524684,0,1048,104698589,524,0.31,0.25,15417118,12065000,3016000,35789146,22
77093975,218883,45411801,83941,45719573,78933,61649,309819,110127059,20919,78090187,38,5330,228194935,518,0.78,0.64,34928616,33670000,1020000,56151907,22
29384882,183260,16440365,67288,16328215,69068,53459,232323,44537028,15904,30882231,0,3340,99091022,524,0.31,0.25,14911015,10721000,3898000,35297514,22
32105552,222528,18217681,71231,17283977,73059,57772,294043,46732251,33786,31098664,0,7344,102728254,1040,0.33,0.26,16157992,11806000,3935000,36948015,22
28141713,107455,16443981,67087,16311674,67137,32123,200302,40566821,5991,29966641,0,946,98813482,133,0.29,0.23,14152613,12936000,995000,33932553,22
31022232,186764,16864785,70225,16205543,70332,65880,256584,43990273,25648,30975141,0,1092,103898255,525,0.31,0.24,15536778,12421000,2866000,36420342,22
78951214,190222,44759153,89106,44975246,83836,72224,317278,109302550,30951,77682154,35,3400,231398962,518,0.77,0.63,35611744,33251000,2015000,55859861,22
78364536,167627,44109204,86128,45089199,88024,69617,319668,110589262,27145,78697889,297,5073,228241362,518,0.77,0.63,35352141,32970000,1998000,55413810,22
39877472,547271,26233906,89334,24270913,76872,220068,498116,69490046,103379,35790116,74,11990,150056435,2994,0.47,0.38,23141864,15907000,6959000,43938609,22
29698680,89091,16191947,68492,15917776,68235,33173,205369,38915549,8958,29409875,0,950,96832276,133,0.28,0.22,14198163,13939000,0,35094701,22
31898910,163871,17364975,69830,16097051,69479,65008,256567,45241384,33786,30787192,0,1073,107291320,522,0.3,0.24,15851694,12593000,2906000,36760949,22
30814989,200344,16783433,68622,16286127,68241,63857,253323,43783366,26315,32038394,0,1051,105660306,524,0.31,0.24,15537486,11245000,4089000,36935163,22
31389049,185608,17539077,71031,16483194,71739,65377,263322,45054216,28789,30969248,0,1152,106281056,523,0.31,0.25,15635643,13374000,1910000,36903436,22
38993867,127299,21231503,65293,20105563,69432,63236,261897,54626940,30295,35358350,85,2213,116344044,524,0.37,0.3,18302225,14973000,2994000,39340806,22
31786263,166436,16946724,68893,15900986,71406,67677,256355,44286383,24971,30669192,0,988,104060353,523,0.31,0.25,14927321,13554000,1042000,35547943,22
79153387,187628,45176007,86332,45247734,81616,70731,310002,109530843,30853,76669538,54,3496,230368891,519,0.78,0.63,35721456,33348000,2021000,57178163,22
77215729,114329,44505410,83211,44931423,77174,37378,275168,104099084,15188,77943371,27,3674,225084190,127,0.75,0.6,34411668,33157000,1004000,55670297,22
80754187,299764,46266273,93894,45098286,85532,105787,341016,114211931,45972,78997207,47,3374,241262675,908,0.78,0.63,37035902,34723000,1984000,58370849,22
32104640,135410,17911646,70242,16786695,71014,48301,241646,41983879,22697,30004388,0,1023,104489951,329,0.31,0.24,15141243,11878000,2969000,35600751,22
84260286,343656,49726484,89300,48090562,86634,138013,412824,119648020,61230,77681092,38,6724,241609658,1300,0.86,0.72,35458721,29105000,6021000,56647459,22
35020291,94098,19695277,65513,19430157,65352,31439,196303,51538533,10408,35759825,0,1054,110370969,135,0.37,0.3,17029130,14927000,1865000,37528411,22
77400747,107494,44515579,82356,44808095,77315,36698,274000,105267005,15012,77799916,54,3484,225814600,128,0.75,0.61,34837951,33542000,1016000,56768658,22
32678804,149668,17335675,69837,15899033,71922,67313,262855,43983494,30937,29967395,0,1027,104812803,524,0.32,0.26,15303261,12900000,1984000,36056096,22
37229226,368196,23278328,88809,23603812,82784,66239,309681,66489471,29236,36680065,40,6093,138778852,1039,0.46,0.36,22837473,19570000,3090000,43975325,22
32212216,168033,17000945,69547,15821150,71985,67742,261199,43057195,26332,30345203,0,1010,103821877,524,0.3,0.24,14892627,12482000,2080000,35554854,22
78454259,216626,45933478,88479,45368991,83179,73464,328953,109960818,30999,78179790,200,4125,234115669,519,0.76,0.62,35410750,33113000,2006000,56945398,22
78741972,208472,44586378,93452,44897290,87358,73476,317828,112145351,30288,78897734,56,3353,232803132,520,0.8,0.65,35940061,34556000,1016000,56672940,22
32007070,220857,18482137,71844,17551078,72774,65361,289941,46832069,34339,31079860,6,8711,102897701,1042,0.33,0.27,16494680,13134000,3030000,37536440,22
76228483,239448,44989504,85283,45516302,80534,68799,319719,108950577,26227,78780267,42,3435,229982906,519,0.77,0.63,35558012,32330000,3031000,55974363,22
31084511,138363,17300041,68668,16429117,68122,62974,251965,47412194,31255,30885697,0,1080,106191470,524,0.32,0.26,16518448,14200000,2028000,37441283,22
29261216,176215,16454113,73098,15880201,72804,69396,261022,46650733,25818,31383290,0,951,103448573,524,0.31,0.26,13454074,11115000,2020000,34061530,22
77562857,230135,44387292,95829,44969384,83302,71922,302977,108850148,28490,79487845,29,3679,232097950,519,0.74,0.59,37626908,34418000,3036000,59559272,22
74935781,150535,45489239,81152,45804875,77071,37510,274415,104770686,9089,77236081,39,3632,224630796,127,0.75,0.61,34670509,33352000,1010000,55669918,22
32841473,142582,17602747,69891,16067267,70586,66654,257095,44906390,34158,30076617,1,1051,106172467,523,0.33,0.26,15389546,11960000,2990000,35746216,22
31369754,136169,17203324,66977,16047551,66845,65636,243936,42820549,24555,29797483,0,1044,103465162,523,0.29,0.23,15049643,13886000,991000,35474268,22
32202307,159235,17143380,71983,15804980,71301,65920,252560,42679655,30390,29969406,0,1016,103712929,524,0.33,0.26,14771096,12381000,2063000,34930952,22
96057568,1389164,60374290,339906,55482236,429734,275732,1553055,151759589,68134,92564001,101,14225,307079835,2214,1.05,0.84,51254132,43650000,6944000,98935430,23
311485013,3895734,197274569,1231858,198769111,1221058,710743,3420494,567599316,1050545,313399359,9201,22804,939266846,2467,3.96,3.29,167145839,156662000,10042000,187814345,23
313873025,3218683,198928882,1245919,196610525,1210543,589300,3327847,541427848,944280,307546131,169,17247,941399398,1955,3.84,3.19,161900126,157540000,4013000,182674331,23
315908783,3465882,198957256,1186223,195796899,1157157,630616,3493599,530017138,966034,305443672,31383,16752,934546305,2061,3.75,3.11,159397688,154080000,5002000,180189530,23
114300816,4224199,84191560,741095,84050806,708024,968371,3621091,288759669,1049946,112454163,47771,81845,402883548,7163,2.03,1.66,88718279,77248000,11035000,110266366,23
105859281,3746111,76453520,764099,77273819,675076,554160,2935771,254159627,897062,105087028,231,19292,359236361,2657,1.75,1.43,77590540,71366000,5947000,98548751,23
125069030,3200796,83424776,734865,81210412,764274,572110,3009398,275405559,783270,124300103,89,39460,413084916,1891,1.92,1.57,84574349,74175000,10023000,105790655,23
107754618,3590553,73754629,738777,71902009,768611,763275,3088205,276522286,898605,110943568,140,17522,374208107,2476,1.88,1.54,84110334,73762000,9967000,102746466,23
255183043,34234588,191346906,12795773,191102438,12774265,6118196,23621041,1741965931,9841841,254317100,53053,126763,860146127,7992,11.45,9.32,514585356,498287000,16009000,535054882,23
321321757,3541917,201996032,1294677,198376990,1292759,845619,3679013,564866901,945037,309309505,237,165890,954767365,2468,3.9,3.19,175739309,169565000,6020000,198633946,23
80176919,1226414,52978929,482562,53504713,472466,80228,979861,139915641,29444,81478834,57,4932,256128954,357,0.93,0.76,48674636,47446000,1009000,70620775,23
318793369,3045926,198864899,1167345,196201249,1181621,596145,3295672,531555618,908437,308074039,340,18300,949594762,1954,3.75,3.11,159799386,153513000,6020000,181306919,23
316852033,3318465,198200759,1099541,196478772,1104011,611922,3472362,530886362,947883,309141512,318,25237,943031597,1998,3.8,3.16,158828636,148426000,9895000,180044708,23
104091739,4063091,72656814,835151,74298844,791666,772251,3346503,272934038,1047611,107713092,13771,22063,361231992,2730,1.91,1.58,80475598,73208000,7020000,101696315,23
81700952,887363,51912019,435054,52137684,411581,62937,633355,122564843,28063,82006770,206,11062,263847778,233,0.91,0.76,36486730,34133000,1950000,58066094,23
319254873,3362793,199396693,1195042,196051449,1190138,652370,3538545,523783880,884338,309182535,45916,74428,941335890,2470,3.76,3.13,154798732,148416000,6016000,176026314,23
112063944,3909464,79722623,751810,76462379,786301,914646,3416835,287601169,979777,110165868,35351,28008,388731059,3597,1.99,1.62,87647808,82279000,4956000,109066742,23
91849709,1763461,58834555,528284,56855123,527262,81820,1040509,163065727,35058,90046855,314,13693,294305715,388,1.12,0.92,50752891,47547000,2911000,71604655,23
110204348,3644534,75834823,731716,73814816,729482,788238,3096753,280105146,821499,113391841,167,18767,387635126,2474,1.94,1.58,86447411,80961000,4997000,107287752,23
105526637,3550352,76118739,698517,75901308,640530,499048,2845401,232822931,829815,100375162,157,11421,351601161,1887,1.63,1.34,71847911,65589000,5962000,93542552,23
115222324,4104229,84264309,666492,81982549,718274,922077,3544092,287878269,1007247,114290024,4444,49818,405629175,7150,2.01,1.65,87532817,75078000,12012000,108340860,23
317018355,3125655,198887155,1070451,196028766,1152344,619303,3714420,516539508,876297,309248181,193,15604,939817706,1866,3.67,3.05,155435746,145183000,10012000,176694531,23
311661159,3845088,197060448,1418724,197025287,1340008,752565,3515469,535559232,892063,306831420,181716,30942,921282863,3044,3.79,3.14,161384330,155028000,6001000,182255505,23
313360553,3325306,194708083,1177687,192825389,1241895,635865,3517934,525675522,898154,315664931,307,33780,940966044,1871,3.77,3.15,153148930,143785000,9049000,174222592,23
109408924,3658885,75718046,717479,73892948,731209,803237,3088188,279396890,862413,112282419,164,18089,384333524,2471,1.94,1.58,86119621,78729000,7065000,107364635,23
314543411,3359795,196462298,1128819,194076328,1200346,612025,3670090,526321515,880082,313022318,229,16046,944580527,1862,3.78,3.15,153884335,148515000,5017000,175190131,23
315286729,3338744,196387461,1124246,193818840,1161906,654727,3485325,531799837,802613,317208831,11,42052,951887888,1954,3.77,3.15,156431719,150098000,6003000,177656932,23
79163219,899420,54420973,320104,57703562,272510,73352,761338,127839815,25385,80244454,55,5007,259817852,379,0.92,0.76,37742491,36434000,1012000,57840808,23
103814612,3272262,73577796,841152,76117353,793616,546127,2835030,251234400,771706,107570421,81305,37294,361779969,2028,1.73,1.41,77449039,72052000,5003000,98796764,23
105452907,4049208,76059380,974271,75663439,909058,572059,2829271,264439845,897006,107186280,86225,138635,368307306,2604,1.85,1.5,80511141,72290000,7922000,101011423,23
109203405,3605164,75078493,874754,74641227,862841,842616,3222740,291463851,936349,111929342,50606,147023,383636935,2562,1.97,1.61,89250609,78024000,11003000,110201346,23
126707003,3492682,83816769,740805,81291055,746777,816718,3208935,302380124,970775,124925463,224,36173,419850062,2430,2.12,1.75,89304033,82963000,5997000,111112154,23
117291704,8768150,80745013,1649762,80682659,1651698,965118,6502513,340312694,1788723,123344163,20,20136,399496019,2657,2.39,1.97,99878700,91303000,8026000,121543520,23
105649927,3651609,72819066,928604,73652843,945820,724940,2999021,283269209,892010,109602490,161,109954,371597915,2472,1.97,1.62,83358084,75867000,7081000,103895055,23
109364563,3578505,74942736,752356,74721902,764366,856104,3200410,290502965,896800,112899501,2287,36687,383058613,2495,1.99,1.63,87560811,81035000,6002000,109012257,23
108396167,3796350,73537522,776040,70684536,852634,757484,3260365,272263893,923184,110297674,6474,22195,373742704,2372,1.86,1.52,82697577,71619000,10792000,103691019,23
107072824,4135068,73513415,790459,73647416,809801,877618,3445357,294542231,1048243,112788929,190,40829,375254476,3123,2.06,1.7,85597273,74252000,11037000,106212770,23
104874585,3380899,75066170,873200,75581351,834197,534152,2691449,269673058,941077,108621986,7466,35894,371894342,2106,1.86,1.52,82023755,74671000,6877000,102918129,23
315647471,3286697,198408708,1183045,195568415,1169896,551418,3439670,525455691,941258,305258929,50232,111556,934423812,1889,3.84,3.19,157489253,152178000,5005000,178453039,23
104841773,3893153,75301247,767942,75863123,719093,544124,2980753,257226245,904903,105866421,91,14746,358808270,1986,1.8,1.47,78225409,75652000,2017000,99800118,23
316675534,3629315,198072448,1113314,195731794,1140603,621500,3660829,521993790,891121,307937991,6249,29985,944318615,2049,3.72,3.08,157280718,152010000,5000000,178423568,23
103452528,3717086,74560429,726057,75802114,671947,541306,2985158,240040149,839046,103825152,49,16459,346871542,2080,1.71,1.4,74467461,69086000,5006000,95492253,23
102631385,3260764,74029047,773758,76178285,727329,559713,2824945,249350246,755266,106784261,14542,14057,357760350,1960,1.73,1.41,76755275,71392000,4957000,96978967,23
118016205,4174175,80230926,857078,81269290,808442,569410,2975274,285221230,869919,127274830,1951,16122,410762396,2211,2.01,1.66,83152789,77891000,4929000,106519182,23
287025513,861118,174684135,892302,177440161,842772,106651,1058268,408303867,42677,289450598,151,13690,832114268,284,2.98,2.48,123925258,122576000,1004000,144430357,23
151720547,14109469,106192253,5246199,104652793,5077053,1205577,9391280,639898710,4071244,152081121,230,38829,504663297,3601,4.33,3.54,191125312,179776000,11047000,211661150,23
107324524,3801544,72716138,818627,70661789,887077,736276,3184150,270026586,929943,110986623,27174,20772,369398066,2409,1.89,1.55,83329046,73018000,10002000,103709745,23
101681922,4066564,74006827,786339,76653680,734939,721501,3101834,268824523,951654,106383075,96,17871,349741089,2385,1.87,1.55,78681058,72353000,6029000,99509984,23
311510023,3684760,195686512,1160971,195878728,1102299,604257,3545562,521601172,887943,308344202,67,16854,915359402,2039,3.76,3.11,158355096,150935000,6996000,178207377,23
104449896,3833989,73697884,814393,74526059,736290,486834,2858254,255977555,863263,107617519,247,21670,361202941,1889,1.81,1.48,77915338,69609000,7843000,99132855,23
322415863,3138333,199863634,1198146,196005539,1160430,668273,3498195,535842097,874357,310869872,30286,39673,964329329,2555,3.95,3.31,158676334,152277000,6010000,180111894,23
117764691,4092251,85152073,701840,83998760,676752,1009920,3943186,302974813,1108360,112562798,11779,63139,411639381,7126,2.15,1.76,91628242,73303000,18074000,112741192,23
316710225,3573610,196420736,1241986,194192859,1302783,701123,3893231,533756231,863335,317893345,70428,154879,949764290,2057,3.81,3.18,156045265,147798000,7989000,176585101,23
149760084,13123363,110092143,5665836,108376209,5764435,1044106,8420868,577239932,2926909,151070133,2302,36315,493917930,3118,3.92,3.22,171009271,161315000,9017000,191202849,23
320392221,3152796,198016368,1173243,193842603,1186634,629908,3505249,534462104,863506,315751664,1781,26163,967185700,1954,3.89,3.25,157002129,152595000,3989000,178388627,23
322181207,3502750,200894122,1181758,196744220,1223707,672499,4533941,543254293,1052169,313233392,5595,19037,964290205,2048,4.0,3.34,159653846,151373000,8019000,180449045,23
105965371,3611801,76192188,772648,75634723,693113,616026,3074275,255532101,872254,104977083,29405,18394,360656962,2258,1.84,1.52,75477075,69142000,6012000,96505100,23
313790207,4009828,194292005,1349745,191863878,1369291,853901,3800777,555788638,979182,315586930,134,21056,936878457,2540,4.03,3.34,167921975,162525000,5016000,188354238,23
316868729,3239835,198022780,1127041,195127117,1154768,613528,3324642,522208929,842271,307533384,353,17218,944341411,2035,3.71,3.07,158306693,153003000,5000000,179629810,23
316425815,3222905,198869505,1123063,195731853,1151222,583833,3297505,521677204,833523,305875782,25,17015,942831044,1953,3.71,3.08,157471474,151218000,6008000,178068122,23
112298708,3559022,76924268,876563,74803769,862846,799891,3154730,290962174,932431,110519592,70,169135,391292759,2538,2.04,1.67,89369606,81033000,8003000,108789492,23
319004221,3468339,197577005,1135278,196217155,1115924,642982,3735356,529633278,945459,310313710,7139,25416,942728132,2048,3.79,3.15,158992141,151597000,6981000,179092775,23
315767766,3964988,194694210,1197450,193155038,1226107,969729,4048794,567354704,1000245,319573105,53,39004,946994890,2660,4.07,3.38,170684230,161293000,9016000,191840846,23
104201712,3664541,76352320,748463,76518818,691002,551098,2939129,244154336,817408,105048944,75,13679,357311210,1992,1.7,1.39,76416215,69068000,7006000,96468848,23
108295315,3697137,74810593,723285,73477993,730632,783809,3042380,280746018,844772,112875332,57,17552,382199828,2537,1.94,1.59,86164148,77955000,7894000,107166422,23
103644761,3155169,74957693,720187,75698372,657773,527615,2851846,245008357,827928,104180076,79,14781,358975498,1961,1.72,1.42,74919213,67508000,7053000,96291114,23
103838809,3818386,74087543,774172,74278666,696161,584069,3043349,244269528,838778,105778638,52,16333,358283067,2067,1.74,1.4,76388262,67103000,9013000,97581701,23
102265168,3614125,73819447,805139,75571508,725600,479899,2827955,237177928,770740,103590174,49059,70430,344288484,1876,1.68,1.37,73928588,67464000,5952000,95337898,23
106582645,3333206,74176943,786161,74867457,734707,525530,2858206,253031111,807442,108984692,88,14351,370311970,2027,1.77,1.45,78388286,69942000,7993000,98948408,23
307279526,4364556,194319720,1433283,197391911,1400574,770055,3650373,569496776,1030977,314928430,196953,31350,926034705,2562,4.08,3.4,167033026,158675000,7983000,188265422,23
102622981,3762557,73931518,742832,75856184,680746,537054,3033012,242681529,840544,104290016,106,17057,344851877,2060,1.69,1.39,75056286,68557000,6049000,95632068,23
115303322,3553718,79010299,793148,77439950,781359,752444,3107781,289583377,917323,115423354,102,15537,402903300,2406,1.99,1.63,88168597,80829000,6985000,108773150,23
103844281,3221198,74954923,766064,76360936,714743,571664,2844726,251111139,856898,106444730,73,13899,361548702,2024,1.77,1.45,77181965,70883000,5990000,97526272,23
105964980,3738557,74551953,786643,76162079,738750,601488,3099183,248798455,847982,106966014,79,21595,356806150,2142,1.76,1.44,77262292,68993000,7999000,97980138,23
107957882,4189243,78716235,1430861,77950367,1382481,827070,3470228,313439823,1094508,105045406,30658,479477,365752169,2861,2.17,1.77,95227294,86777000,7979000,116904060,23
319572326,3337461,197426783,1140086,194574908,1126646,657110,3630535,535976513,916360,315730382,58,30839,956910667,2130,3.95,3.29,157731177,151375000,6014000,178847709,23
138374213,10252412,99250861,2138414,100355090,2129507,1086128,5889962,463106769,1384092,142409888,1553,23813,481613640,3517,3.19,2.62,139624953,136294000,3006000,160104012,23
103466370,3253284,75083036,771600,76273213,710311,550745,2838280,248661338,787111,105197809,73,41561,359672299,2027,1.73,1.42,76825955,69430000,6943000,98082811,23
111307813,3561007,76965537,753540,75277885,719615,826558,3131169,297573922,965508,110500724,152,27049,388384981,2607,2.04,1.66,91190154,85917000,4995000,112422332,23
320151734,3057628,201675376,1150297,198188069,1159519,681619,3373828,537607940,963923,306179754,11500,20199,951691725,2555,3.88,3.23,160553199,152237000,8012000,181258941,23
329157503,3789699,206585333,1160848,203489352,1213584,1013283,4216601,575367547,864554,323264082,200,47829,1002033425,7058,4.15,3.45,172512477,153147000,19018000,194225562,23
105681461,3692462,75429238,698904,76358255,628524,534908,3049805,240581474,827545,103735500,80,12517,349690326,1988,1.69,1.38,74135051,66780000,6977000,95284853,23
316966777,3239867,201343605,1191738,198978121,1146605,662204,3401182,535530579,929580,304843117,13470,19695,939991459,2555,3.84,3.19,161340506,156066000,5002000,181927694,23
108114958,3547757,75044769,870405,71696203,885127,745917,3036486,279016042,861740,111625776,60065,20514,376312900,2377,1.98,1.63,84177450,79773000,4039000,104553045,23
105165631,3350572,76130298,682593,77359556,669937,473095,2798851,230421048,825708,103747448,74228,12300,357556894,1807,1.64,1.35,70844199,66395000,4023000,92193184,23
319801474,3448871,197309320,1128143,194867564,1094313,635406,3776101,530676926,952415,309910851,155,17945,948862156,2060,3.85,3.21,158246530,149906000,7994000,179229053,23
106345781,3170134,76008612,769578,75607502,732656,597888,2850686,258176802,823700,105108465,76031,15193,364843308,2094,1.84,1.53,75152153,69814000,5059000,95494793,23
286885179,995234,173541113,745683,175153427,742734,114361,1233775,401411360,93483,285117758,230,23247,829846120,339,2.98,2.48,122658598,118305000,4010000,143631299,23
103375890,3806776,73931819,750982,75200776,684154,504701,2930497,252856558,941688,105770842,75,17502,354400860,2039,1.8,1.47,77465225,70121000,7012000,98303898,23
315191183,3604788,198544221,1224080,195684708,1202650,640571,3485927,521764600,883266,304541532,153095,17036,932098209,2049,3.83,3.18,157114012,149816000,6991000,177741962,23
105901195,3525155,76043057,732285,76386103,650282,543747,2965360,250969920,909801,104450124,95,12762,358197476,2094,1.77,1.45,76758331,69450000,6945000,98057136,23
102010758,3632281,73861203,958140,75267442,900729,505950,2852674,244423573,807773,104880057,4895,20602,345910868,1937,1.75,1.43,74554517,71242000,3010000,95944709,23
109153831,3305435,76780415,744786,76665507,680945,498583,2800757,255382196,853339,106671462,76,12977,373440888,1958,1.82,1.49,78045090,71566000,6047000,99369201,23
109279506,4027569,74851711,930885,72261741,1003256,791505,3556038,275269868,947432,111826968,91,16999,379110833,2510,1.94,1.59,83052369,73864000,8863000,103644151,23
299766156,1598984,178733602,1096272,174856744,1133526,127307,1488065,435295821,64241,295914888,21343,10214,870097987,478,3.2,2.65,131522064,128046000,3001000,151959001,23
316455298,3279299,198447631,1098433,195882321,1095376,580146,3546463,520584777,949511,306854113,92,28317,936715340,1848,3.79,3.15,157135301,153700000,3013000,178068833,23
314232838,3703188,199615331,1192340,198409805,1112251,683505,3543441,535750502,1002885,305467956,91,19150,927850367,2604,3.86,3.2,161549508,156176000,5005000,180630693,23
315635782,3129732,195778942,1162472,191031377,1234293,525055,3101073,510419063,734815,312365466,142,20020,947355371,1775,3.83,3.2,151090355,143753000,6987000,173232117,23
108884832,3879655,74591093,748333,72085853,773052,905592,3622263,288216371,1008263,111142111,56,19820,373665699,3318,2.04,1.68,84797822,75394000,9047000,106048098,23
93642574,1053970,56634952,373126,53610099,389368,99471,955989,143221580,42707,92574301,15663,4826,298345354,585,1.04,0.85,46762651,42448000,4042000,66925319,23
307214659,32171685,163692647,2610309,160645123,2629500,561250,16139950,651247857,878771,302588317,41488,89089,1042541553,4782,4.73,3.97,191681821,173771000,17075000,240930821,24
338030378,3210175,213942611,1723224,211995723,1741101,722463,3379005,573049269,785416,332651378,11545,33283,1029505515,2923,3.97,3.28,171977858,158714000,12976000,192948547,24
110660710,2642153,77737851,806704,75019148,933643,485098,2530313,228927153,642215,106089986,97627,12676,378619256,1959,1.61,1.34,66652255,59313000,7037000,87253778,24
106440892,2787162,76328510,632431,77026083,564662,497444,2572576,233232289,555741,106650828,254,11450,375222124,1960,1.62,1.33,71986252,66595000,5045000,93343598,24
108965030,2746158,78879432,524126,76533078,651549,413793,2523623,218751793,639042,103957696,153,14852,369343068,1952,1.51,1.24,68014527,60747000,6971000,89180719,24
105660380,2814120,77073288,506071,77672261,572845,474692,2474574,224550173,611400,104821870,232,13366,360730423,2022,1.55,1.27,69130196,64660000,3979000,89826056,24
318122286,2716246,199617941,1110442,194662220,1242129,559387,3162294,499595183,726488,304892977,23286,16004,946985406,1955,3.56,2.96,150071291,144688000,5023000,170772547,24
114501142,3367824,79875038,891814,78244660,882665,919041,3113988,270655293,835576,110113315,369,22024,388443455,3269,1.91,1.58,79870810,72680000,6875000,100507572,24
314154827,3492465,196973306,1241484,197334699,1138215,814357,3328757,545434477,821344,315331515,19727,27665,946505982,2745,3.89,3.22,159954355,155779000,4020000,180618506,24
314690685,2677943,194954384,1236481,192895634,1211538,578556,3196955,492066132,641497,312533074,225,16416,943128630,1882,3.49,2.9,146473353,138060000,8003000,168112095,24
315381972,2864048,199338394,1157751,196664647,1245522,533678,2959915,506829842,559671,305592038,57,16974,942864318,1860,3.6,2.98,153177973,141856000,10988000,173866007,24
111739324,2614445,78270921,759931,74505290,891251,414035,2534329,218630784,632035,103734501,128589,18332,375890867,1856,1.57,1.28,65440950,60155000,5012000,85346715,24
112924063,3217804,78579620,1012940,76218757,1020665,754765,3072800,258462986,785746,109514517,123215,17752,391530414,2484,1.77,1.44,79926803,73419000,6034000,100437537,24
313833974,3608629,196857642,1172867,196257529,1072694,762115,3364328,538236666,812195,312801545,1535,31126,945773957,2871,3.86,3.21,158453422,150171000,8009000,179950549,24
312856446,2803300,199396150,1119845,196352421,1246761,601540,3060088,508454142,650294,305949317,79765,18008,933668468,2053,3.63,3.01,152365172,145996000,5999000,171980329,24
111454752,3336875,77201363,1030712,75839970,1015617,830946,3006513,266464467,794011,111838211,1145,20115,386047010,2689,1.87,1.53,80507489,74137000,6011000,100710797,24
116046444,4134435,87929215,1211111,89723484,1214405,1165359,3716433,343072916,808911,121101241,128,55313,426144957,8207,2.4,1.98,100922541,83488000,17100000,122227249,24
127156474,3847212,91571595,1558547,94005117,1501827,892322,3196249,333923543,903347,133997841,13241,41192,445336735,3852,2.31,1.91,97806463,91406000,6026000,118891396,24
120524471,3406679,84013394,931218,80642622,888639,966807,3122871,292014484,823843,112994193,184,21061,419342273,3650,2.05,1.68,90228267,84850000,4991000,111364299,24
319976192,2794344,201239715,1589747,198014746,1568732,581168,3207360,525529725,606350,311458188,154651,17197,955783594,1982,3.7,3.07,157951670,150615000,6982000,179774724,24
316097569,2676937,195722124,1270999,193072427,1242784,570474,3246840,497356031,652401,313316804,6018,24098,948657159,1858,3.54,2.95,147061785,142697000,4019000,168842356,24
106509239,2895606,76217686,789714,77680440,685904,544096,2624881,235386461,580222,107448203,30223,12863,364905616,2057,1.63,1.34,72506448,66208000,6018000,93407683,24
118970359,3617386,87912748,863488,87443761,761679,1106002,3600539,299315396,806252,116291503,126726,85711,429995812,9016,2.11,1.72,92143372,75880000,15974000,113905264,24
110248078,3247598,76237942,876085,75918330,844464,744460,2914235,259378129,789593,112205539,63,16870,382310100,2487,1.79,1.46,79547410,73161000,6013000,101589134,24
105547796,2813803,76564260,607519,77004351,543652,496518,2553312,229394353,545287,103967603,176,11581,370892544,1866,1.64,1.35,71032381,63715000,6968000,92582998,24
111860034,2837432,79944558,540272,79010103,563585,492977,2582780,236188100,606539,108070785,27,14114,380116080,2820,1.69,1.4,69539019,65178000,4010000,90061868,24
317339329,2809250,198130844,1181941,194693240,1334064,551328,3080581,502879098,701068,308127998,432,16825,948616686,2003,3.62,3.01,150616032,139366000,10950000,172156905,24
106248995,2832205,76659445,563957,77641802,501468,475276,2459506,222851835,576193,106172768,77,15891,364409447,1887,1.58,1.29,69976860,58707000,10945000,90995364,24
314955136,2702150,194951714,1407271,192671980,1377804,592285,3248139,508762238,787376,313711006,11441,28028,953328297,1899,3.65,3.05,147683829,139243000,7956000,168402242,24
113930849,3315375,79107592,815724,76226991,858717,878223,3027732,265134458,770781,110402122,82,21066,392498970,2879,1.85,1.51,81744300,75500000,6040000,103055726,24
112895367,2740569,80225960,583348,75678089,711260,517401,2615027,230049065,644910,106768288,137,12426,385306455,1958,1.65,1.37,67176705,61610000,5050000,88272802,24
105580474,2869707,76237804,615426,77114311,487530,492953,2518721,230801218,586823,105670256,352,18722,365778075,1960,1.63,1.34,70961875,62598000,7949000,91965348,24
109086812,2817533,77816137,653319,78204945,604387,526827,2599471,233069669,549137,107007316,8738,13128,376105219,1964,1.61,1.32,72201595,64762000,7083000,93770134,24
157577403,10584042,115130077,5811611,115795237,5809259,2111011,8345003,715598042,3545140,158621580,32532,53383,528271712,3397,4.83,3.96,210876355,201476000,9021000,232152571,24
317816238,2672114,198529550,1143902,194496230,1269848,526548,3023948,497303113,710489,305206262,42826,17450,946244445,1856,3.59,2.98,149781529,143368000,6015000,171694907,24
200963208,11477775,164960509,816944,164862855,780457,4910316,11158244,753674386,1913438,201074625,835,268969,832669033,60166,5.34,4.38,222786987,128280000,94205000,243709202,24
116493042,4022996,79720652,881559,75913738,941795,830137,3681441,287226490,836928,116780805,98,25693,413975347,2524,1.99,1.62,88394741,79110000,9012000,109507889,24
317452021,3458319,197131559,1329300,194984067,1261897,904203,3399998,547054114,811743,315418563,72,20325,952357369,2865,3.87,3.2,163856805,158577000,5018000,184757952,24
112976810,3281227,78748305,867013,76557036,868023,805278,3054684,262548580,807877,111028149,61,16367,391923489,2681,1.81,1.48,80386449,72101000,8011000,101512021,24
105685958,2827211,76871278,564201,78414323,515815,499087,2489442,228285228,581875,105970502,24,10606,365745976,2055,1.57,1.29,70409426,62096000,8012000,91673699,24
316427124,2785654,198998001,1120116,195307147,1214619,529708,2923536,505830262,625886,306400999,89,75326,942889401,1951,3.59,2.99,151422479,146031000,4967000,172260879,24
107018160,2832458,77607497,563476,78026725,518487,477123,2522943,222517283,573878,104532682,66,12513,364988884,1960,1.59,1.31,69444028,60023000,9003000,90038881,24
112925442,3294119,78147163,980351,75495314,1070554,715571,3001592,260175908,800265,111509196,206,17754,391603815,2680,1.84,1.51,80876627,72310000,8034000,102054748,24
130720075,4796190,93594992,1482534,93410804,1464443,1335155,3864220,373913111,1272100,130235301,6248,25990,451269234,3720,2.62,2.16,109640438,102141000,7009000,131157235,24
110494751,3355204,76824862,884377,75930984,854815,835795,2961636,261855596,796311,112450260,251,18147,385203476,2683,1.8,1.48,79831160,69602000,9943000,100505966,24
109561977,2712179,78370921,603052,75661275,702476,520731,2553130,232380907,695527,106065422,243,18292,376470591,2346,1.64,1.36,67793796,62441000,5035000,89403975,24
318007708,2660310,197755389,1118530,194493002,1234869,542408,3150516,495724817,755147,304731802,158,17448,941593684,2068,3.54,2.94,149330179,142992000,5999000,169244412,24
382712574,8000787,249675285,1690138,251145820,1684087,2738703,6547849,996600723,1665643,395722690,392021,70900,1233237560,8566,6.89,5.67,295890425,280421000,14969000,318118564,24
327849622,3257750,209959551,1358996,207324323,1285465,751927,3311288,543431611,821656,316122111,313,24309,982033525,3320,3.92,3.25,162891992,158489000,4012000,184597314,24
316176536,2674013,198580655,1117805,195267061,1255703,557726,3037081,500338885,702509,305860622,629,44766,940332527,1957,3.62,3.0,150720745,143260000,7012000,171290461,24
114891643,2870773,81520397,728184,80058885,688634,536769,2723414,250415473,669093,112867428,103,15666,405560117,2430,1.76,1.44,77947962,70728000,6876000,98455447,24
112522998,3293089,77749777,813583,75117566,874354,764530,2918869,268272709,723673,113785831,84,20169,389028219,2684,1.88,1.54,82681966,76301000,6023000,103499805,24
106537492,2798895,76781760,617247,77787243,577138,489471,2521075,230503690,538316,105302706,16175,27535,368333825,1865,1.61,1.32,71433667,64214000,6915000,93302282,24
112529460,2724210,78434962,885264,77946639,823036,503945,2684752,240073158,616379,109915521,415,13927,374536971,1961,1.69,1.39,73590469,66299000,7031000,94914596,24
317950577,2711060,197928926,1168205,194374177,1281104,570344,3146694,495776881,753213,305905709,196,18128,945073268,2151,3.61,3.0,149591389,143263000,6011000,170588745,24
313546258,3461907,196146464,1287184,195715842,1166692,802081,3280647,535894325,769452,314227854,90,22713,945314718,2670,3.82,3.17,160782457,152520000,7974000,181971917,24
106269735,2651405,74925847,1046223,75757138,899889,528119,2674003,244019639,639748,109110432,162993,15876,375364253,1962,1.71,1.4,75457010,67043000,8005000,97091174,24
108806792,2815838,77378011,585507,78477492,521444,500100,2533877,228975066,561798,107252026,13,11827,369932336,1960,1.64,1.35,71109968,62927000,7865000,92128080,24
311213334,3216921,191441999,1323477,192077673,1270676,708399,3130788,529007803,618667,316158985,199,25164,946253221,2674,3.79,3.15,158880781,152381000,6015000,179258005,24
107112268,2863225,77483947,582769,77752388,494758,461326,2480876,221923789,567288,104773280,6888,12103,364393913,1861,1.6,1.31,69421043,62039000,7004000,90583793,24
113414378,3358535,80288371,936296,78035456,934014,865212,3140926,266851441,862182,109885043,56788,18581,395198998,2993,1.88,1.54,81687180,72218000,9027000,102190375,24
316390464,2694266,197349242,1123083,194533172,1263436,566884,3084909,501159384,692698,306873001,4493,21308,942978942,1857,3.58,2.97,150244382,142850000,6944000,171554098,24
107590162,2738716,78658369,490234,76786791,612957,465000,2513224,220923743,612425,103200271,113,13493,363973527,1859,1.57,1.29,67714676,63464000,4029000,88647532,24
318657664,3286347,200779278,1213684,199835109,1133439,705282,3289436,535679958,757843,317028945,737,29079,963204774,2874,3.82,3.17,160343444,149870000,10058000,181628501,24
108384537,2772127,77695033,734905,77088842,822430,483080,2471747,236493438,543937,107669022,27802,106155,372077872,1866,1.74,1.45,69971739,64497000,5038000,90954427,24
109231420,2627132,76996749,715247,74717762,842973,490485,2604064,227050091,700891,105211668,26692,52616,374710898,2005,1.64,1.37,66731952,60279000,6027000,87922989,24
108972737,2722105,78668784,506880,76787294,634094,504484,2529211,231345775,604411,106077121,157,12130,372535148,2057,1.69,1.4,68910867,60774000,7841000,89491060,24
315798238,2796377,198938187,1043096,196235854,1138416,522439,2936907,507208115,611022,308608857,3400,18412,941083111,1858,3.63,3.02,152414707,144888000,7043000,173142291,24
110462239,3226875,76941233,998956,75230795,1072631,758863,3008936,263118576,843369,111627522,152,20835,389824183,2533,1.83,1.5,80948358,71874000,8861000,101736810,24
136363970,2578482,103019013,3395924,103243623,3186146,545637,2847335,346235717,687336,137612486,145,13807,519466925,1955,2.41,1.98,105262334,99000000,5940000,126576894,24
113338398,3300349,78277732,828489,75656116,867169,816780,3070794,264487727,792958,112204116,131,18907,394558462,2681,1.86,1.52,81386615,73061000,8006000,102263722,24
112662678,3298159,78471103,861441,75928470,881615,829909,3108186,256521213,797853,109944142,125,20937,390035805,2683,1.82,1.49,80282288,72903000,6990000,101866991,24
106055794,2773661,76949721,905291,77590463,961500,465913,2467609,235506343,562209,105473489,148633,13083,363016417,1858,1.68,1.4,68911166,60541000,8072000,89847981,24
105537035,2831503,77236371,517022,77804006,530453,461773,2411125,220906356,570916,103883570,65,11881,359556001,1861,1.57,1.28,68683508,62334000,6032000,90090611,24
315026622,2719489,195652468,1223691,193412269,1226352,559724,3240475,494153186,666633,310290747,100,17252,946624984,1882,3.53,2.93,148420789,145049000,3001000,169446956,24
107244070,2867321,77367244,572602,77991586,511211,474275,2479336,222849136,575409,105283299,84,12794,364905430,1982,1.58,1.3,69869484,64516000,5040000,91320683,24
107769096,3038944,76152687,689938,76415830,566287,562844,2602982,234185144,559395,106745537,21985,33969,371195198,2445,1.64,1.34,72509199,65260000,6921000,93134242,24
114298029,2740915,78124019,675206,78317592,628483,531339,2604420,237721291,571669,112847786,9206,14883,392524814,1962,1.68,1.38,73795292,67437000,5950000,94827984,24
104274163,2413999,74724260,502826,74733077,567542,425719,2338060,211440515,529870,99046291,91,12353,349192736,1920,1.49,1.22,65466215,59098000,6009000,87172851,24
110958415,2670226,75153486,710306,73953308,776605,485426,2599352,224188273,651444,108680723,83,12534,381600529,2005,1.59,1.32,65911411,61514000,4033000,86946846,24
106221857,2809312,77085592,505508,77493640,575448,482224,2475235,223489496,599558,105681650,128,12049,363251998,1878,1.56,1.28,69150105,62791000,5980000,89038559,24
116481990,3595964,85207296,701553,83943246,842556,932643,3382865,277813563,738248,112172016,5418,40094,407224204,7232,1.96,1.61,85169339,63530000,21176000,106066629,24
103908189,2782933,75535302,652431,76823556,576042,514344,2570914,237579166,558282,106660574,121,13793,368145776,1867,1.67,1.38,73260106,65952000,6994000,94076486,24
317221734,2810515,197077603,1179275,194284764,1234409,604540,3194719,508233842,682105,313108349,406,16963,952458646,2054,3.66,3.06,149514294,143068000,6002000,170314696,24
121634284,3765992,87701867,759844,88636966,581869,1013956,3205927,311554969,819729,120850384,211,25099,440416104,4227,2.2,1.82,91836266,82452000,9049000,112808387,24
110121484,3332483,76592733,873304,75738246,853457,825996,2949703,261166627,794353,112165257,90,18685,383405902,2683,1.82,1.49,80228470,71843000,7982000,101162129,24
329805288,3141500,210221683,1342766,207944241,1326073,667154,3406894,544741667,731454,316195788,208100,24808,987588567,2520,3.91,3.25,162622458,157263000,5008000,183507439,24
110860187,2694679,80803264,1445546,80868673,1331401,494863,2686145,254409960,627694,110628826,105,13484,398493535,1959,1.81,1.48,78345596,72154000,5930000,99223912,24
343581846,5193904,221796455,2287783,221169375,2187516,980440,4752119,637583971,726222,340167671,19927,79663,1049262412,3731,4.2,3.56,156067688,149331000,6013000,176240584,24
111891368,3314043,78155791,885828,75541219,790253,789549,2924819,263961257,828593,111083249,78,16597,386525017,2683,1.9,1.58,77707741,70393000,7039000,98848945,24
113737750,3297191,79263607,739156,76222357,802734,766524,2981271,273167167,719535,113040253,389,19162,393745261,2490,1.92,1.57,83127842,75740000,7069000,104543990,24
315724033,2816721,199774082,1021273,196541649,1078477,544241,2971376,504322345,570548,305606453,208,17101,939807646,1861,3.76,3.12,152741643,147356000,5012000,174593275,24
337817053,3300974,211327142,1147858,208016799,1150453,757630,3513873,569298094,795153,327220666,3952,25531,1018018637,3161,4.16,3.46,170958793,161647000,8980000,192539621,24
127495790,3278921,94887206,1588098,93858512,1574985,740262,2935388,309475217,905151,125967401,161,20112,434641326,2683,2.17,1.78,94420442,84139000,10016000,114954325,24
311392401,2700206,192996198,1242566,191511481,1197449,544576,3030495,503806455,649357,319472102,24715,15809,946346799,1857,3.66,3.06,147295339,138930000,7995000,168356835,24
316370136,2709560,199565902,1057040,195301321,1188665,532259,3085781,499502361,736242,303528018,288,18510,937163918,2049,3.63,3.02,150384268,144038000,6001000,171254335,24
242188717,14288864,182497532,8238771,184141256,8326464,3271344,9997202,1077993612,4599341,240665562,4503,104700,808836112,8737,7.35,6.01,319511716,300048000,19003000,341600687,24
311604351,2844285,199275166,1061820,196998659,1123304,528853,2933008,507139593,553012,305159368,25166,15732,936973789,1854,3.67,3.05,153834282,145533000,7974000,174929411,24
126214609,3296361,92592074,509515,90685902,488645,1187867,2637429,314498041,707093,125302244,108,23112,444684405,3992,2.19,1.79,95721369,88419000,7033000,116282479,24
111128567,2718289,79591716,671780,76079363,793285,472949,2521778,230409073,616958,106480425,166683,33761,374220725,1979,1.68,1.4,67584559,65253000,2007000,88074960,24
349793997,11545631,227347887,2937187,229195851,2901062,1244944,8253845,803033766,2546582,346102330,78,27704,1101984455,3229,5.48,4.54,236154431,229420000,6037000,285156033,25
124594138,3243572,90256819,602231,89791951,610621,444286,3038120,245652380,906608,109022372,50,12417,412112486,1878,1.71,1.4,76290934,71000000,5000000,96650101,25
124921989,4748898,90505323,713319,90148871,686883,946476,3819810,321675192,1318337,112525972,93,28292,419428787,4216,2.23,1.84,93887641,81548000,11933000,114062480,25
132818077,3557862,91583922,770719,87322542,808778,821505,3620824,288140736,877530,123382867,32,26738,453420736,3525,1.97,1.61,87508315,79125000,8012000,108758150,25
118170599,4118307,81483273,799028,83336014,776932,620107,3206274,266581928,800959,125205067,42,14228,407986753,2728,1.85,1.51,82152860,76708000,5046000,103662836,25
115416728,4165017,84266195,854640,85732844,797227,594075,2939900,274631355,837441,120307578,28440,36046,399484643,2440,1.92,1.59,80328011,73922000,5993000,100882026,25
123976251,3543584,80813750,788501,80809637,731200,454133,2682461,264358287,627121,132377206,130,15427,440507158,1787,1.89,1.55,82331279,76071000,6005000,102846411,25
131825066,3888536,90594271,876264,85718292,940639,819320,3888014,280526227,854706,124742349,128,18559,446668944,2860,1.95,1.6,86528364,76191000,10025000,108268018,25
121568197,3755619,84484839,750184,86254295,726448,511919,2916353,273658695,780132,128222759,135,14094,417669039,2169,1.93,1.6,80931212,75559000,5037000,102070150,25
130039854,3494253,90393855,699160,86173347,740011,762810,3565654,285272897,868715,121436383,163,20768,449012537,2841,1.99,1.63,87608103,76259000,10894000,108130872,25
131033868,3448258,90638338,757701,87006378,786234,809737,3597298,285660086,893164,121954448,223,24435,452205529,3326,1.99,1.63,88072320,77711000,9963000,109818036,25
268314444,33701964,194629558,18275344,193554861,18258542,4884438,23336685,1766384023,11161611,269963122,33939,115794,848200207,5468,11.48,9.36,521407532,501025000,20001000,542068731,25
117151583,4363625,85586417,810525,87176109,729973,579131,2935511,270862722,860036,117744287,64451,15379,394657932,2483,1.89,1.57,79775128,69272000,10039000,101042652,25
326826713,4565814,206090707,1239185,205500901,1206093,717002,3582670,556629739,785998,328829545,2338,19170,985394160,2655,3.95,3.27,166689751,161235000,5007000,187024820,25
162572427,18211602,120332859,5719129,123082433,5686764,2823672,12801168,878715234,4703049,159720490,39127,58000,531617620,4851,5.77,4.69,260971152,247524000,13027000,281700237,25
123050744,4109170,79493604,851323,76945461,803643,841876,3424101,281556470,794748,137450279,374,17531,437171123,2518,1.96,1.6,86019045,75786000,9842000,107742674,25
103434295,3576394,91712800,711410,89612973,753781,665362,3366295,283388431,795641,105769749,208,25111,441806088,2606,2.01,1.67,83480210,71151000,12025000,104829143,25
131316746,3755151,86299936,690137,81806817,759416,992698,3901016,299426254,1071418,126081840,344,22124,451926286,3033,2.12,1.75,88422703,76101000,12016000,109303793,25
338189801,3961756,212378281,1194789,207681180,1232569,1166084,4801343,598370771,1285036,325452383,69,24350,1011864278,3223,4.26,3.54,175100219,164727000,10044000,198869872,25
118390074,4125444,80845785,797263,81764692,784083,659558,3363107,269880983,749611,128796004,236,17094,414856882,2484,1.87,1.53,83140980,73869000,8984000,104539363,25
123714005,3826729,83765513,767345,81028351,789462,735344,3605732,275335763,794310,129971009,388,18490,434511450,2685,1.93,1.58,84790128,78357000,6027000,106029048,25
118156615,4550104,81934073,813654,84050050,782884,706117,3370657,282610049,789954,126656479,243,15975,414415698,3071,2.0,1.65,83445202,79136000,4006000,104424661,25
127778745,3541581,84342466,726873,80829487,798528,776407,3539606,274673205,783066,129020096,48,18799,439558813,2638,1.92,1.57,85265081,79926000,4995000,106913555,25
128579876,4110746,83345055,793729,80302888,787671,818227,3439585,299736839,856314,133054218,1779,53492,453780289,2522,2.07,1.71,87689193,80374000,7032000,108203193,25
129198277,4182190,89881487,723948,87307732,738747,863318,3527883,299458655,1082193,116823332,7937,20799,429841199,3088,2.05,1.68,91748559,81471000,9935000,113166075,25
124993911,3701032,83658133,841889,80501265,879607,781295,3499421,274557073,806791,131049490,102208,21687,436407616,3119,1.9,1.56,85151988,76786000,7977000,106476662,25
124862420,4280921,89470309,728726,87971786,681035,847059,3447419,306985758,1132308,112807192,109,21067,414742320,3235,2.12,1.73,93408374,84253000,8921000,113661378,25
340191233,2850584,208626466,1235410,202804586,1301462,638689,3901653,536374422,872931,330248267,22372,17757,1025786265,1967,3.86,3.22,158289931,152916000,5030000,179589009,25
341931355,3036334,208375281,1181842,202182265,1247687,679265,3984051,533968353,858870,330480725,242,16268,1026879299,1873,3.77,3.13,158915047,151635000,6983000,179063257,25
117510338,4614922,84473089,774218,86632248,717743,931406,3378367,314351777,1036910,126516024,168,21370,401504409,3634,2.17,1.77,96122225,90820000,5045000,117020158,25
119894449,4474453,86919562,763482,90271731,750353,831330,3360684,319146889,1101801,116274166,277,23650,405219275,3437,2.2,1.81,93982902,84660000,9070000,113969906,25
115893416,3610079,109316124,635390,104964614,611741,628930,3262479,294836433,952550,106819615,105,18544,492214905,2529,2.1,1.73,90346940,83066000,7005000,111249619,25
124431868,3849916,83407349,892511,80543105,869963,658116,3231487,279399908,760078,131650451,134494,24879,436153045,2455,1.94,1.6,84373545,78427000,4963000,107002499,25
121145155,4654621,80474076,832418,80454431,790847,975778,3589091,326014659,905185,137272031,90,33775,434021585,3235,2.28,1.86,99203227,87097000,11876000,120566309,25
330464839,4947909,200482642,1287785,200351233,1224082,916010,4048369,568760552,797532,342437132,225,21951,1008610126,2537,4.03,3.33,170995757,163594000,7025000,192093593,25
339907619,4901578,215918807,1256025,212158057,1183973,871527,4565400,582809724,1283475,318287044,333,19426,1004280894,2657,4.14,3.43,175105521,167730000,7030000,195815270,25
112224968,4920835,81796305,753505,86147074,683766,535525,3069107,266317794,783238,121636940,235,18284,392728106,2660,1.87,1.54,81663269,76325000,5021000,103228291,25
118627587,4318072,86756991,773649,87933738,671257,548951,2896884,266770592,887955,114088255,2417,15153,387617960,2243,1.91,1.58,78520911,72282000,6023000,99665769,25
339344644,3147952,206512688,1207676,200447048,1260659,649152,3936177,534307044,814572,335712833,2134,22631,1034885666,1969,3.89,3.24,157300294,149001000,8000000,178499420,25
128103272,3862817,82369665,819122,76224663,840384,855546,3558359,279172045,832596,137391495,30,17955,452972227,2517,1.94,1.58,86325771,78049000,8005000,107268385,25
121941252,4271380,80979369,1218941,80273101,1162207,500189,3107871,269036588,715799,131819050,131870,18852,426505753,1926,1.9,1.56,83315556,76919000,5993000,105031693,25
326877762,4669814,204560156,1434483,204175355,1398376,779054,3826996,576122279,803080,335556569,268,134107,992436074,2728,4.1,3.42,168586284,163286000,5008000,189418041,25
330506456,4041097,208454328,1193698,208182666,1104051,572703,3225006,548750619,914963,320879369,165,19172,983432620,2431,3.89,3.23,164309912,156922000,6996000,184882610,25
329303043,4363574,205301890,1331670,204205356,1291459,800687,3759993,563003598,772489,336362063,22,19394,1002681266,2950,3.97,3.29,168331251,159911000,7995000,189300035,25
132528588,2833602,88704841,650152,83366923,715059,570006,3465582,253462998,858872,120970902,235,13411,448170080,1973,1.78,1.48,74284764,66942000,6993000,95798822,25
325307643,4292939,207054019,1223398,206222644,1185988,668129,3439259,553829391,816112,324429372,62,20783,975021207,2455,3.95,3.29,166352584,157958000,7997000,188370013,25
124643141,5712632,89014094,793900,91910534,760285,1070280,4019499,326750492,924395,134276921,21,40349,446451748,8201,2.32,1.9,99839765,79399000,20101000,122706617,25
326509130,4357922,208410985,1210000,208804687,1138296,569833,3270148,552698527,886406,320505762,60,18585,970538818,2281,3.95,3.28,165256271,156818000,8041000,186041828,25
122470898,3388833,90427378,689523,89885018,655152,476275,2934164,247699110,868968,106064873,33809,30344,400093637,1877,1.75,1.43,76422611,68092000,8010000,97788746,25
117318446,3884516,79824024,927582,82695876,908276,640480,3126576,271444718,731211,128516515,116787,16742,407584775,2438,1.89,1.55,82931193,74585000,8063000,103902939,25
125432225,3803003,84112659,761260,80512293,798624,749791,3659474,275610856,815205,130584528,8266,24985,436863820,2683,1.96,1.61,84910799,80554000,4027000,106704683,25
113887451,4650188,82965446,756383,85501040,721323,879252,3250512,317421361,1009292,126033056,53,20330,400169123,3438,2.19,1.79,96509042,85245000,10903000,117322491,25
121160214,3669841,81694874,1016201,80125288,1027237,671830,3375425,275767073,735824,131140572,11786,224587,430174529,2437,1.93,1.59,84612874,75327000,8920000,106117705,25
326149597,4510771,205022125,1277665,206180038,1257615,756782,3744881,570125768,742580,335437602,191,21721,991834021,2604,4.1,3.41,170095124,159512000,10032000,192687420,25
124901616,3522492,84705507,854523,82289003,868614,694517,3375127,278237159,793329,128823126,56,15338,435972174,2434,1.97,1.62,85310776,75986000,8998000,106436169,25
117142369,4069818,80218861,799150,82456517,770895,672456,3256567,271723280,793125,129105659,29,13790,412359498,2727,1.91,1.56,83162249,76772000,5982000,105277699,25
331347867,4455924,206166504,1239310,204604083,1218474,807378,4054543,557752459,832440,335449730,130,19227,1003550763,2924,3.99,3.3,168880952,159585000,9033000,189836468,25
122122561,3739592,87496915,709017,88410491,598049,578983,2957931,266986222,908562,112934266,71,17771,408187976,2436,1.89,1.57,78441521,71037000,7003000,98790152,25
127278210,3814772,83942989,776839,79295140,770599,750691,3334667,288961535,790038,132358695,375,27849,448100463,2838,2.05,1.7,85129315,75954000,8877000,106954882,25
131576681,3729612,83693297,830503,76830807,878457,889643,3667051,280528863,889854,134026556,159,46023,452207413,2519,1.98,1.62,86409989,79025000,7002000,108665670,25
117847541,3731904,86221586,681826,88930816,590570,417516,2748510,251193430,800578,113453486,162,16987,388875687,1972,1.82,1.5,77304649,72934000,3996000,98513200,25
121050180,5617907,91412223,828927,95060513,804642,1011980,3995012,343244667,936732,131642707,539,52688,436506342,7762,2.45,2.03,100008137,84526000,15094000,121456169,25
325818290,4931720,210195848,1275860,212461046,1237875,607172,3510813,546541545,890590,319215660,2318,20365,968029986,2658,3.95,3.27,165405996,160064000,5002000,186761706,25
118570358,4397152,80983467,754612,78629751,708940,836589,3410345,294878843,968213,112830135,96,21730,402537087,3113,2.09,1.72,89459693,75098000,14018000,110403827,25
340450162,4303591,213362308,1332306,209068124,1317579,967750,4407697,589010391,1096749,327690785,559,23907,1020330373,2786,4.21,3.5,175771400,162380000,13030000,196912928,25
343146994,7271217,215954413,1543130,213233546,1565618,1982783,6610753,825936927,1949900,348787988,2576,56218,1058602453,4578,5.68,4.67,246788818,225603000,20870000,267924157,25
117800333,3848998,80151576,871695,81773220,846288,653317,3209251,269241193,751297,129600546,298,17145,413850009,2435,1.9,1.56,82941770,73492000,9060000,103458914,25
329078581,4449319,208130885,1195996,208596559,1111097,611721,3529071,561093357,929107,323616265,40087,48748,988168499,2480,4.08,3.41,163595071,158197000,5006000,184930575,25
130297795,4131824,84028423,806849,78585783,818406,891815,3764123,283302878,914451,133493963,93,21989,454714217,2719,1.99,1.63,87628436,79257000,8026000,108023836,25
119056760,4449556,86054574,764609,88214107,701834,882728,3300201,312795678,1125897,119024391,71,33672,398092187,3434,2.17,1.78,95188496,87624000,7050000,115808394,25
113707936,4220094,85299022,730704,88698317,651579,448335,2793014,258165603,771689,118641802,210,16430,385774086,2064,1.82,1.49,80020461,73718000,5977000,101857748,25
327429010,4292286,205874463,1242732,206065155,1206063,726151,3355382,559366688,802402,331365256,0,23800,986099977,2833,4.0,3.32,167613773,160231000,7010000,189579540,25
130618438,3796667,83431370,816841,76848166,865374,893904,3682882,285991851,895034,135553684,79,19438,456172108,2517,1.98,1.62,87781987,77426000,9926000,108730479,25
163632174,17013915,115946039,6105360,118263206,5957870,2049708,11058326,777357653,5307607,176602777,8250,54434,549045788,5363,5.22,4.27,231044796,215851000,14989000,251330235,25
121470473,4109122,82221429,863806,80731635,840981,710416,3531181,275511519,771730,130529914,38,15859,425337008,2686,1.96,1.61,83934247,75754000,7870000,104858835,25
121079750,3763128,82532822,789094,81336531,786309,700249,3385222,270831195,780604,130225219,270,18687,426422935,2732,1.88,1.54,84506928,79149000,5009000,105239453,25
326452006,4850999,206154407,1616352,208000105,1587295,810023,3878644,609285798,824929,338635354,229664,24245,1003153758,2719,4.36,3.63,181471575,174146000,7005000,201997257,25
114350370,4236909,84282790,804794,86943845,770489,662756,3126270,281812094,823213,120561173,66,15290,400125629,3116,1.97,1.63,82067518,74694000,7065000,103564321,25
117476164,6722341,90382590,968815,96279148,931373,1483768,4878567,375179730,1209951,132121820,51,56847,425800623,9099,2.66,2.18,114027571,90665000,22915000,134939794,25
324529373,4317737,206943748,1240213,206318081,1213509,763482,3679812,563082364,783171,330378245,63,21625,983395155,3113,4.1,3.4,168660125,159349000,9019000,190191236,25
332608245,4162627,207063326,1329626,205041207,1301304,821367,3894453,563560702,809708,336422395,49,21140,1008960530,2831,4.03,3.35,168886064,160488000,8024000,190113840,25
114239543,4165376,80804596,837586,84518606,811502,559526,3043625,266666497,761241,125641741,4491,15548,403261714,2217,1.91,1.57,81797023,77558000,4029000,102908559,25
327307074,3935395,207590128,1259968,208349767,1182833,559835,3188735,551341522,910690,322805868,289,20279,977534392,2234,4.0,3.32,165187658,158878000,5995000,186622245,25
349452397,4719667,225625694,1128670,222157692,1222807,1589703,5767440,653142053,1155369,342745407,138,81662,1084694828,13661,4.72,3.91,195595872,172192000,23025000,217602908,25
339317193,2890037,213509396,1094339,207505144,1161305,602441,3932099,535394940,938721,320682568,624,18078,1006664672,1874,3.92,3.27,159901996,158519000,1003000,180619306,25
114116797,4132036,79933132,798317,84242485,777538,648327,3134473,274239786,765472,126954701,56,15968,402308070,2530,1.96,1.61,82730241,75132000,7012000,102611891,25
331669923,4253509,212222196,1214887,215354605,1216495,749730,3900214,596981153,961543,322045210,140,24594,994459987,3131,4.35,3.62,177546312,171096000,6003000,198356162,25
339711814,3878942,210459389,1230865,205733974,1249930,1047521,4235598,593571715,1080770,331374856,123,22793,1028518451,3029,4.35,3.64,174603042,167332000,7013000,197091771,25
119740989,4280936,82539301,880706,82966572,846839,717934,3176545,286751303,782895,128388448,2389,15999,422326134,3200,2.05,1.7,83497268,73198000,10027000,104308848,25
153828627,18281385,115036710,5714294,119975072,5706554,2798206,12832804,884456928,4603420,163888736,34152,56521,524990359,4852,5.87,4.78,263580418,248097000,15005000,284493061,25
126852480,4398039,83378297,950445,82090320,969700,1141935,3891897,332522563,941254,140142954,110071,37150,454632018,4665,2.33,1.9,101503679,91158000,9908000,122163092,25
329268934,4081890,208857942,1283889,208716344,1201733,615028,3216553,550785717,899200,321883486,55,18668,978871683,2431,3.99,3.31,165085870,161581000,3010000,187293028,25
118458358,5317659,84545113,792444,87011245,747374,1070850,3937225,322349458,1038364,128219037,106,31298,415789053,4597,2.24,1.83,98803881,86353000,12049000,120460438,25
134886324,3580123,85943313,828048,78773562,877846,934026,3756561,283301303,924907,131227555,166,40575,460118944,2519,2.04,1.67,87223950,79841000,6986000,108370843,25
354269265,6610371,226491676,1502866,230744494,1421613,1079448,5910783,695888085,1502276,351882436,8206,30415,1095527095,4543,4.95,4.11,205768455,195351000,10018000,226511956,25
119766787,3449583,88801402,647065,90130910,608712,447247,2886978,250675086,839123,108775894,19683,12651,394387801,1877,1.77,1.45,76846919,69481000,6948000,97841479,25
124495682,3972010,104948860,845438,100028294,832726,1021768,3656302,336567381,880151,128342622,58,18706,547337361,2997,2.36,1.94,102340860,91001000,11000000,123289320,25
122772226,5168027,81362298,953248,81677781,907728,1199417,4058241,329875310,1006696,138152876,64024,44092,436336871,4412,2.31,1.89,100445537,89998000,9999000,121437463,25
205826659,15319352,169572503,12902585,167357634,13016080,1335062,10747284,940925269,6193725,203923607,36584,114646,751822235,4844,6.51,5.35,279424453,270997000,7999000,300860128,25
157513249,17593297,106669001,2456077,102408381,2502147,950498,13851674,432982235,2361874,155675768,4253,21208,534818228,2430,3.11,2.57,129083783,122569000,5979000,150106377,25
306729219,2790885,194501847,993235,193564132,997694,403346,2820285,487194769,729602,302797419,151,22564,919123205,2067,3.47,2.87,150527433,142772000,6988000,197791036,26
310239328,2649709,191704886,977089,190053739,971276,420794,2877951,478641140,624946,312325375,10374,14162,931823245,1865,3.42,2.84,143334945,139881000,2997000,163718209,26
308286595,2754795,191814584,1017649,190414878,1012403,430429,2784449,480174385,609948,312921059,34243,14740,922402694,1844,3.39,2.83,141040199,139632000,1004000,159891125,26
306962594,2703160,190187105,1064483,189858070,1063861,497735,2792535,487070982,617766,314310136,62045,55752,920474848,1899,3.42,2.85,142150870,138930000,2998000,163254084,26
104101727,2512172,73803692,552342,72846307,536352,385400,2316514,207244255,668296,98662274,19917,13372,348730118,1949,1.43,1.17,64680908,60360000,4024000,85369791,26
104260747,2534443,73844473,544043,72456060,529086,371155,2375245,211168340,679465,100190868,272,14254,351342435,1854,1.48,1.21,64700933,59448000,5037000,85178672,26
106248257,2959131,73136207,543945,70331957,534069,663312,2606628,241652513,807972,108045423,100,16871,368908064,2902,1.66,1.35,74571315,69281000,5020000,96046010,26
106566428,2387440,72486545,515371,70075043,494130,405778,2347741,206282996,665832,101936679,214,13120,360273167,1894,1.49,1.24,61301129,50936000,9987000,84426161,26
310214390,2764509,191169210,1021210,190102445,1012244,520365,2967130,503829180,655128,318478159,41207,22824,936819123,2044,3.58,3.0,143074509,132796000,9984000,163752346,26
319909260,4497946,199169623,1388287,200706656,1390758,762631,3883843,558100117,829270,322349395,1535,23834,966170678,2832,3.89,3.22,166998071,152798000,13981000,188443744,26
307478012,2938422,194212276,1000894,194563662,1008449,583653,2912141,515044045,850856,302993976,242,18614,912971320,2449,3.69,3.08,150583339,143293000,7014000,170966914,26
104178349,2894111,71710972,659646,70283756,648949,585821,2505403,235431068,722646,107651611,2091,100476,357962975,2471,1.63,1.33,73088413,62779000,9964000,94308421,26
131756109,5577820,97227593,1170517,95536627,1164511,2392501,4813659,548343189,1876187,128417822,31438,49952,464114042,6220,3.62,2.93,164891471,145587000,18946000,186329275,26
316014876,4017009,195850599,1249362,193579564,1174883,910718,3734295,548873330,934353,316270370,206,20241,953846281,3146,3.89,3.23,159745917,151349000,7965000,180759392,26
104426477,2985277,71689003,554979,69898829,546895,549829,2516138,227575747,699217,106134146,253,16927,357503391,2304,1.58,1.29,71489887,64103000,7011000,92932375,26
104063254,2494905,73432889,566450,72012406,542232,384533,2359978,207431218,665094,99462594,9465,14071,350476497,1900,1.41,1.15,64256614,54952000,8992000,86174634,26
313475218,2493587,192512603,973796,190809505,970305,510527,2926870,495077048,699572,309100356,207,16204,929191375,2039,3.54,2.95,145393315,139173000,5964000,166431108,26
94614689,2637091,87046688,551340,84656724,546529,442138,2488805,232444908,598619,94610099,56,17458,415194418,2040,1.62,1.33,72497009,66157000,6014000,92306462,26
109259582,2934881,76318628,567298,73456651,552673,754247,2701979,246164352,830976,103869521,234,24053,367387755,3620,1.71,1.4,75984305,64822000,10970000,96755938,26
101237465,2892833,71635170,568687,72054361,575210,529177,2482195,237921943,785078,103866957,48,25878,350935323,2470,1.65,1.37,69134951,61627000,6957000,90595015,26
311686650,2509042,195894200,997710,192674116,980081,497966,2926783,486026920,711899,302111499,247,16527,921536384,1852,3.44,2.85,147648732,141223000,5967000,166838081,26
312275215,2672911,197762053,1006623,195506945,985444,566383,2903608,493696492,748252,298973922,284,22225,916174855,2725,3.51,2.91,149251064,142012000,7000000,169796205,26
310985337,2667093,194540553,995176,193738930,973379,544627,2963802,499591413,768410,308503802,820,23034,926939467,2819,3.57,2.98,147739978,143386000,4010000,169227233,26
105946256,2393806,74434647,538279,71866277,509965,418714,2350325,207998866,657613,99849644,80,12603,357200088,1947,1.47,1.21,62866473,61510000,1008000,84688686,26
110817191,3229204,79221021,565556,77373668,565041,914000,3065925,263485297,962945,103920575,89,21744,376448448,4596,1.8,1.47,80869870,70664000,9814000,101983382,26
104843375,2698493,73326244,696693,72911873,716969,386970,2474763,227574592,670997,105288455,109312,30231,358411693,1957,1.59,1.31,67430157,59092000,8012000,88431041,26
312795033,2423086,194848634,1053737,191852969,1037802,488573,2892651,484518625,701668,304651373,36066,48717,925663443,1872,3.44,2.86,146098315,140743000,4990000,167133268,26
320064568,4228480,196540526,1242283,193864441,1198173,945232,3971349,542071528,934068,312725178,208,21181,954853997,3289,3.83,3.18,161267533,155071000,6002000,180994096,26
101813494,2912172,70747542,583993,70460699,587543,550405,2522505,235792411,712153,107245413,307,22114,355220756,2627,1.63,1.33,71991882,62766000,8966000,93515298,26
101096233,2289718,68123660,511095,67724808,498659,357109,2130200,198169950,529467,102390642,16,10086,346170740,2060,1.39,1.16,57943386,54601000,2978000,78871557,26
102521385,2936924,70929288,552125,70865252,548037,561184,2557510,234891399,709742,107376465,13952,16464,355720609,2459,1.64,1.34,72223861,63932000,7991000,93420787,26
105656383,2878939,72544638,551305,70409238,549679,613402,2573903,240123308,712164,107294964,363,16124,364532254,2658,1.67,1.37,72971978,64546000,8068000,93866696,26
15508186,561006,11377922,150265,10490305,127893,116195,436212,41175323,84786,17689416,24,5072,76199075,1127,0.29,0.24,11757736,7051000,4406000,32729821,26
105830825,2878553,72666297,574828,70306009,566086,586539,2546174,233736754,710787,106904950,63,18155,363171006,2644,1.62,1.33,72462237,64198000,8024000,93002169,26
122726078,4139019,86796823,775862,85410910,752994,931957,3838041,370540723,1145229,117177933,19449,248365,412406913,3033,2.51,2.05,112135425,105815000,5989000,132832421,26
108912772,3634678,75343147,575729,74467237,595391,689145,3178223,257060242,986711,107087903,948,19647,369999544,2458,1.81,1.48,78805988,74365000,4019000,100058847,26
104694517,2830784,72730120,848170,71012015,842376,589762,2517240,260934392,667794,105862828,39,1131437,358742520,2548,1.75,1.39,86799384,76506000,9935000,109480904,26
104486184,2916645,71644265,545049,69919571,540418,559379,2525506,229666210,688396,106840090,18,18204,360144728,2462,1.61,1.32,72283751,66853000,5064000,93340394,26
314323914,2464574,198004843,993757,194471957,972001,452106,2971344,486901955,746813,301800624,390,20835,923727147,2595,3.54,2.94,146950510,140623000,5983000,168344461,26
102794954,2516398,72624276,541798,71597289,529086,358134,2299890,207173098,665551,100771508,87,12888,352232482,1855,1.48,1.21,65032507,57561000,7068000,86491274,26
104471868,2408670,71343519,541231,70554869,515588,441877,2354614,211979839,664862,104159528,35339,12596,358693761,2039,1.48,1.23,62361933,55999000,5999000,83713300,26
101788807,2538409,71991823,707305,71750135,709220,352688,2280716,212470728,663191,101758157,152706,11905,349960650,1851,1.49,1.22,66196882,60740000,4978000,87877247,26
313985430,2391369,195394675,971669,191359525,954854,480555,2891509,481778458,736452,302784329,86,17160,925806656,2034,3.53,2.93,145971733,138608000,6930000,166728852,26
311326634,2494213,195238142,1197799,192151070,1172993,470525,2921199,489704352,690817,302861243,239505,17826,923124893,1932,3.57,2.97,147138732,138804000,7988000,166899486,26
103248868,3292740,72625245,696838,72838734,630621,398879,2437614,219525244,725609,102982613,31389,17490,354556540,1949,1.55,1.27,67916368,65549000,2016000,88427843,26
313156971,2449205,193745840,967811,190557852,956495,482138,2908247,485066128,713434,306640719,192,15617,932255925,1939,3.53,2.93,145724815,140253000,4973000,166670355,26
78975923,941790,51967325,126338,52533546,116847,99216,711757,119706983,58932,80821845,227,14695,260171918,1611,0.83,0.67,38174546,35750000,1986000,60475553,26
102798045,2535882,72767948,535883,72078775,523010,375383,2295971,210734745,663968,100261711,102,15411,349294162,1896,1.48,1.22,65206974,54715000,10132000,86734678,26
103258760,2523321,73326561,546395,72033757,522040,394944,2359875,209933496,677605,100228281,142,13129,352092737,2058,1.49,1.22,64710037,62286000,2009000,86660184,26
326900563,4269315,207390859,1127738,207319668,1106085,989136,4320334,635908617,1181789,318266463,12410,26434,983992867,3114,4.57,3.78,191035359,182623000,8027000,212655221,26
11699194,547305,6473246,114119,5442515,70584,103518,449355,31073865,83678,11994777,48,4564,50814588,1132,0.23,0.19,8959753,7569000,1081000,30216222,26
105971070,2859371,72228091,553635,69544426,544564,585157,2578640,236078210,731751,106814024,1007,20601,365794806,2458,1.69,1.38,73086476,66623000,6056000,94337514,26
101847647,2584276,72227738,528466,71437886,531238,354910,2256388,214601825,675129,101096794,117,14226,350170993,1895,1.53,1.25,66687424,57340000,9053000,88241162,26
104385253,3238138,73379667,583102,72727430,527656,558922,2908514,233251597,825282,104784776,137,13750,356234210,2467,1.64,1.35,71409565,63261000,7907000,92269236,26
105772626,2404527,72666539,525810,70656564,497721,420852,2360825,209757110,677898,101957607,75,12683,358645374,1950,1.53,1.27,61938608,58566000,3029000,83374077,26
113328289,3226760,83771180,285615,84407566,279051,1050868,2695025,295244482,797850,117037121,232,24221,410318641,4043,2.04,1.66,89268157,71873000,16970000,109626384,26
104182200,2927377,71802230,545000,70014742,535396,544426,2534024,232330795,687682,107261230,45,14856,359856731,2270,1.63,1.33,72584210,62259000,9882000,94131932,26
312318342,3037475,193162474,1216443,190103327,1214670,731421,3073732,528087332,785731,313897069,100542,29823,935621405,3392,3.84,3.19,157771503,146370000,11027000,178770032,26
119629935,4174024,80022215,832814,80116711,717003,934875,3431468,304682779,1073419,115462494,362,81106,413995986,3891,2.19,1.81,89365873,80056000,9006000,110965785,26
331561317,5243705,208988721,1112526,204542258,1082167,583490,2971162,561731444,644631,327991530,36178,22087,995883344,3007,4.02,3.34,169091112,162773000,5991000,190034401,26
104610360,2502004,73209275,543501,72000875,533845,379744,2305021,207082657,663739,100023613,84,12961,351648620,1855,1.5,1.23,64429822,56086000,8012000,85313229,26
318803885,3812047,196021295,1138871,192906444,1182004,921770,3838703,561567212,1020820,323016747,52393,29568,960753869,3203,4.01,3.32,169545907,159267000,10016000,190477972,26
100203655,2887917,71015756,549886,72281722,554773,528850,2496466,238812785,750300,105657653,35,18297,348265113,2660,1.71,1.42,69793859,64508000,4962000,91539774,26
105728757,3606417,74903754,883519,74872650,849254,701086,3380541,253844159,919583,104240073,95,16111,359652558,2538,1.77,1.45,78089848,72644000,5044000,98656632,26
103395624,2502497,72880232,540526,72317115,527148,395249,2340030,209235308,669480,99814864,114,12279,349920948,1944,1.49,1.22,65013320,56726000,7961000,85939560,26
102793899,2902128,71004455,536799,70115275,536635,568245,2532292,236232794,724182,107817401,95,23099,358658595,2795,1.66,1.36,72650563,65334000,6929000,93208451,26
325766487,4304699,206690756,1131036,207069377,1121654,995322,4387786,638814126,1169051,318835385,68544,28897,981673569,3025,4.51,3.74,190846946,186470000,4010000,211523968,26
109149734,3291922,76334004,777896,73470647,789000,653234,3223627,251635652,898969,105094562,914,17147,370497555,2457,1.77,1.44,77981354,67449000,10067000,98862818,26
309955266,3033168,196183941,1223225,195082342,1219228,598109,3119350,549430051,827517,301540620,35540,76879,916269573,2654,3.94,3.28,164696777,158330000,6012000,185900102,26
312095817,2577311,196113450,994635,193703627,973394,462495,2959322,488730679,717772,300712895,77,15873,920142550,1946,3.56,2.96,147875867,140521000,7026000,168896147,26
104067517,2558254,73180578,539473,72023719,536680,385996,2293466,208431825,675470,100245822,261,14195,352462262,1916,1.49,1.22,65324175,61014000,4000000,85870791,26
104684250,2902708,71966737,546143,70077709,539378,595242,2561480,235359848,702847,107840514,49,13143,362156580,2645,1.65,1.35,72696767,63396000,8915000,93935845,26
311805180,2449634,195642296,1093018,192539119,1073119,504008,2920588,489327137,713793,303165915,82210,16538,924173193,1849,3.53,2.93,147070830,139659000,6982000,167792385,26
311114312,2909600,195134614,1149043,195258775,1151824,477210,2837196,511426106,726144,309034672,1259,24319,931244089,1890,3.73,3.12,151001629,146552000,3987000,171885196,26
114864721,3651873,79629834,757158,77907600,693877,835088,3108317,298774423,1077918,105870083,78,18537,381078359,3266,2.09,1.71,91571193,83184000,8017000,111291072,26
101963877,2504056,72371570,614089,72346739,597162,381538,2299815,210434464,662342,100725978,28179,51598,347201378,1805,1.48,1.21,65116123,62784000,1993000,84961098,26
107026245,2910014,72534375,668986,70029373,653682,615093,2579658,238670134,705693,107624926,1128,175093,366413615,2853,1.69,1.39,73914736,66510000,7054000,94065504,26
104478839,2906365,71176576,549498,70084752,548534,579106,2558288,234762475,707106,107877173,136,29581,360511734,2650,1.65,1.35,72600348,65100000,7010000,93074487,26
315900413,2458230,193901583,1008807,190814170,999717,483393,2904146,478513480,694492,305812613,30301,15459,930150828,2049,3.47,2.89,144962844,137542000,7027000,165911009,26
314774545,2561600,197792206,1025607,193802439,998616,562414,2974069,490512560,772120,299558850,28775,20053,925762786,2434,3.55,2.94,147794029,140432000,7021000,168936466,26
104203468,2669178,74378061,530603,73595561,541301,435565,2357733,215484109,678441,100247540,54,15156,348009721,2451,1.54,1.26,67700624,62305000,5024000,88677475,26
102220894,2840967,71002368,681409,70835608,688808,490639,2410085,231688477,743750,104280147,65042,49990,348233247,2268,1.68,1.4,68685453,65379000,3017000,89741762,26
107926706,2939383,73997686,553893,71386217,544446,668356,2648941,238991064,801304,106466474,136,23862,366804754,2911,1.71,1.4,74090881,68755000,4982000,95641783,26
313683903,2412053,194757572,986669,191709377,969608,484384,2919771,484640236,768013,303787243,182,17150,925029875,1852,3.49,2.9,145804999,140551000,5019000,167083665,26
304585815,3105789,190781624,1044400,191925745,1053337,557986,2880086,510567185,739968,309597178,33355,20776,913917728,2482,3.64,3.02,154427109,149067000,5002000,175362800,26
360767619,11070177,245427047,6450045,244624445,6426664,2984793,8965447,1133829336,3796621,355653663,3640,70565,1107836956,6969,7.72,6.34,335605531,319123000,16006000,356373586,26
92424775,2620728,85373073,524737,86408683,530429,350408,2247797,233209370,660606,94070335,152,14261,402817289,1934,1.63,1.36,67671154,62413000,4953000,88430712,26
102309979,2532940,72685128,546436,72714598,523487,387048,2320833,211764415,676362,100329906,430,16407,345719635,2060,1.49,1.22,65695461,55358000,9885000,85954049,26
45356516,686279,29852462,212719,27923767,203504,272725,801266,83682465,151146,41500730,5,15926,143875459,2947,0.6,0.48,28065133,20854000,6951000,49357179,26
111010685,5338685,76273710,1085027,75196124,1033686,1221331,4197574,333851787,1203198,117510213,385,25169,386466278,4041,2.3,1.88,99200146,89932000,8993000,120062293,26
116374712,3799417,79389210,891071,77546704,903225,696173,3301407,269077556,847795,115895207,46,17556,401626000,2802,1.9,1.56,82571163,78258000,4013000,103745828,26
309712253,2634893,191138769,954634,189546027,954174,492257,2907775,489005340,645088,312601928,153,15873,930682374,1856,3.61,3.0,143483425,138059000,5002000,165005309,26
313181129,2427537,195920953,981723,191620336,958976,474130,2904028,484035723,719257,302333445,65,15915,926273767,2071,3.58,2.98,146738603,142224000,4006000,167429919,26
104323799,2900598,71395105,541330,69947027,535221,579181,2553459,234837679,701722,107749386,178,17479,362159503,2466,1.64,1.34,72573507,66100000,6009000,94062787,26
327853854,4237088,207509265,1139970,205825312,1114101,1022692,4439764,634411574,1149010,322063498,20032,36019,983327025,2934,4.5,3.72,190240700,174900000,14991000,211973053,26
105005161,2923651,72628402,543794,70255721,538347,597084,2547892,234545809,711768,106512254,45,16083,361999843,2656,1.67,1.37,72548450,69252000,3010000,94004564,26
308258160,2901457,194591687,1019440,194482693,995543,557784,2944217,509103744,862521,301847286,267,19208,914737104,2261,3.67,3.06,149962850,142612000,6932000,170889899,26
289129941,2970799,180896539,986435,177842827,980520,656262,2959382,474971285,729638,291291342,29,18361,878565276,2647,3.44,2.85,143139605,138853000,3995000,164497513,26
101402633,3777043,73987545,792562,74891038,764158,520651,2879954,236036161,781073,101672493,43489,15170,341076427,2054,1.66,1.36,73143774,65703000,6968000,93801605,26
112810373,3862921,84630340,565814,83621405,567874,970494,3086593,289195199,870486,115255014,89,56108,406201996,8089,2.05,1.68,88734257,77444000,11063000,109346160,26
173047667,2496048,125139237,1323695,127426199,1202652,564452,2160591,352421810,610897,174105259,90415,17975,580443889,2240,2.38,1.94,109823857,105234000,4047000,156293061,27
527547378,2240371,326850614,1777985,326257668,1775409,535216,2735829,801026254,377936,529212837,262441,29146,1578821220,1821,5.56,4.61,239601981,230323000,8973000,260673120,27
172298181,2030666,115930908,1082417,112783728,1063872,614921,2251458,319987896,529706,163743300,83,96785,587868052,2242,2.16,1.75,103618468,96278000,7020000,125990217,27
189163375,2020628,131112789,1159248,124722435,1252589,592219,2284491,347929202,688314,173775923,161,18500,629669702,2240,2.41,1.99,104578122,99163000,5008000,126005499,27
42942663,2119490,35390422,804640,34304812,791033,414374,1693735,179166533,335470,38373684,17,16604,205694764,1869,1.24,1.01,56963228,53607000,3034000,78674678,27
163618966,2461113,111459412,951539,111978312,947744,606915,2019444,324842718,408242,172431782,7,15622,569875275,2438,2.24,1.84,99076555,90810000,7983000,119769586,27
165975418,2347489,112337983,1323849,111598518,1317695,610440,2089016,326653310,403495,172442614,277,17539,577210110,2287,2.26,1.86,99658180,94337000,5017000,120835789,27
163185434,2247141,114497772,1006431,116657939,1017011,553629,2023420,325625355,592442,163383188,132,16840,558281263,2244,2.25,1.87,94734000,85441000,9046000,115144455,27
164306691,2290613,114521202,945345,114981785,944005,512299,1975112,325517521,556783,161436304,217,21983,563816727,2436,2.24,1.86,94990403,84754000,9971000,116277340,27
175009847,2130125,116922519,1206741,113231262,1191004,624517,2315109,334948136,528120,166584822,130398,17338,603717052,2243,2.34,1.92,102820561,94579000,8049000,123850481,27
165666990,2413548,113359327,946647,112135545,943705,619314,2024504,325361926,386146,170270294,162,14904,570267265,2337,2.25,1.86,98906144,92602000,6039000,119986221,27
164182472,2358896,114342914,947072,112591713,943771,585527,1984515,323138929,399598,168548850,247,15562,568807920,2239,2.22,1.83,98705051,94362000,4015000,119938511,27
164858086,2455466,113435887,955970,111302459,954586,617001,2033099,322105901,388652,169692516,209,14992,570332306,2437,2.22,1.82,98964594,93630000,4980000,120081999,27
167364768,1773840,116121879,873550,113801249,982589,451537,2053113,299431697,449241,161612146,199,15309,573931040,1826,2.08,1.71,90852954,87532000,2984000,111818806,27
189539682,2039619,126815828,994203,123736307,1002544,598223,2214245,347656994,596331,182074104,58,17078,618459987,2265,2.41,1.98,106008506,97655000,7891000,126790304,27
532561508,2299837,328900272,1656033,326317469,1634107,721857,3030475,816753215,541440,526972025,471,24790,1599957340,2238,5.75,4.8,243903583,238594000,5012000,264112641,27
600306754,10432829,387005359,3303732,383319512,3260672,1803523,4686004,1157645855,1848059,599696996,23811,404351,1833023248,5096,8.0,6.63,339096097,330716000,8017000,360587987,27
167953628,2449668,111595677,778773,109972704,780559,680894,2150709,330076947,389390,175281245,50,15232,584980422,2437,2.27,1.86,101149996,90706000,9967000,121898555,27
166263165,2279315,112986906,1144160,112008087,1131402,646693,2129026,327978628,419609,173611137,222,14713,579361912,2241,2.29,1.88,99742670,90306000,9030000,121685064,27
535974354,2336550,329010039,1685870,324698154,1685679,743397,3006691,826667877,523663,530464098,536,24057,1614427655,2238,5.88,4.9,241944727,233491000,8016000,263646239,27
164398769,2397390,116180041,976320,116539999,970358,593702,2047905,331011887,547881,163434072,32,15808,564398250,2826,2.32,1.93,96995299,89543000,7042000,117918205,27
190057902,2058873,128593651,1247645,122221259,1345550,635144,2217294,346939108,639302,174078420,213,16909,627952112,2338,2.41,1.99,103817610,97510000,6031000,126021893,27
167026453,2441986,113325426,1133735,112227562,1134292,632331,2164970,331964025,376688,172172358,15,50995,579877171,2264,2.29,1.89,100596710,94139000,6008000,121117261,27
533374159,2281427,330764816,1705697,327232645,1626829,814205,3067509,822242185,616356,524384433,384,26015,1598917007,2821,5.79,4.81,245140236,234791000,9991000,265594888,27
171184036,2359922,114411604,1030916,111671649,1039184,652371,2208236,332564824,396648,174598545,53,24006,596996080,2243,2.29,1.89,100308396,89997000,9999000,121316900,27
189504342,1855078,129605277,1222196,126289470,1324659,516213,2079150,338212561,536516,182818564,3989,15110,636440771,2025,2.36,1.94,103170749,97857000,4992000,124032659,27
183331234,2783713,124815030,1443523,120731008,1638010,664838,2846027,356006612,748327,167788143,955,17626,634942765,2288,2.45,2.02,107087984,94756000,11969000,128160624,27
167273905,2341408,112525781,972257,111121887,977660,642355,2136307,329770301,407675,174058529,189,14319,583472625,2244,2.28,1.88,101252003,92915000,7992000,123440855,27
164285459,2260084,114117404,992225,114484996,976132,525810,2031576,320832657,587819,161931248,194,24752,557687072,2289,2.26,1.88,94362141,87936000,5995000,115627173,27
534528520,3505362,334806541,1766298,333142524,1744056,990494,3310009,864525136,540946,540061446,693,31935,1618833427,3441,6.07,5.04,256140488,245753000,9989000,277836840,27
163313130,2408860,112089130,986576,111962623,983528,616917,2039218,329468638,396249,169428507,57,15877,564241156,2241,2.28,1.87,99079396,92510000,6033000,120160209,27
579693419,3682283,364764495,2087312,362393375,2034284,1697350,4180401,1016271923,980017,574475852,230,39529,1783717221,4909,7.13,5.91,301572653,292193000,9005000,323195175,27
161487956,2556162,110867497,975506,112671595,964083,557484,1914699,330687976,527860,169526862,192,16788,554713447,2630,2.32,1.93,96983774,88291000,7936000,117427083,27
530729800,2591229,327111714,1700142,325382488,1701928,728843,2909563,807912715,407383,532663016,296,28329,1589234510,2260,5.77,4.8,240222226,232807000,6994000,261073375,27
213050654,9365921,161359043,2219889,159653007,2201466,872717,2652411,522702787,853210,220385569,2671,35899,731267580,3995,3.55,2.92,156331405,147011000,9000000,176278742,27
199594496,3686337,144640967,994620,141260731,1004590,1793325,4627516,471976476,770704,176697889,167,105558,696988210,17089,3.31,2.72,142051043,109720000,31918000,162243023,27
165890822,2492753,112890269,948521,111246521,947678,604242,2018076,323662358,410160,171567963,31,19183,573523003,2630,2.26,1.86,99097970,90851000,7986000,119797595,27
168422331,2280786,113180623,958263,111455458,943649,627451,2199624,330048209,421651,172594132,106,16463,589021132,2241,2.33,1.92,100618710,92268000,8023000,122015119,27
165315690,2454219,112633220,981327,111904846,978677,592514,2080878,323622306,381243,172500303,6,14227,575713040,2239,2.27,1.87,99074888,91719000,6978000,120395220,27
180435605,2043392,124033103,1555343,119782661,1578004,534962,2112610,328015536,524112,179804573,2308,94635,628864191,2024,2.32,1.9,101134419,93763000,7057000,120700931,27
214840926,3692494,148429436,1556522,147946826,1543639,1435964,3174274,532433692,865372,224447302,33,48260,761348532,4210,3.69,3.05,156706782,145405000,10955000,178184085,27
158620010,2364102,108620773,905079,108490641,903474,564856,1935344,333139393,415075,174605009,32,28483,567442684,2241,2.36,1.96,98392362,91106000,7008000,119899364,27
168734161,1761667,115826814,894656,112747323,1014295,437163,2046596,300794974,472140,166494780,59,14800,577665087,1830,2.1,1.73,90417411,86112000,4005000,111386970,27
163887558,2380310,112354762,950115,112041181,949649,566565,1934277,322338660,418567,168464200,15,14356,561594390,2244,2.27,1.87,98231050,92747000,5040000,118985025,27
530666569,2342571,328060881,1638160,324691145,1624943,729270,2927923,812762662,507883,526978764,217,24974,1594151984,2238,5.81,4.84,243022810,240663000,2005000,263967457,27
167247202,2366490,113781405,950616,111669309,954207,701029,2154403,330538507,419136,171984441,62,16483,581098928,2830,2.29,1.88,100670896,94302000,6019000,121697197,27
163719346,2383704,113882052,1011542,114692908,1012842,511653,1915504,324868459,515598,165034400,189,18357,559258590,2287,2.3,1.91,95472863,85156000,10018000,117162993,27
531235811,2263738,327883792,1647569,325629096,1618941,732789,2999348,815579759,561403,526549975,197,25424,1596229030,2239,5.8,4.82,243800353,233459000,9976000,264303326,27
164927816,2337480,111643123,727562,109925868,728282,606713,2032579,323987051,402890,170209186,9,14392,567894972,2241,2.28,1.88,99560768,91207000,8018000,121059900,27
534084541,2166998,331726771,1702945,327898782,1709811,745540,2918488,815075791,592539,524596433,232,24758,1603612729,2235,5.87,4.89,244694655,238424000,6010000,265453208,27
165752456,2096530,114915111,996401,114564364,970002,406992,1924290,306418048,463605,161300947,66,14486,564326251,1827,2.15,1.77,93431123,83125000,10015000,114491309,27
170103803,2322429,115042989,977438,112529227,928825,745763,2250490,334216187,487293,170623199,249,17675,590502616,2873,2.38,1.96,101683782,94382000,7028000,122366282,27
163701656,2402618,113259258,927475,113349020,925858,507255,1835262,315530386,478604,164041120,44,16970,554241892,2246,2.21,1.82,96594670,86190000,10022000,118090345,27
162540246,2443879,111909915,1002746,113221749,994586,534622,1953865,330769316,496835,168001346,3,17030,556240020,2339,2.33,1.94,96643650,88362000,7942000,117228096,27
138269258,2134620,136211677,1008357,137443404,881494,452016,2012980,323086623,367859,141479332,39,15650,653953100,1875,2.27,1.87,98875790,94564000,4024000,119671235,27
175531275,2608572,116348072,847006,111893161,871652,641043,2860092,335371191,626346,173671668,358,20272,601607580,2498,2.39,1.97,102800304,97513000,4975000,124417333,27
168668331,1867911,116773786,918635,115047975,910305,418948,2007527,298548390,473737,158839034,89,14683,570995065,1832,2.12,1.75,91977429,85175000,6012000,112542301,27
533816804,2189800,332687566,1706134,328847426,1665938,793591,3067124,837825349,688180,520801137,364,30033,1592535937,2875,6.11,5.11,245235884,238957000,5998000,266467569,27
546546569,2258933,340238574,1851180,335700662,1951095,712693,2959393,820835496,683162,528457735,201,25231,1611357076,2237,5.92,4.93,245950243,241648000,4010000,266234201,27
171815858,2112678,114350974,1171133,111245745,1128531,682348,2266759,349121750,522437,168062882,152,16950,602582419,2340,2.46,2.05,102892654,93519000,9050000,123323570,27
526547121,2332692,329603550,1682755,329704234,1680216,717268,2918223,830557364,648619,519976038,153,26635,1571410373,2432,5.93,4.94,247209266,240770000,5994000,269297384,27
161910343,2399833,112766966,958233,111835288,949370,558603,1911148,322835610,423742,167940578,91,19703,560182921,2240,2.27,1.87,97834128,92465000,5025000,118426865,27
534908968,2344249,330919973,1663318,326833012,1666129,710074,2963961,804438293,484576,527309205,64,23140,1604958768,2234,5.81,4.84,241469183,234205000,7006000,262060749,27
168782139,2357492,113555593,1004780,111726541,999808,669931,2123675,333304606,410545,175621589,14,15441,592722174,2441,2.35,1.94,100692269,94390000,6024000,121159567,27
532478925,2318202,328406101,1666412,325289046,1609320,688035,3001105,812127628,533744,525993237,95,23984,1598170710,2282,5.84,4.87,242452082,234081000,8002000,263064298,27
187544616,2218693,124649953,1306857,119565135,1358393,700731,2266339,352375230,581426,185856608,81,18487,650008181,2435,2.49,2.07,103236020,95910000,6993000,123533044,27
168410464,1857113,115981974,956573,113970657,1053013,444404,2045436,300836864,463817,165012668,84,14369,577056460,1828,2.16,1.78,91807456,87404000,4018000,113018528,27
163579948,2248054,114244441,943221,116129263,949504,543442,2010054,321734749,588284,162207697,83,18158,556812344,2243,2.28,1.89,94529818,88242000,6016000,114537316,27
582553628,6456517,369924958,2577298,368970431,2624771,1824316,5386205,1087793128,1309214,582763758,393118,67988,1781704283,7398,7.68,6.37,323118284,306832000,15991000,343207908,27
164374033,2496650,112343949,957440,111240436,956875,596568,2029728,325312245,411605,171851923,45,19251,571913726,2630,2.3,1.89,99135124,94789000,3991000,121085766,27
528464148,2287104,330182028,1686452,329899832,1670567,686206,2979930,827541294,637582,520880544,65,25754,1575449907,2430,5.94,4.94,246945534,237590000,8984000,267446880,27
162915751,2369305,113324904,1013347,113904679,1007174,508419,1861633,324767221,507843,164194747,25,16513,557697864,2245,2.35,1.95,95634214,88261000,7020000,115715175,27
171020153,1858508,111807159,756364,107295118,833986,468847,2093052,301896554,444217,172245588,159,15090,591916381,1827,2.17,1.8,88224663,81055000,6919000,108908188,27
533381379,2258421,328709250,1645560,324496755,1633072,731096,2913245,814139479,536207,526462565,204,29714,1595611123,2236,5.95,4.96,242659032,234389000,8013000,263042491,27
167182467,1813514,116226631,900569,115328079,946616,442122,2027230,300570008,472858,162324902,139,15333,568700905,1826,2.12,1.75,91745573,87387000,4017000,113114858,27
529386620,2196221,328185629,1566319,326632876,1622247,468968,2564696,791950442,502219,522278370,161,23203,1574876713,1819,5.77,4.83,233032271,222720000,9987000,253568968,27
534594327,2303349,330212029,1619620,326752899,1602991,830689,3035409,822095084,555549,526018099,145,27266,1596470329,3016,5.92,4.94,243495345,236148000,6974000,265512251,27
523716796,2564440,324268601,1657112,324682808,1655428,685785,2721472,818244632,432005,531306234,7,21897,1571467943,2236,5.88,4.92,239242295,232847000,5970000,259942507,27
175126092,2288070,120352554,988566,116656721,966743,819444,2458931,350778251,680553,163391065,77,24666,596504220,3802,2.44,2.01,106417431,95073000,11008000,128154329,27
176481003,2403337,129460305,1235198,130125064,1217717,603526,2107554,358406041,615675,170190997,41667,23635,579330965,2828,2.5,2.05,109976022,106514000,3014000,130544146,27
162070711,2426855,112395890,946019,112468079,941326,564603,1969304,321908659,415169,168080279,5,15396,559395424,2240,2.26,1.86,98290219,93019000,5001000,119894575,27
164088517,2368482,113925898,942253,114902222,935116,551081,1943870,327111861,524682,163994865,42,16482,560788716,2243,2.31,1.92,95790965,92458000,3014000,117167625,27
538572451,2150569,340223291,2130370,340591894,2194690,505583,2640588,833308867,597545,528752734,2081,31544,1592946441,1823,6.03,5.04,247075776,242708000,4011000,267535504,27
531893133,2271226,329038206,1710866,326575217,1633558,722837,3008243,816276668,559973,525518068,86,25121,1594585181,2236,5.89,4.9,244079367,234656000,8986000,265634916,27
541975102,2181662,338310075,2081619,332320458,2231671,722514,2921904,825397468,640916,519930269,81,24641,1618144919,2235,5.95,4.96,245935478,236594000,9022000,267702805,27
173417149,2105106,115954432,1047155,112478283,1014018,659594,2244940,336103506,521364,167839713,85,16696,607704190,2244,2.38,1.96,102792273,95480000,7035000,124449585,27
176364884,2913884,127011008,894968,127881088,1062916,737931,2243436,361933757,588841,169946931,46,23902,601688122,4142,2.56,2.11,110546166,103215000,7014000,131133087,27
530069552,1898192,327649206,1726973,323912772,1746740,560609,2824369,787094930,488510,528020486,74,21218,1582827387,1822,5.7,4.77,230805160,224540000,5961000,251661162,27
166127294,1982516,115157174,924016,115488132,892660,418871,2007272,303778682,460814,160933191,43,13165,565669169,1829,2.14,1.76,92577700,86216000,5945000,111276441,27
170915742,1762958,113959990,1032559,111455935,1020936,477033,2089668,303081222,453319,168909889,100,14392,593011745,1835,2.15,1.79,89213704,82927000,5994000,109962553,27
229532220,5859579,165902228,3144386,168243637,3118731,1361558,5770720,603918873,879321,217273694,57257,107780,796149676,5224,3.3,2.84,108809046,99573000,9052000,130742839,27
529588553,1916263,323875717,1734321,323424332,1688545,549888,2702940,783398852,487832,530433198,90,20874,1588375744,1822,5.69,4.77,229693950,225362000,4006000,250610665,27
162077122,2408490,112325083,702970,111875816,699577,559529,1954634,317803404,417416,165503902,7,14475,553179503,2242,2.25,1.85,97971274,92575000,5031000,118538347,27
166607495,2423503,113296450,975593,112012404,972070,598530,2041292,326026409,358030,173583444,8,15717,580824198,2240,2.31,1.9,99341814,94089000,5004000,120270177,27
164657187,2401169,112915960,957123,110943869,956097,572683,1972642,318068828,380165,169379621,14,16335,566277169,2288,2.25,1.85,98377367,89981000,7998000,119918622,27
171039257,2207563,115274167,1388088,112382135,1384047,653195,2191867,334932686,489205,172108794,67,19022,598875215,2241,2.36,1.95,102401895,94075000,8006000,123510156,27
180940291,2099703,122378745,1043970,115602258,1096871,691052,2349125,341750667,597359,165954024,14589,20392,618309747,2437,2.45,2.02,103518004,94140000,9013000,124200936,27
525367812,2606374,325706083,1635762,326241637,1629680,691206,2847385,897045174,463310,529226471,34,27196,1573400179,2235,6.41,5.33,267033449,258474000,8014000,288054636,27
163582149,2406803,113285734,957470,113743978,955963,538760,1955220,329726976,537349,164351988,238,16842,561383257,2444,2.36,1.96,95943499,87643000,7967000,117598925,27
533415834,2277592,329815515,1669189,326055592,1655709,752868,2932664,818067784,541620,527402969,241,23378,1604067714,2260,5.98,4.99,242754304,235337000,7010000,265209137,27
452068798,15939560,291947831,844767,290560040,847561,170148,3456721,575009276,1217645,471141207,1740,134396,1284874519,623,4.06,3.39,169150984,142643000,25935000,213778526,28
428782046,16264108,169582364,511343,168843270,508670,146418,3724952,540102490,80901,428192084,144,9859,1490617675,640,4.05,3.42,158351176,155104000,3002000,179553610,28
349376469,6518093,346243868,848139,342121261,870143,145474,2498677,540496159,73453,346513539,80518,9125,1546390723,632,3.71,3.08,158772056,156438000,2005000,179443860,28
568414129,16171859,241550153,1254735,241620623,1249366,209838,4189497,1010595683,2159361,571328718,155,340362,1743197802,615,7.26,6.07,299292272,251001000,48000000,319691600,28
560353487,16748685,156554251,526750,156137018,523784,148005,3395571,545548714,71748,550309230,90,9945,1451755869,631,4.03,3.38,163977064,160712000,3013000,184538347,28
529634398,16163673,219684861,818138,219769055,822560,197215,4058118,821479017,1465712,536041772,97,292869,1615545336,627,5.9,4.95,241113178,212830000,27977000,263355620,28
437169977,16421058,161041498,523153,160480617,524234,218179,3609935,523113352,100239,429406907,7,9132,1463498332,1128,3.84,3.22,157160694,152941000,3998000,178348888,28
560579369,16736055,156741792,531957,156379569,525021,152568,3449237,544433121,75908,548769329,64,8825,1449451874,632,4.09,3.44,163311693,160975000,2012000,184171408,28
288245585,25731114,346151894,693615,342031917,687669,180523,7942208,754309616,77804,283211020,3,10351,1526525377,624,5.1,4.22,224142334,219989000,3981000,244887551,28
432805280,16226844,160687867,519354,159779795,513378,147918,3576225,517195128,75107,429724960,143,7805,1456526132,648,3.85,3.23,156705877,153381000,3007000,178400923,28
367407595,129437810,347342879,1263292,344200379,1263722,568783,6150788,2743816876,99723472,377622580,438,41682,1373430210,1117,18.62,15.4,806271181,802832000,2999000,827487387,28
431043868,15646264,278933626,601965,278480595,594322,181471,3398873,386962333,90551,437505868,264,6623,1088383107,1122,2.81,2.36,113116818,107758000,4988000,134469153,28
435404607,54475845,347132631,779801,343384924,775800,221976,8465526,1031581111,92852,431619512,48,14401,2042823127,631,7.3,6.08,307116048,303969000,2989000,328224016,28
313672847,8627744,286022027,933043,280407527,926164,144780,2092585,382075178,70237,313882872,42,9590,1105054690,1037,2.68,2.22,117100811,113793000,2994000,137212661,28
347623149,9686162,220936581,1043388,217140261,1030313,158175,3469039,559965529,1083724,341012425,273,515392,1002091335,624,3.96,3.29,167644355,141436000,25896000,188963084,28
540941833,16781073,222785451,848748,221313847,846049,227646,3621008,919592437,1091572,532215505,144,228837,1773159505,1565,6.7,5.61,273334603,252121000,21010000,293566389,28
427893560,16338637,169716211,521486,169260124,517338,149344,3646655,535183212,73682,428643306,67,9849,1362261283,637,3.95,3.31,160626995,158434000,2005000,180872480,28
432905711,16418989,161151707,525612,159326019,535138,169822,3676224,524240894,75054,432415922,123,7774,1329456593,650,3.84,3.23,156347205,153900000,2011000,177375419,28
434571068,16139381,161642130,556475,158989732,549138,218303,3627656,561917345,98948,433603571,148,8959,1468207795,1123,4.12,3.45,169186669,163769000,4992000,189327288,28
545324536,16782912,347607885,1077489,338883091,1079902,180858,3630335,678599947,1463191,538924439,337,177036,1392821051,624,4.87,4.07,201452696,175048000,26007000,222904710,28
434261258,16339567,159368571,512224,160170381,520514,149800,3569905,524670403,80333,430363891,45,8174,1459078303,628,3.93,3.3,158365861,154044000,4001000,179750402,28
343338193,9412115,281627190,1052132,278142102,1052415,172519,3391161,614299797,1103160,340780575,72,470785,1383386874,626,4.34,3.63,180281204,150017000,30003000,200244346,28
548048019,6490088,362864730,1104209,354846865,1092910,218691,2816421,716396777,1125399,549543691,765,372360,1686104407,1122,5.02,4.17,213313920,191829000,21091000,234600492,28
635781358,6250033,488683740,964785,491060137,956552,204405,2981322,949007280,1386331,640127047,247,318770,2521754270,616,6.58,5.46,283396735,255201000,28022000,304397347,28
285022277,6029418,342746851,596527,341704584,592728,144119,2436389,476647116,74592,282128104,39,7036,1344844143,621,3.32,2.76,139804772,136460000,3010000,159932660,28
536461321,17131085,224253681,816826,223595493,807455,374102,6792909,856092935,2026845,528450506,216,305967,1755475628,2121,6.3,5.28,255481884,232082000,23008000,276338784,28
559242343,204657017,160042610,1020980,157518812,1012109,391077,22987004,2314609883,139389,561673922,342,33236,1711863320,631,15.84,13.14,683537738,680283000,3001000,704178045,28
561406868,16506899,158095765,520265,159476689,525932,155727,3329648,544343266,67654,562410186,51,9273,1450106353,630,4.09,3.46,159445974,155319000,3982000,180282430,28
542067808,17029449,222430019,824121,220515085,819949,243360,4050302,808627776,1384466,536841059,268,79060,1641256546,1118,5.87,4.91,241280701,208903000,31985000,261912847,28
348297904,6802546,330260539,718733,325941164,718561,220391,2810420,595054440,397452,344782155,239,15671,1933598467,2114,4.07,3.37,175948727,172586000,2992000,197396557,28
437356102,17289522,288652745,603372,283241065,590976,142188,4392090,397898295,227273,420387634,194,7489,1206381834,809,2.94,2.45,121358378,118939000,1998000,141423709,28
429113088,15972107,169705086,508576,169077828,512640,149616,3575390,535767005,75578,427471371,209,9423,1488154941,623,4.09,3.45,158370021,156975000,999000,179736591,28
459755180,16399777,174270372,764472,173438874,772873,179612,3897337,714601049,1418850,459193985,2197,305761,1414639834,630,5.22,4.37,214597178,179199000,35038000,235099960,28
597853684,16792743,178332156,781979,177583637,783120,179976,3594906,729117373,1186062,587065480,1054,92452,1560154217,631,5.33,4.47,217139448,186838000,29974000,237299821,28
538818545,16361726,345469931,1109962,338129524,1112210,192461,3656261,713549442,1425901,538356067,245,266991,1650246950,633,5.15,4.29,213449814,189186000,24023000,233634967,28
651763125,16745596,215280789,814848,215194506,819574,193667,3760549,832532654,1632511,638317878,209,236823,1720424550,622,6.08,5.1,246858500,209623000,36933000,267811965,28
541208194,17142886,221728921,1029709,220903998,1029422,225644,4825769,832955774,1521351,531650192,109,111370,1773004306,831,6.23,5.24,246496419,217102000,29013000,267360545,28
585492619,16687235,178639760,803943,178863515,797528,423958,4161581,758847897,1245128,580957929,2349,333597,1541717916,3372,5.57,4.66,226725618,194384000,32063000,245945296,28
421550098,6651328,363478569,1073260,356246980,1077276,168750,2789310,689164152,1259144,416895485,2633,332269,1560185704,641,4.9,4.09,202688585,172364000,30063000,224214712,28
533226603,16540843,220936427,1066305,221154966,1059320,211359,3613313,915219042,1222009,531646011,489,481928,1754963636,622,6.6,5.52,271088184,244700000,26074000,292393333,28
539962766,16246981,345430641,885445,339560809,891391,227584,3796835,661748906,1414795,542105770,228,18465,1383918012,1107,4.77,3.98,197227767,169189000,27866000,217802312,28
935686085,16737992,165724156,935224,163035447,921886,347241,4615463,1900824484,160554,931025955,335,26367,2204009677,644,12.57,10.35,561274149,558703000,2002000,582860475,28
579509345,6432664,384401813,951380,379783596,951806,224721,2947486,872568521,1541583,581407121,330,198623,2235973735,622,6.25,5.22,255965114,216621000,38931000,277505063,28
346941288,9957639,222168398,867585,218922689,855261,177258,3550465,553667218,1066444,342406832,217,240138,997308101,623,3.99,3.32,167278607,136822000,29961000,188894996,28
437272642,16588065,285200522,591758,281910473,585850,125246,3151459,396325742,59917,428410660,43,7046,1211045489,623,2.93,2.45,120158261,118842000,998000,140710388,28
376310489,6569305,359463575,868514,354535912,863585,168325,2570416,675329511,1175370,378781389,1346,299624,1514613778,634,4.74,3.93,201723851,170347000,31063000,222328951,28
451466242,15945443,173869323,788933,174476380,781479,186084,3935871,714873253,1426546,460198461,1937,312667,1400878644,629,5.24,4.4,211432653,181003000,30000000,231555931,28
389162913,6407486,409005553,880208,400611164,883352,204074,2914479,768906079,1550239,387637660,69,231817,1727843873,823,5.42,4.51,228635837,195333000,33056000,248925808,28
374080014,6718633,594581329,1024707,589418911,1027620,231058,3066064,1063639862,1361334,373771941,1611,305397,1984968531,630,7.24,5.98,315914807,280668000,34834000,336436448,28
582231435,191443068,175094215,1081749,175343496,1084435,239521,5301505,1169369509,1598973,574552261,1041,278459,1649390413,629,8.69,7.32,345757708,322343000,23024000,365851307,28
455500818,6764110,411750876,938221,405452560,937639,242541,2974586,797637140,1399035,450753806,31,274833,1735173048,1118,5.62,4.68,236667125,203211000,33034000,257566315,28
543987444,223936325,364440479,1164133,361694380,1180506,233327,7706280,1108387564,2036160,538658345,2387,307017,1835647726,627,8.26,6.95,328879520,297509000,31053000,350254773,28
437534097,16510204,281359379,575662,276858378,582151,130165,3170214,387629001,62899,438524400,49,7137,1212318707,632,2.86,2.39,117329236,116028000,1000000,138769302,28
429099192,16524178,168326558,516225,169411085,515798,149843,3595412,539754469,76901,426203782,72,10027,1488855921,632,4.07,3.43,162192250,158774000,3014000,183290704,28
557305059,16652581,159794817,711801,158188682,709129,164261,3486544,551748623,79344,551713349,116460,8134,1447501087,648,4.2,3.54,167027064,164610000,1995000,187525283,28
520261800,54188890,419258904,1038991,421494139,1025527,354311,8339983,1238055103,1451833,523398362,40,29500,2030720074,1998,8.71,7.25,366773112,336261000,30023000,387215693,28
562362660,16749832,156325958,524366,157602949,528099,152883,3333952,546251338,70457,553814103,62,8946,1451024545,631,4.17,3.52,162040157,158798000,2977000,182365651,28
428773370,16000504,159792353,512442,158625910,505454,147397,3649704,522299808,63834,434734246,3,7714,1451111911,643,3.97,3.34,156457047,154193000,2002000,176895836,28
308742659,6338001,358404433,869390,356211934,868465,174991,2714077,654347170,1156958,312128812,1137,115745,1628046912,622,4.6,3.82,196410941,169107000,27017000,217659501,28
537706713,16541661,344388971,886860,341639285,880495,169644,3538814,691948486,1588921,538222505,49,234495,1381864882,623,5.0,4.18,205101280,176861000,27978000,224348781,28
429904164,15854577,160758067,514355,158734505,507563,146987,3571179,516917985,73330,431962850,3,7657,1453518524,630,3.93,3.3,155387210,152083000,3001000,178750783,28
430857524,15921087,160144525,518849,158184650,514976,151244,3676714,513900674,83142,430621837,7,7358,1328428986,622,3.88,3.26,154492720,150236000,4006000,175230715,28
387531568,6222877,405148138,882421,400076256,877674,227683,2890615,760036522,1389281,390545097,1,11933,1725599556,1105,5.45,4.54,224965498,196808000,27831000,246545285,28
821383461,16312026,423589382,1064690,425701755,1062387,218882,3510897,989703903,1271990,826172905,1723,336121,2382054792,630,7.25,6.08,292958216,264668000,27964000,314480121,28
430231693,15907085,160115937,512486,159085453,508330,148945,3673125,518773565,72632,431572716,3,7494,1451078161,635,3.99,3.36,155407530,152092000,3001000,176597953,28
432134810,16098506,160983701,525505,159815045,518255,152920,3551506,520800869,66138,430916010,5,7717,1455360947,628,3.92,3.3,156718346,154383000,2004000,177807810,28
246190759,9209697,154851965,759278,151444699,761482,111279,3671180,256756885,66715,251282116,49,5057,706959774,660,1.94,1.63,75177610,72907000,1997000,95828965,28
455342506,7006077,455718723,1160916,448866890,1158648,295438,3049860,789826930,1818055,453754944,91,238339,1644503521,1639,5.54,4.61,235238176,209938000,24992000,258328984,28
431661096,16214690,160339344,758474,159341337,735691,153966,3611094,525000842,66916,432457039,173899,8049,1330717692,631,3.96,3.33,158337411,157018000,1000000,179587598,28
431988574,16507149,175271113,753676,174055930,759502,138736,3248408,457160123,69934,426163303,58,7804,884400970,630,3.3,2.75,137298068,136128000,993000,158368395,28
431803993,32150988,161997009,556317,161899932,556416,1000231,15851124,672140182,531199,428021656,49,10742,1453584910,1123,5.3,4.46,199144154,196769000,1997000,220865774,28
431489163,15876243,160430542,510823,158489903,506647,149951,3664671,518097466,80699,430394274,7,7377,1450547489,641,4.02,3.4,153957451,152580000,997000,175553519,28
349272450,6455196,385488029,650947,377704462,647563,140618,2415522,474167035,79036,347533198,3,6896,1338199402,631,3.35,2.77,143355438,140018000,3000000,164127630,28
435183712,16310627,159441009,510238,159951667,521053,152653,3521732,526111322,80454,430184147,82,8110,1462994640,622,4.03,3.39,158339321,156050000,2000000,179703022,28
349882738,6524878,345729079,607653,339398334,611843,142614,2344388,480773359,73402,347150713,44,7923,1425266260,628,3.44,2.86,144657069,142251000,2003000,166012115,28
588512927,16497383,174121018,771518,173435808,782027,186077,3542704,737321912,1461232,591297233,2167,177840,1550831703,630,5.48,4.63,215446431,189013000,26001000,235457033,28
528029481,15912353,219759276,1008658,220009277,1000764,223507,4062636,808700566,1294866,532915291,7,300652,1745149721,623,6.12,5.16,238368967,212024000,26003000,259257101,28
347961359,9763784,222194377,1039955,217185595,1032303,150103,3557823,549802249,1316269,338745558,35,374443,1002814072,622,4.01,3.34,165824837,138318000,27062000,187801007,28
428805322,16498534,168854163,517653,169857510,512532,196015,3667297,543547181,83762,428618695,39,9840,1491453648,1062,4.09,3.44,162810880,161497000,1003000,183436923,28
564391421,16779778,157005215,521013,157956613,521166,148308,3317291,548484970,77410,554004213,61,9174,1455857972,629,4.19,3.54,161444742,160203000,1001000,182288367,28
507470240,6598900,531989287,1141938,533075428,1142635,200317,3334101,899009824,1493786,507595504,151,231646,2069576615,637,6.46,5.39,263873615,236476000,27054000,284575514,28
453779303,15856188,291313256,852008,292630981,854582,183223,3670844,576345495,1179158,467249493,1453,304179,1157547074,635,4.31,3.61,169177929,142826000,25968000,190375945,28
454767130,16048421,174014151,974123,173845248,963237,287213,4070306,713252677,1222494,462404945,976,272214,1412603772,632,5.36,4.5,211995914,175675000,35933000,233143396,28
231497668,6664856,265485088,689462,258705719,689720,181476,2271251,510197096,1401062,223741561,671,309891,990213426,628,3.63,3.03,148299517,126827000,20971000,169426420,28
448611417,6442102,402185774,1107336,402961136,1099701,191196,2774256,790924370,1039883,452809851,81213,313326,1713425359,625,5.61,4.69,230196191,190890000,38977000,251071333,28
308721171,825641,404860426,1093623,404949506,1102369,171352,986021,517459874,60049,305459041,252,7746,1210248194,647,3.56,2.93,155158341,153813000,1005000,176367584,28
437703302,17467280,158913595,507515,158903885,508779,195479,4404852,542330885,300422,424308064,70,13763,1455652521,1545,4.17,3.51,161962292,156653000,4957000,182539922,28
460702029,16241640,174731828,759999,173162328,762244,184231,3624454,708993964,983024,459589194,2457,245781,1553201238,622,5.3,4.45,213165583,184916000,27987000,234475888,28
284165265,6455155,389268906,613540,381055314,617001,142783,2358302,490143065,76176,280827303,50,7696,1334900771,627,3.45,2.86,144516023,142205000,2002000,166075727,28
538711512,16433481,342639877,880504,337086538,884375,168601,3653706,684876173,1441047,540664052,105,265306,1381337807,623,5.01,4.21,202093771,170776000,30959000,222686310,28
539007588,17613696,348978260,1083089,343754188,1076872,237103,6096883,704712443,1671911,523269245,36,381712,1510653950,1118,5.21,4.38,206280817,178990000,26998000,227384017,28
351027404,6502278,347146320,627933,339263097,632348,147875,2397356,479756053,76544,346208946,44,7308,1422092626,630,3.43,2.85,144119519,140749000,2994000,164142209,28
531334997,267209073,221921759,1027503,223116831,1029126,321760,28368046,1612309741,1446722,533221968,185,314619,1864798048,1080,12.38,10.47,476347422,448076000,28004000,496355787,28
439531408,157585402,163701867,981547,160454428,969879,592162,25139895,2240287840,788339,434872399,344,35516,1724188190,2091,15.65,12.99,657100607,651599000,4996000,678720864,28
430999037,16030295,160086429,520482,159403370,510019,154525,3605768,522719727,73447,433162404,179,8290,1455851076,630,3.94,3.31,156284773,155744000,0,177846652,28
568247632,16409551,282973413,609042,275556885,615279,136547,3286588,425330954,73118,565575903,32,6301,1342162633,630,3.23,2.71,129107294,125807000,2995000,149406093,28
530444804,16294911,219305582,997871,219583877,996930,193581,3891190,828813715,1557268,532167144,105,509865,1751089333,620,6.15,5.17,246000727,221650000,23962000,266654108,28
427394425,15821302,159608954,508602,158284885,507901,151153,3667553,523625889,73131,431623822,43,7720,1448044955,628,4.05,3.42,153879239,153529000,0,175340402,28
289664880,6666657,237735876,460354,233581764,459507,180582,2308433,444013254,109673,282908139,60,9527,1086922232,1124,3.35,2.81,133537983,131192000,2002000,154000632,28
574622890,15960540,294746972,1057568,297436463,1050006,159277,3531770,600074376,1395824,583199980,1708,198437,1273107723,629,4.44,3.71,179674704,149428000,29885000,200100004,28
74355624,247793,43938734,80957,38958937,82874,209592,575684,103662830,73317,66218887,46,6786,249680703,1958,0.78,0.66,31111566,25655000,4933000,78647159,29
71308015,272650,43766386,89044,41988030,91330,196473,633649,102619217,77761,62494365,180,11777,221894955,2605,0.73,0.59,32936683,27524000,5097000,53069838,29
146076875,1120241,95188210,143358,94518963,146735,323031,922208,228230775,117253,135970393,75,21663,477613586,3484,1.64,1.36,70660990,63215000,7023000,91898217,29
127964511,624180,73983149,117379,71000109,121023,279108,792326,186515202,93256,121536387,12,13687,393789440,2608,1.3,1.07,57815647,47728000,9943000,78287813,29
127037910,529864,74816127,120083,71155836,123026,273164,802991,191502405,84068,121681247,13,10226,401667389,2606,1.33,1.1,59344758,49120000,10024000,80079472,29
144516473,1207273,95221652,136845,94295280,138732,301453,984628,227976545,130793,137959795,42,22781,483043103,3482,1.61,1.32,70645451,64260000,6024000,91604297,29
94917227,731200,62950471,110496,61306511,112834,342772,930523,152803584,106525,87885078,53,21004,337696322,3554,1.07,0.88,47469544,43059000,4005000,68315749,29
71008831,274486,44424872,84837,42364674,87312,232687,651787,101195897,82883,62075736,118,16209,222270171,2542,0.71,0.58,33386938,27006000,6001000,55195968,29
78691499,211386,47745591,89284,42069397,95530,196900,692027,106482478,98367,67143601,141,10179,255448382,1958,0.76,0.63,31106460,27639000,3071000,51752227,29
68735347,652704,45294906,96382,45030911,91304,161523,665821,107704322,82085,63262650,76,18456,227913524,2150,0.75,0.6,35620076,27304000,8090000,55257042,29
123512586,538097,74005267,121447,70932075,124616,194582,697590,175392287,63212,119616156,52,10827,383192205,2046,1.24,1.02,55295908,49003000,6000000,76750283,29
90915023,645556,60178042,105506,59082763,106732,349280,911507,149915763,134854,83582130,107,22810,323409297,4135,1.08,0.88,47760254,41322000,6047000,68625430,29
128918967,2282695,89117414,163653,90217854,166914,802452,1817040,267829877,274169,128394817,166,86638,439498315,12500,1.93,1.58,83046545,61762000,20919000,104682640,29
126023978,582324,73627359,122354,70675329,124983,250093,725293,180756924,67171,120751396,10,14368,384568633,2246,1.3,1.06,57374295,51089000,6010000,79045157,29
93621361,958041,61817099,101779,60920332,107675,427168,1041612,158904035,127700,87662803,113,22809,334408169,4819,1.14,0.95,46563313,38261000,8055000,67078266,29
122502787,468217,73120188,119775,70145123,121755,182461,593361,177688721,63850,121028746,8,7281,389836429,1950,1.24,1.02,56580316,52332000,4025000,77410690,29
75368027,304642,45090976,83261,41349597,89048,241475,692551,108842732,91301,61615241,111,12381,232609205,2605,0.78,0.65,32313303,26956000,4991000,53912434,29
90152400,965051,61532234,109548,58313402,111771,325489,856530,143275463,106529,86081644,31,16739,332803635,3487,1.01,0.83,45536617,40247000,5030000,67368548,29
75078030,194180,43987365,87674,39038089,91147,201772,588245,100512295,93979,65938180,45,6574,248598977,2150,0.74,0.61,29945853,26448000,3051000,53461403,29
124944157,677204,72434086,119570,69252306,123399,259474,745665,180878935,78304,121444675,19,10775,382805571,2596,1.3,1.05,56893206,48494000,8082000,77835043,29
92701671,722510,61353857,105318,59825469,111682,335297,877942,148262966,111902,86501999,232,19338,332232198,3877,1.04,0.84,46761813,42422000,4040000,67250519,29
71147170,239272,44990355,85905,42730964,86004,197512,595364,103783431,61566,61860836,90,9237,226323558,1958,0.71,0.58,33807089,29572000,3942000,55018165,29
73189244,434762,40441841,88428,38054694,90177,193616,583562,101819966,77576,70957105,31,5537,249789104,1957,0.72,0.6,29622112,24389000,4877000,50670011,29
177100595,648941,107616409,630646,104628082,635969,246599,1019534,547090624,2128202,175916083,245,450554,564822122,1950,3.77,3.11,164413368,96069000,68048000,185498489,29
91120924,689382,61445912,109026,59824183,108753,345791,917959,152682942,110882,84737338,242,26855,321549323,4137,1.08,0.88,48501816,39121000,9028000,68827682,29
128877343,545494,73903745,118928,70791907,124710,274975,801032,186705726,72590,120452678,148,13530,390086674,2598,1.32,1.09,58413023,51105000,7014000,79299515,29
70809889,623827,46251327,103431,47364785,100257,206515,668517,112372293,89039,63087238,80,17845,233111699,2928,0.8,0.65,35990252,27310000,8091000,56452045,29
89721464,1338712,62856040,126454,65822125,129139,303143,806226,176162644,112803,93379440,19,33740,322836009,4288,1.23,1.0,55497125,46172000,9033000,76261936,29
72438146,254760,46714591,91773,44666864,87881,221356,630491,103913124,62935,63596381,220,9779,232441845,2153,0.74,0.6,34111348,26827000,6955000,55415252,29
75371461,335616,42159642,87070,38202553,89312,208500,590147,98705425,64854,67584976,20,5244,247430695,1957,0.7,0.58,29406944,25053000,4008000,50156046,29
48653005,566698,28485162,90294,26874596,91386,162595,396242,75207534,65677,45167931,109,9492,162044542,1957,0.51,0.41,24697033,20226000,4045000,45465833,29
121555499,547316,72256800,119498,70462543,121242,190724,562784,175834805,67212,120895591,32,7489,378094375,1951,1.25,1.03,54790924,47494000,6926000,75518274,29
69673066,509794,55076793,100332,51490657,103883,181471,464471,125455453,60309,67742438,43,7056,287752751,1953,0.86,0.7,40086920,36714000,2976000,60943492,29
70523356,536182,55603747,101015,52208897,113349,207382,624902,128567044,66943,67919107,295,9499,289475873,1953,0.9,0.73,41068516,37659000,3053000,61923973,29
90129446,714610,59916701,111054,58071606,109176,350677,912198,154729824,129285,84721130,96,25048,325492869,4137,1.09,0.89,48757683,40387000,8077000,70128534,29
94212904,762732,62134536,111788,59271455,108576,368232,952885,156354636,134842,85164990,89,23904,327397052,4528,1.12,0.91,49468546,40105000,9023000,70071454,29
68064902,458427,44932767,88987,43243672,85776,221379,683838,105397243,81400,63189741,72,15243,225020058,2604,0.72,0.58,34697992,28551000,5907000,57843079,29
92836676,773484,63479513,107900,61418960,114756,322480,838916,142274689,127469,83946322,194,27503,326143741,3686,1.02,0.83,46156309,41731000,4071000,66394571,29
154990740,1912364,104799496,164936,101908495,165663,739980,1538112,279277580,221800,145522598,50,40185,517722821,9538,2.01,1.65,86363904,66084000,20025000,107017042,29
121455086,590443,73072585,113117,70501606,110265,166614,567926,179156572,73902,118526259,243,9085,378749738,2145,1.29,1.08,52358595,44936000,6990000,73870206,29
70027994,343676,44743260,95264,42741086,90821,231290,709172,107559493,91411,63457927,78,13018,231062332,2604,0.74,0.6,34162495,28094000,5812000,54630477,29
70006808,488681,45467174,88933,43952695,91584,219047,716192,106390061,91567,62454657,174,15328,225346346,2603,0.75,0.61,34206539,27087000,6771000,55261008,29
68198556,316838,45639142,91104,43967554,86944,179256,675810,107146091,86001,63022747,76,14904,229004877,1957,0.75,0.61,34692853,28291000,6062000,56336503,29
128094347,457908,74433723,118133,71470951,121346,240773,738457,182167162,89207,120119131,19,12788,385257987,2145,1.31,1.07,58053991,55693000,2025000,79331489,29
69445223,442600,45048256,89452,43259941,88789,218789,678073,106291150,75117,64360278,83,13232,229501547,2604,0.76,0.61,34778336,27606000,6901000,55094038,29
124687150,1615299,78541714,141824,80831478,140238,564090,1421977,229841352,171708,132063618,31,50246,416229909,7418,1.65,1.35,72026255,59585000,12119000,93488344,29
92357555,796445,62615949,112951,60476843,109625,367795,964426,154325716,138149,84998758,84,24652,325650192,4527,1.1,0.9,48797475,41431000,7073000,69368896,29
141000921,1059757,93748003,131870,91665810,134397,325424,917232,226382526,113498,138244073,38,17296,472393135,3678,1.62,1.34,69320488,64041000,5003000,89388651,29
90712162,1079877,59978738,107443,57588417,112345,352842,852450,151634141,102238,87918058,42,24378,327869987,4136,1.11,0.93,43974700,33941000,9697000,65012383,29
143331404,1192295,94085695,135575,93244630,136264,311936,901532,227522575,110886,135779359,39,19159,478428195,3480,1.65,1.36,70629529,59187000,11035000,90545656,29
72113413,464747,46280466,100151,45382159,96798,169099,642346,108159913,80474,64727543,81,14191,244659430,1959,0.77,0.62,35590185,32226000,3021000,55919212,29
127131320,556373,74152580,127866,71732614,130315,255853,752334,185698202,75549,122188509,18,10119,393554018,2146,1.33,1.09,57634307,53395000,3955000,78504372,29
118709070,835173,72277123,126253,74562304,120925,112475,589115,182427946,71608,119212304,22,15984,380006010,2144,1.31,1.08,56986514,51656000,5064000,78337717,29
73476034,251715,45546490,85852,42517151,89592,199400,597573,103841927,86090,65115318,79,6431,239708108,1958,0.73,0.59,33672443,30260000,3026000,54310915,29
236514046,9699151,176306129,383562,172379168,381130,4640279,9337267,742203039,1189792,239417777,313,232948,930127570,60906,5.34,4.4,218182227,120871000,96897000,238847856,29
122838024,603196,72876501,125007,69878654,127281,229175,749599,180850882,72367,121033351,14,9916,389208446,2598,1.28,1.05,56882911,49543000,6936000,78145627,29
141185676,1261917,93212763,142438,93484474,147253,344353,1079995,240919127,123909,137737224,62,41825,456593146,4713,1.74,1.44,74674943,66349000,8042000,96101323,29
211904729,22762790,151407471,714504,144685396,728437,2594714,4778288,744817141,3097422,212027271,16110,215522,758272925,37388,5.09,4.19,221497753,150056000,71026000,242522332,29
155394019,14753547,112548146,1156756,111948106,1179745,813552,1979636,454747604,1692659,154912454,23736,42670,520935165,7261,3.1,2.54,136521131,120049000,16006000,158121422,29
73538539,234795,45330581,83257,42415259,89706,213063,618241,99641306,60809,62675741,99,9104,233034966,1958,0.72,0.59,32776690,27486000,4908000,54365036,29
98549103,1605309,67745544,130813,68355987,130001,378115,998184,173981220,177449,94371290,8,34890,345687703,5851,1.26,1.02,54613627,43591000,10655000,76381793,29
69270065,330649,47780330,88747,46340036,84301,215357,639553,104473643,76819,61676069,71,17031,226991714,2349,0.75,0.61,34496599,29128000,5022000,54742010,29
123339148,601453,72957043,123036,71551002,119901,179873,530326,178626324,80655,120403704,73,11174,380671530,1949,1.31,1.1,53243749,48878000,3990000,76707995,29
89023825,1286131,59555711,108563,57187797,112484,365079,924785,151339393,100677,89664687,33,22249,329630519,4135,1.12,0.93,44068940,33699000,9911000,64465560,29
171273925,7769802,111656436,310249,110149719,304298,465481,1147096,341662200,152129,167579475,1222,37341,549827575,4852,2.4,1.98,103944831,91584000,12077000,125166337,29
125209433,502616,74145023,124069,70976531,125132,238483,715581,178508424,75513,120319979,45,11034,388782619,1964,1.26,1.03,56874424,49583000,6941000,78672125,29
72636565,236614,45017594,82419,40964288,89711,177229,575228,100618702,80645,63887001,88,5809,240732694,2055,0.69,0.56,32918101,25834000,6697000,53603284,29
195706229,1293911,126890868,644569,121877001,647954,355702,1255050,599788587,2094996,197764000,68,581817,656831186,3482,4.21,3.48,179493023,114057000,65033000,199476189,29
91296092,738387,60872028,109507,58357104,107623,334199,893419,156462056,129645,89559086,66,25113,335566732,4138,1.15,0.92,48830994,37826000,10668000,70055834,29
94527461,622317,62860109,108835,60330306,110653,295992,867234,149257176,103534,85731124,75,19361,336093035,3490,1.11,0.91,47444017,36074000,11022000,67309461,29
71261198,676650,46552607,92358,46274927,93154,194616,672048,110272680,90937,64741430,103,14025,241265179,2595,0.78,0.63,35678221,31278000,4035000,56656952,29
73153763,240299,44963109,85210,41686083,90342,204213,610953,100930507,72501,64508580,60,6648,239469522,1957,0.69,0.56,33211363,27050000,5796000,54375200,29
119664138,776254,71223444,128486,72453666,117273,177546,645394,185098725,81375,119820026,137,22535,375014014,2991,1.35,1.11,58329920,52062000,6007000,79904210,29
92305419,679084,60709968,107992,59338034,107873,358907,919961,149279759,127355,83234021,106,24687,324581629,4134,1.09,0.89,47536318,35165000,12056000,68038932,29
72051898,218689,44801124,84702,42907807,86634,207951,609237,101225616,68168,63983203,71,9951,228298987,1957,0.72,0.58,33290489,25994000,6998000,55140157,29
122942633,517376,73717931,119299,70682183,122593,229471,714184,179478824,62550,120617602,31,7330,385472240,1961,1.28,1.05,56224718,51858000,3989000,77342935,29
173826837,915447,103364428,627969,106065062,632629,155753,1041209,573715676,2953602,178062776,118,567725,564060553,2370,4.0,3.3,171814952,108231000,63135000,192820433,29
68315683,414500,45127617,88083,43053558,85945,216259,682376,108259197,69422,62074527,225,11382,224179234,2605,0.75,0.61,34046461,25875000,7961000,53776238,29
71851188,691598,44695496,97853,44383807,93330,204593,674411,111203784,125277,61248522,94,14776,238254222,2996,0.8,0.65,36405566,28066000,8018000,58342293,29
90622124,956797,62146790,107507,58290649,115314,342589,889441,145530177,93572,85073048,50,18079,333862324,3486,1.07,0.88,45735494,41316000,3934000,67247918,29
85638109,775041,52766260,113719,49065701,115450,605331,1432494,149987465,145514,74127718,74,33499,291570500,7466,1.07,0.87,47760062,35238000,12081000,68142463,29
71746742,241560,45966796,96132,42480767,91363,202934,609076,105591083,66433,64499060,78,6217,238856613,1957,0.75,0.61,34099878,27738000,5943000,55824707,29
125325974,448210,73132604,116552,69611513,121443,241310,796948,182857911,72015,118546123,22,9450,382305619,2597,1.29,1.05,59047832,51714000,6961000,81228251,29
72386889,243006,45882425,83951,43738189,86775,202688,598083,101412682,63411,62268460,125,10594,225274379,2053,0.72,0.58,33597749,26403000,6845000,54710329,29
146273241,1168617,94518701,138654,94476659,139483,303790,985107,231192117,115824,136482098,50,23113,474540038,3482,1.69,1.4,71648914,66246000,5018000,92073797,29
128077438,555111,74625028,123158,70843476,127005,257604,784434,187464615,81074,121516723,8,12158,393353548,2598,1.34,1.1,59202958,55678000,3037000,79480072,29
124516598,550786,74511915,126498,71650157,121978,221643,808253,179927419,70417,121696690,162,7792,389412469,1950,1.32,1.09,55970671,46840000,8782000,76949780,29
73506629,277922,44356305,93147,39299634,94268,204899,739434,106229942,103194,64844485,23,6809,245513237,2602,0.77,0.64,30762018,25385000,5077000,51346971,29
118323374,514511,73139099,116237,72144996,108591,176308,563062,178958289,62537,117884178,102,8268,377374149,1949,1.3,1.08,52664419,47342000,5036000,74295558,29
126218070,521110,74515116,118242,71558568,121296,228487,706010,178330599,62426,118954847,16,10017,387138009,1951,1.29,1.06,56887002,50414000,6049000,78883214,29
75315270,351676,43036096,87057,39731756,88236,226334,609431,101650018,57727,68175427,9,7199,248406408,1958,0.74,0.61,30018790,26682000,2964000,50952252,29
144840887,1197482,93905771,144554,93427686,148491,321914,897447,233562727,138269,135203083,49,35336,468933485,3872,1.71,1.4,72487429,64173000,8021000,94129707,29
76030153,310014,45721935,92768,38870896,98499,246049,707550,105087131,108642,61311641,36,10353,249223872,2993,0.8,0.66,31291564,23934000,6980000,52524970,29
90053082,1086780,61571525,116999,58474001,118756,345895,892896,146959277,119808,87083383,28,17839,335304250,3489,1.07,0.87,45314638,36930000,7984000,67126925,29
124273613,518317,73831847,123056,70796026,128095,203378,672918,174201976,63342,119558797,128,8745,388023884,1949,1.28,1.05,55661310,51287000,4022000,76551784,29
94372041,899730,64595567,108925,61825910,110549,328833,927840,153977131,129072,87578124,18,26913,336348971,3685,1.16,0.96,45449527,36057000,9014000,66663898,29
73314121,211734,45712314,85182,43151954,90147,189022,547339,101645509,78215,63381451,74,9978,232584536,1956,0.71,0.57,33163001,29757000,2975000,54457653,29
71380633,204630,44052832,85406,40210802,92540,192329,601023,100408740,70088,63251609,64,7392,238051347,1955,0.7,0.57,32113910,27594000,4088000,52741257,29
123522102,553570,73926118,116573,70903625,120249,213377,704993,178551128,71601,120950926,21,7971,390526721,2086,1.3,1.07,56348028,49919000,5990000,76547678,29
90793423,1080176,60541422,105292,57655775,108935,316046,801404,150315984,127549,89036147,36,17895,330712000,3487,1.11,0.93,43504495,33127000,10038000,64801069,29
310294404,7086569,189914635,4059497,184707758,3994049,1617933,5686625,637228349,716326,300915434,94,42133,1078978294,6777,4.48,3.68,196764408,176828000,19089000,242563783,30
1077023254,12785476,617416287,10915968,617891183,10876653,949684,8685737,1976360209,3685064,1080004171,105,418532,3600362710,1902,14.18,11.86,579132129,548712000,30038000,600606971,30
312933790,5680615,183841698,5572431,187780431,5457822,1164721,4251570,671443314,640617,318896438,31,42399,1082028167,6775,4.79,3.99,196788813,185434000,11025000,218103551,30
851536495,9897853,387919895,9363303,387775856,9378627,1791335,7968222,1520418391,1186514,853009116,224,55577,2846496491,6777,10.95,9.15,444797876,433465000,11011000,464017240,30
892642311,14738503,483680383,6543639,482284677,6534844,1412519,9993904,1607279790,2649571,884752387,7054,350384,2617826719,4036,11.6,9.69,474239763,431929000,41993000,495231607,30
895601054,15319407,484075683,6505446,480213051,6476732,1509628,10137544,1628070816,2651234,890656788,5906,506067,2628966880,4122,11.46,9.52,486416662,440033000,46003000,508679748,30
371653086,5525924,197345615,4199719,199034318,4139748,1048697,4401300,717535075,650420,365233738,232,504073,1158438551,5214,5.1,4.25,210440158,198050000,12003000,231818235,30
238312825,7302491,150809098,3415946,151405710,3458719,617230,4864322,506566329,652689,245108572,97,27164,841097350,2576,3.66,3.06,148587163,142164000,6006000,169103451,30
215096274,4720649,199481338,3937468,198686687,3908981,650208,3552276,524961402,468132,211411559,295,30348,989091598,2375,3.65,3.01,158226210,151916000,5996000,178129557,30
731215816,5286673,448137116,4802418,450863094,4813849,689550,4603477,1323923585,1424303,732518005,2095,292159,2271705028,2572,9.29,7.73,391473191,345093000,46012000,412874779,30
247779283,4321001,167309049,3999052,168133342,3951035,573278,3301131,516508634,458436,241575112,2362,37022,907522412,3260,3.65,3.02,155795100,142502000,13046000,176953337,30
264836686,7572328,186654053,6586357,183585057,6459835,1008987,5514985,656150737,632436,269682559,8,42165,1043898976,4045,4.64,3.85,196521601,187148000,9007000,218056228,30
254117602,4631175,161204908,3837645,157658560,3749281,731020,3661430,526234931,447032,254296594,15,26905,926523007,4775,3.72,3.1,155546058,143128000,12010000,176347310,30
280955967,6710231,156594039,3752353,156866231,3734778,1260956,5195162,641791595,659218,285757937,840,39818,988768392,5527,4.56,3.79,189534278,175187000,14015000,210569601,30
239029827,4483067,160828117,3935795,161076282,3953774,601369,3364751,495696657,371784,246172672,226,23517,888117373,2574,3.45,2.86,148271138,143943000,3998000,169248399,30
206038295,6239540,136101816,2318193,132749123,2244441,963949,4752863,412845756,464849,212041409,43,21555,732472429,3601,2.91,2.4,124147935,114856000,8988000,144994689,30
242346614,4666286,215514230,4759748,213366458,4711988,755476,3701452,594084124,492551,238367889,230,33306,1131416191,2376,4.2,3.5,175159473,169710000,5021000,196254130,30
408863281,13096558,197765417,4158837,197525745,4128910,3212303,10612352,988251508,2119204,412241476,364,65532,1147710299,6778,6.87,5.65,292281178,280924000,11036000,312232950,30
301071920,4920953,193777168,5159604,193517502,5110098,748124,3835903,620329547,558491,296568348,1079,32876,1105915274,3653,4.35,3.6,185309141,176041000,8951000,206678645,30
429422809,18355044,199394268,5111491,200905633,5118461,1292346,8816430,864692362,1621224,441400188,363,31818,1325311510,4049,6.26,5.24,254327202,244052000,10002000,275371119,30
249451672,4673701,161184405,3869433,159733303,3909762,714315,3545389,498241890,426245,252315213,116,18375,901324253,2571,3.51,2.91,149241973,139963000,8997000,169980850,30
277865939,4976419,182342892,5022855,181908365,5001848,714151,3783807,578284511,494839,277827057,109615,118050,1021037733,4610,4.06,3.37,173765267,164462000,8970000,195114809,30
222958629,6924349,151034196,3744579,150711867,3735870,724018,4770277,494480902,640836,224642590,237,38084,809047902,2185,3.49,2.9,145799642,140471000,4981000,165646739,30
415644029,22705700,214594969,7602052,213585071,7524326,2556165,13930812,1046459361,2839489,422253794,479,29750,1505800243,5212,7.41,6.14,310954090,299494000,11018000,331547097,30
319045103,4517687,214481232,5138045,214364914,5138801,600740,3568400,645865095,397020,320698140,355,55544,1277956380,2572,4.58,3.8,193872448,184595000,9029000,214418234,30
291232863,4926437,187931301,4263201,185024369,4217304,672294,3771852,728794207,1437004,288696993,435,318399,1047407229,2570,5.17,4.29,216609756,188300000,28044000,237330474,30
341346591,10652621,228212067,6513536,226724756,6461949,1141980,7571308,768769123,1499359,340278636,409,38717,1277288618,3503,5.54,4.6,229384456,222170000,7005000,250720288,30
232262161,4272069,151262620,3471667,149908948,3464992,593093,3380950,458504867,413550,235953680,375,14273,836370275,2380,3.25,2.69,139436352,133064000,6002000,159616673,30
824508660,14853044,500749637,6521514,501181115,6558544,3569011,11479661,1754420619,2569573,825593369,880,577780,2524791732,7159,12.46,10.33,514825895,459495000,54939000,536725168,30
459276625,10976795,241693960,6822639,241411409,6839741,1018449,7549631,919308161,1539396,459472079,136,41932,1621288570,2378,6.6,5.51,269470262,263197000,5981000,291259841,30
223396421,13248295,196953958,2799291,196512315,2802909,1691015,8400034,654447336,2781390,224815222,436,51082,992965689,3403,4.57,3.77,195730982,188393000,7014000,217437979,30
334518515,7616917,201650735,5043232,200898637,5038250,885909,5538644,701530018,743288,340825884,421,23196,1305624968,2963,5.05,4.19,209273740,199009000,9950000,229916093,30
229802438,4412942,163776086,3800530,161375259,3765483,634474,3421879,474379970,368525,229722724,163,14324,856358625,2576,3.35,2.78,143571575,134261000,9017000,164847953,30
407841798,7858443,239679527,7467545,240150036,7487274,797571,5712419,831571664,1055910,405309383,273,41146,1469448475,4623,5.93,4.94,248642953,238361000,10015000,268971906,30
228095010,4248739,149740869,3820325,149198584,3817832,599483,3194235,467750607,367099,234322108,0,16630,810657556,2574,3.32,2.75,141115663,133765000,7040000,162584858,30
298663301,5777862,197032389,4227170,192647058,4100428,1390223,4797529,769836755,2009507,293619849,555,319986,1067305038,11861,5.41,4.49,229410192,177055000,52016000,250356294,30
383714023,13040190,232367005,6178430,231835843,6161612,2199178,9752973,877508559,2182586,385194313,1455,72785,1388859649,5074,6.2,5.14,260596268,253177000,6977000,280876785,30
312151354,5921058,197823568,5619668,196072640,5572916,854646,4522751,828881904,1938588,312426131,178,310435,1169365407,2964,5.8,4.82,246301674,207933000,37987000,266404836,30
804904692,8934885,474610155,5248974,475312927,5257101,1855587,7275505,1451901168,1752244,803231988,70,77205,2472226020,6619,10.29,8.57,428395006,391015000,37001000,448241642,30
354136202,4464147,216176474,5479060,216062691,5470975,639316,3606377,659074177,614533,347365931,92,39795,1251628941,4040,4.69,3.9,197638890,185271000,11952000,218787332,30
885728373,15275371,480891565,6646358,480913680,6668701,1311550,9909210,1647955618,2734607,886987240,376299,502367,2607494039,4036,11.78,9.83,487108193,438702000,48076000,507991012,30
844748597,15625971,480986391,6640120,482986432,6646370,1332728,10483638,1593559653,2777091,850245388,1490,535244,2577094285,4035,11.46,9.57,470052414,434852000,34907000,489996982,30
379413256,13722686,219823550,5429408,218587204,5393323,1137246,8056798,912623331,2448154,388700348,194,247312,1338301800,3845,6.53,5.43,272888336,239612000,32946000,293918051,30
382771749,25819837,182149071,4880918,179945686,4867357,3640767,15348606,932247479,4351709,382192793,563,37105,1165719258,5605,6.63,5.48,277941812,265650000,11984000,298628289,30
413027412,5969189,213077091,4454254,212129045,4404052,1156450,4657358,907306165,1802677,414635678,50,513829,1306661625,4621,6.38,5.3,269739320,231505000,37918000,291432147,30
211623817,4626308,136052032,2221287,137021522,2222353,568080,3329410,404560831,424219,205576928,291,24643,750689522,2965,2.87,2.39,118265341,109938000,7995000,138971855,30
248054074,3619931,166800730,4255751,164478830,4201591,548687,3099997,525622112,404540,242386480,0,23058,957556996,2182,3.77,3.14,154802317,147373000,6970000,175659483,30
683849972,7844930,417496756,3551618,415599940,3519271,693436,5585362,1190515464,1798274,677375109,91,470207,2022820711,1690,8.5,7.09,353558877,333242000,20014000,374071081,30
254702991,7406238,167266628,4036659,164706355,4015694,825332,5050492,712466304,1873389,264055745,3019,126226,907690012,4040,5.05,4.21,209343441,181014000,28002000,230698637,30
244765227,4418110,158285995,3509450,155651748,3512709,625781,3492204,500954583,360833,253829300,79,25454,885302781,3652,3.62,3.01,148747703,139382000,9024000,169830316,30
276781189,5586990,171574341,3949966,171016686,3998554,984180,4139645,556791377,552948,283669996,120,36055,966378260,3600,4.04,3.36,163610650,150215000,13018000,184478893,30
232495669,3929169,149031006,3430238,151615328,3448442,376307,2785788,468462165,369739,239486072,52,22144,841373552,2379,3.4,2.84,137284189,127897000,8992000,157631733,30
232149106,4400947,154506701,3637547,151850013,3604073,642461,3448788,478068567,412985,229109256,2012,15243,820715865,2964,3.43,2.84,145904036,135569000,9968000,166736255,30
425883297,18661646,263382241,6122666,261678064,6104707,4529004,14369652,1095982889,3414447,431603219,2264,50919,1342266854,7166,7.87,6.48,321064022,306704000,14032000,342945620,30
316465269,4927720,210907718,4348653,208414230,4350392,652453,3748713,632728739,393840,323081174,176,192546,1139403154,3653,4.64,3.87,186895097,178640000,7983000,208347355,30
246608218,4769017,168952089,4197404,169625642,4108356,724773,3640260,520577164,469744,238839967,35,34226,902021548,3653,3.7,3.07,156783102,147375000,9022000,178012754,30
739011849,22666697,441723676,9184900,441193053,9127573,5190320,15949503,1782467687,4286130,739572903,1289,582201,2372195313,6779,12.74,10.53,523245761,481764000,41065000,543993649,30
214523305,4721888,199322031,3932058,198729026,3865301,651428,3559061,523559350,469427,211523212,62,21723,993839132,2374,3.78,3.13,157777743,149449000,8024000,178517074,30
320945889,6538213,211116023,3934123,211170078,3900917,873185,4465784,712259162,486062,330915449,36,30419,1355417581,5047,5.18,4.32,209202814,195881000,12992000,229216398,30
448855236,13765065,256349075,6016818,256463589,5955389,1283957,8993270,1050611327,2683115,438396643,509,322412,1530620872,4042,7.5,6.24,310970939,280524000,30056000,332550498,30
630458205,14920019,320899375,6725569,320650837,6689278,2110838,11423447,1293711248,1641294,628169947,1218,49871,1984692948,5608,9.23,7.67,383562408,370289000,12975000,404088435,30
325682522,7655801,193142134,5720682,194927926,5621367,803876,5583126,664988278,862758,319137145,75,33751,1155496768,4045,4.78,3.97,200019706,190769000,8989000,220905713,30
208309526,4163210,142440075,3468946,146987807,3520695,480091,2981938,463205960,385161,218574885,66,35397,755083942,3846,3.3,2.75,135399305,128088000,7004000,155718086,30
283764818,4878120,184555104,4144217,183897210,4137356,657758,3676418,699029407,1582939,290548529,80,155215,1056361473,2573,4.98,4.13,210081342,172789000,36954000,231704812,30
313926767,4777568,201936180,4972620,201378363,4909522,674751,3609708,622509801,462277,313281489,45,53775,1226458299,2575,4.46,3.7,186960473,179667000,6987000,207680720,30
241686128,4245081,157783522,3621639,155598407,3605613,642757,3350828,490324561,351853,250526995,88,20930,878482270,3455,3.52,2.93,146961896,138624000,7978000,168146766,30
401536029,12258662,240752896,5443333,240592433,5436437,1300703,8375755,869013994,2132253,398849171,295,60727,1489215872,2968,6.25,5.2,259650837,252360000,6982000,280204882,30
212838974,4504467,141003354,3371581,139091643,3400564,588577,3308474,464994590,399003,218406389,1138,27804,767137332,2963,3.43,2.88,136691984,127352000,9024000,156555370,30
255884072,13593512,193721067,5809364,193186175,5854149,1988138,8593628,780409641,2500178,260212628,71,30594,1069800516,5773,5.45,4.49,233310591,224820000,8029000,254529536,30
743237807,4444541,457364235,5494763,456913240,5480486,696741,4050662,1382095844,1539068,748443017,132,536006,2323335164,2567,9.96,8.31,410813312,370505000,39946000,431768311,30
224638618,5056091,142547506,2732268,141628028,2741092,659932,3869039,589931903,1258637,228303276,16102,347275,774851231,2089,4.19,3.47,176760315,143511000,32888000,196109953,30
396070932,13125710,201359855,5072662,200258070,5034160,1278349,8248165,950454801,2486175,394846636,492,317945,1299245326,3848,6.94,5.78,281681346,243342000,38053000,303221795,30
273399140,4517231,181998662,4194429,179046345,4117247,728207,3618955,536269392,403654,278580620,96,15533,1001267890,3652,3.87,3.21,160324901,150794000,9047000,182183027,30
893372476,15119214,484761430,6515061,482340046,6515710,1418013,10254847,1602834765,2828297,880529034,5469,246681,2615373265,4036,11.8,9.87,471786929,439455000,32033000,494012899,30
716803325,7163449,445570569,5015736,443997746,4987812,941347,5558145,1316432572,1801129,714244528,936,534030,2196724644,2569,9.62,8.04,386233193,354888000,30990000,406170938,30
891147091,15154558,483011425,6588437,482148508,6583175,1361120,10075596,1625926486,2882327,882992678,400573,271802,2614095461,4035,11.98,10.01,479205614,445669000,33049000,500342410,30
367559719,12197882,199971980,6418881,198388830,6376944,1268002,8324747,782751794,1435018,374901300,53,25523,1214716622,3845,5.76,4.8,232174010,217794000,13986000,253152740,30
422729536,15622418,208834635,5753375,206215191,5697696,1484616,9572225,1043944212,3045368,421664453,405,296461,1301192297,4043,7.64,6.36,310264664,273916000,35989000,331423309,30
386026545,10724226,228832685,7119047,228044028,7081025,1473924,7591165,877639903,1188529,393760826,219,36930,1470749166,3992,6.41,5.34,257158269,246652000,9985000,278334627,30
501519926,11629854,227683925,5565607,225537148,5554902,1356604,10176252,2684329305,1792243,502652074,533,66702,1648163527,5538,19.56,16.39,789124098,775873000,12981000,810298778,30
246673579,4402929,166384098,4042154,168086966,4082589,525306,3197140,513893916,353795,256915120,37,34786,923290459,2573,3.75,3.13,150505378,145118000,5004000,171775254,30
407321075,11627149,242646898,7204674,242491213,7217043,1207360,8247709,839375844,1751208,398669353,19,44180,1377583444,3650,6.06,5.05,250774723,240410000,10017000,271210339,30
747922365,5513847,458968966,5057056,461806700,5048989,704128,4685364,1350803153,1908167,753571478,405,349286,2346254782,2568,9.91,8.26,403244574,371851000,30987000,423982850,30
31486752,5364550,34630890,3223835,32051917,3098381,535327,3458528,190287409,342070,31839497,172,8444,221771285,1820,1.38,1.14,56189167,51707000,4055000,77425276,30
801941484,14642931,483631334,5892364,484283712,5893116,1791635,9914074,1561629744,2777724,803666601,1204,82579,2597765651,3981,11.49,9.57,464225392,430764000,32981000,485625931,30
761493934,5381198,462556282,5066439,463711431,5076422,729713,4757871,1348152272,1737853,754580991,1927,234415,2339498703,3646,9.9,8.27,397303974,366987000,29998000,418626120,30
231963254,6744331,154405291,4417050,150906313,4431488,528278,4380248,589754380,1857965,220966563,1946,320061,763087154,1697,4.18,3.47,176892657,149422000,27076000,197542616,30
278635655,7503589,170724814,4187127,174525461,4181381,877064,4969573,567090564,724045,284863891,35,40625,950000444,5997,4.09,3.39,170217292,153122000,16903000,190606142,30
270377349,5155291,172788827,3882286,170358876,3853011,789409,3938055,687154323,1433678,262153196,737,277522,926638918,4042,4.97,4.13,205597321,170242000,35049000,226222696,30
250431762,9618500,183236555,5233669,182394016,5197194,499337,6341593,579938793,1091417,249466749,205052,38440,971641251,2278,4.12,3.42,172546999,162309000,10019000,193563803,30
256650813,10954539,157486144,2442615,154829275,2440383,1391089,6863821,566409280,1586435,254434044,28,41344,896867577,7820,4.1,3.41,170130771,154612000,15059000,191429736,30
223953266,13114126,196805540,2809709,196353042,2814287,1654564,8722752,650864848,2757431,224757403,81,47539,992568029,3403,4.65,3.85,195446339,185131000,10007000,216510308,30
731105836,5243743,454161075,5018651,454833011,5046641,703974,4589570,1310550456,1675277,726308729,8469,240658,2275026870,3449,9.5,7.94,387720565,357434000,29952000,409221056,30
243618559,4468526,157683226,3832510,154309707,3718937,746109,3628336,524945824,386355,245759746,93,17463,883272206,3652,3.82,3.18,158186405,148970000,8998000,179284167,30
333586054,9972178,194121229,3881107,192944355,3874698,1619256,6935364,661290600,1586176,333685453,47,30057,1142668581,6387,4.8,3.99,197492552,181197000,15929000,218574254,30
272506349,12770360,175569132,4306943,173216074,4253379,1538406,8371590,624900114,1668645,274858455,45,36442,995200801,3402,4.54,3.76,188024165,175664000,12045000,210193926,30
264695170,11484915,203418006,4120947,202899805,4093527,2498903,8417130,775494570,3835556,264299708,198546,64478,1146374339,6668,5.55,4.6,230175158,219856000,9993000,251834091,30
769784348,7378422,507883814,2415326,508838264,2421751,313028,5355406,1402834550,1176552,768018589,78,315083,2745491465,355,10.08,8.42,414609697,387145000,27010000,435845319,30
716590277,4428293,441513805,4654843,443529406,4657428,578532,4079228,1323410712,1607304,717744465,5190,182346,2236449989,2568,9.63,8.06,393144651,369943000,22934000,413757646,30
281975249,5171899,183644220,4109406,183611830,4110946,742979,3858813,708061023,1367198,289546519,92,296136,1037263574,2571,5.06,4.2,212192135,175784000,35955000,232576248,30
12023884,216567,57256842,6292855,57129147,6317279,93350,772033,529727911,22899,12179776,0,6898,209694367,128,3.72,3.1,156993747,155535000,997000,204877022,31
68715542,295498,248386775,8506800,247927837,8560317,153174,1199498,911428049,41906,68785642,75,13133,1108340403,132,6.12,5.02,277205700,275755000,999000,299040231,31
26847118,1165061,64398512,8421164,66257902,8417840,324231,2477132,688156243,193502,29749755,19165,57215,208705425,1673,4.39,3.7,174503828,173129000,1000000,195187337,31
23874857,162961,70336357,7132045,70028685,7093077,73603,547174,332795385,17878,23786949,8,4799,354704021,134,2.18,1.76,101449556,99174000,1983000,122527471,31
12452127,238485,58693749,7835345,58629767,7809807,109097,907665,621850557,32261,12627666,276,9101,276808161,146,4.4,3.67,185084853,184840000,0,204885598,31
241294340,298479,198721632,915593,198957642,915088,129294,1027333,703610127,76795,242158826,2715,100368,965460207,135,5.05,4.21,210485846,209252000,1001000,230876470,31
47788929,46055326,104255124,6629948,104607285,6630034,85447,739286,538539682,21976,47481585,234,9301,483741110,87,3.78,3.14,162081134,161751000,0,181725246,31
7362142,733600,12612865,662066,13378611,649096,274026,912708,377384949,138170,10500240,153,24548,90061162,3202,2.69,2.23,114550417,107233000,7015000,135022535,31
11841639,148385,58186638,7745998,57894157,7743557,62455,442196,267420425,14332,11476302,0,4723,247024782,129,1.8,1.48,81484657,80292000,1003000,101497988,31
12563580,231129,46967658,6495022,47118657,6532432,101683,841120,556441801,29585,12354042,237,8907,154319553,130,3.89,3.22,166138169,165894000,0,187067681,31
526266456,8747989,431022466,2527530,434701194,2569809,2460468,5595226,1157901631,996542,531719103,861,287495,2179001653,35930,8.4,6.96,342385436,288985000,52997000,363353040,31
12413324,217234,57594181,7543423,57643780,7548602,95040,787550,548507689,29469,12398375,187,8825,212130228,131,3.96,3.31,161812292,160575000,1003000,182899636,31
12183843,196095,46751433,6566805,46992068,6615595,104730,812019,566663133,32036,12315592,230,8280,195971784,130,4.0,3.32,169297750,168088000,994000,189816226,31
15636565,229772,60515448,6782638,60525445,6828547,109070,832356,555263308,26758,15383780,317,10074,232391437,131,3.91,3.25,165916196,164608000,1003000,186439449,31
12441510,222787,69537927,7495599,69381120,7516699,108460,857101,557736180,28557,12022742,0,7286,231034075,132,3.98,3.31,167455907,165167000,2002000,188778770,31
12318986,207613,58308607,7549649,58607837,7629139,104612,820102,556260124,30444,12321950,235,8822,210075919,133,3.97,3.31,163572086,162326000,1002000,184406128,31
60944044,705565,36495479,811574,37306790,831723,260609,793954,302179609,156262,64663798,290246,24950,313562752,4043,2.11,1.74,91483861,83075000,8007000,110726118,31
48407410,267474,72489074,7545776,72589215,7549425,114645,983658,664243512,30785,48542160,246,9831,411209678,136,4.69,3.9,198231772,195985000,1989000,218890639,31
12659243,218105,58250278,7025618,58427320,7023386,116271,841062,538527032,30867,12704090,32,8428,214041846,132,3.83,3.21,161717131,159365000,2004000,182336722,31
16015528,276483,47312841,6620507,47571043,6630016,104196,822235,564608619,23457,15702583,360,9771,166439152,132,3.92,3.24,165299879,163919000,993000,186202507,31
5988670,345804,17208809,131885,16927199,127325,179637,471946,85139350,106478,8823128,0,19735,86922441,2176,0.57,0.46,28868422,21617000,6878000,49868372,31
12390674,80487,6934010,112335,6911963,114228,38828,235248,82817477,13197,12777144,149,2924,45096249,138,0.62,0.52,24263959,22926000,996000,45400384,31
12101986,203131,57177488,6211465,57201903,6232964,99278,790696,529336803,26698,11949349,38,7451,207792226,132,3.81,3.18,155790406,154464000,1003000,176078460,31
12197190,187311,57062195,6403183,57151926,6410696,97733,782805,496640844,30193,12259697,78,8020,216047866,136,3.34,2.76,145782044,144595000,1004000,167488070,31
548328571,9958706,464750796,8475550,468695494,8560056,3170354,7067177,1748100405,1259706,552978069,82563,858940,2222617961,42079,12.46,10.32,513621523,439230000,74038000,534318524,31
533048850,9023715,460973841,7638093,464332813,7723137,2690365,6296843,1710571631,1036614,536443411,147358,339409,2226846100,35930,12.28,10.19,501110692,440659000,59953000,522154852,31
12751628,235670,59325121,7101602,59244511,7091770,100645,777253,530163169,23862,12303511,73,8824,256632786,128,3.79,3.15,159933812,158630000,997000,180039988,31
12250294,205832,54634901,6751843,54432953,6787741,92008,725645,504581137,23402,12024062,142,8227,205237352,132,3.41,2.81,151556583,150332000,1002000,172220961,31
12463140,229507,45798864,6647642,45998818,6665625,101099,844321,557953495,25265,12127344,115,8025,174682936,131,3.91,3.24,168350416,168003000,0,189049463,31
12681486,265012,47173251,6606153,47545018,6651780,117982,830739,563584411,22630,12292708,57,9110,153680468,135,4.02,3.35,165397937,163016000,1988000,186514350,31
5251280,392942,6140595,103466,6156059,108775,155642,436190,100349874,53950,6545999,52,13518,56561808,2179,0.72,0.59,32550724,30229000,2015000,54014713,31
125954961,187921,76122729,7658535,75928893,7649600,78318,619977,406210548,20386,127785381,142,6768,541753177,132,2.83,2.35,122662478,122392000,0,142707913,31
13140052,341653,58368902,7556101,58418709,7556862,153746,1256483,946150625,38744,12981869,218,13106,236380545,132,6.93,5.79,281798169,280354000,997000,302423933,31
12408061,228141,57801675,7444045,57945000,7492940,103648,804246,547339154,26903,12136187,263,8738,212666801,128,3.96,3.29,165120485,163687000,1004000,185721519,31
286011315,344904,237870390,4969075,238194784,4978102,149387,1290632,925757619,41249,285433432,238,17769,1038786073,133,6.66,5.55,273965317,272591000,1002000,294453137,31
15524795,198047,45681800,6028344,46089819,6078926,100389,791768,558349286,31887,15612130,192,8951,155830140,133,4.02,3.35,164333312,162978000,999000,186100771,31
12402943,199928,57490393,7356941,57630999,7424632,100763,793791,538290064,31503,12823060,130,9228,212349088,133,3.89,3.23,163125223,161812000,998000,185190535,31
11891116,145050,57166067,7173494,56869327,7180016,66325,477389,269809603,15676,11426534,0,3909,226503862,133,1.8,1.46,82640565,81245000,1003000,103520749,31
12158712,223858,57874116,6721789,57848160,6690190,101942,807119,540656141,27620,12484255,346,9146,214586447,134,3.95,3.31,158755771,158500000,0,179038124,31
44580590,146640,57498840,7567577,57517821,7560504,67628,519521,307436781,20654,44974105,173,5471,278034948,132,2.15,1.79,90194056,87901000,1997000,111277431,31
23873680,71453,8036413,90765,7994226,80027,31043,196313,64720965,13664,23693367,19,2432,84934577,133,0.45,0.36,22060158,20658000,983000,43283823,31
19502498,133429,8114959,86120,8234598,76760,30220,197866,63623615,7982,19896271,19,2425,78038710,133,0.43,0.34,21916665,20598000,1029000,43453181,31
12579425,237154,58396775,7583182,58376574,7589732,101514,836197,569440733,24964,12236793,1,7533,209930709,132,4.1,3.41,171454560,170225000,1001000,191734064,31
12249045,201905,53098167,6297059,52965550,6283250,94662,743846,522595986,24766,12015866,0,6671,206805704,133,3.8,3.18,153452754,152141000,1000000,173845399,31
16248027,501590,74526862,6630795,73409948,6754628,214335,736302,328791761,62785,16230952,0,12373,373150554,2177,2.2,1.79,100577996,97195000,3006000,121391966,31
19506021,519051,49174630,6258853,49113311,6194422,286507,1143743,586334839,152683,22553741,88,30082,182416539,4038,4.12,3.42,175386109,168051000,7002000,196043218,31
13121362,284664,47712060,7690967,47631363,7726849,107277,874393,598172365,20415,12188719,49,9092,220652859,127,4.24,3.52,179625592,177223000,2002000,200232432,31
12350051,212793,56335026,6267723,56279688,6257939,96152,819969,530244231,27621,12354016,156,8672,209348930,131,3.87,3.23,159891815,158583000,1003000,181334589,31
12372066,240356,47693111,6822211,47781181,6859140,130599,889311,581458081,30543,12509701,183,8953,157574244,127,4.12,3.42,173476759,171986000,999000,194410860,31
12453036,217787,58412701,7646607,58492167,7670447,115386,834111,549112924,29270,12225425,0,7813,208224758,132,3.93,3.26,166555938,166314000,0,187271323,31
12424059,181133,57254160,7445780,57618506,7496741,104166,791289,550872458,32220,12882516,15179,8193,213990490,131,3.98,3.31,165733047,163399000,1992000,186699508,31
12949213,264841,47812042,7318415,47623459,7352401,107968,862164,571585678,25966,12860584,44,7848,158711750,132,4.02,3.34,171151405,169705000,998000,191751089,31
10096793,172682,15687879,1444006,15684338,1441925,80794,632349,367180446,18965,9916870,1,6249,90749419,131,2.62,2.18,111411362,109094000,2001000,132170489,31
12249740,185762,57943117,7497203,58135468,7504986,104963,833947,576068582,35190,12613754,0,8108,222679395,134,4.27,3.58,170397958,169070000,1000000,192700505,31
12098970,192079,56321717,6260802,56260835,6246830,95275,779585,526850691,29381,12389745,65,8273,208875903,132,3.77,3.13,159096720,157722000,1004000,180805947,31
12493391,226827,47076159,6466035,47041754,6520302,105591,837435,584978746,29951,12393999,29,9043,242343739,129,4.29,3.58,175344266,174063000,1000000,196385862,31
287083914,425421,268748246,20204056,268720192,20181409,195732,1647213,1249260543,46824,286537808,6,16948,1768963294,135,8.46,7.0,365420479,364055000,1000000,386866695,31
12196013,212739,56297826,6911779,56430110,6932228,100982,835799,581675668,28816,12271499,0,7454,295742106,132,4.3,3.61,170269626,168963000,999000,191095755,31
373184653,375111,344125515,6685225,344024233,6687119,173955,1474747,1086277859,45618,374133201,129,14274,1663256117,133,7.91,6.61,321722731,320417000,998000,342151542,31
12420048,242142,54524089,7338121,54395064,7327330,104104,844200,589125150,28058,12354858,28,8691,269348427,132,4.32,3.6,177071018,175804000,1004000,198092834,31
22938349,199887,77041631,6519326,77013900,6513554,95333,794152,543975414,32571,23164511,1457,8711,260764688,128,3.98,3.33,159893530,157517000,1993000,181295833,31
12479347,196083,47419221,7642049,47586173,7684978,129394,863074,580545271,33457,13204766,40,8653,158148523,134,4.15,3.45,173664046,171182000,2002000,194812352,31
177575316,247051,131488205,6823426,131218304,6846943,123117,859116,558109260,23247,177976838,0,7308,999185816,131,3.96,3.28,167029578,164564000,1982000,188194641,31
177392523,229344,131245682,7074338,131209644,7098116,96364,775865,559209465,24407,178072746,145,8925,994886023,134,4.02,3.35,164938624,163667000,1004000,186115624,31
12553718,256679,70109333,7597263,70072374,7609068,113816,870296,607439148,25414,12190686,100,7913,194814019,132,4.31,3.58,181065778,179690000,998000,200860194,31
175807331,242809,131409093,6858164,131355445,6844616,103859,841215,596131155,26935,176677174,28,8812,1064531304,130,4.25,3.53,177065402,175828000,1004000,198480683,31
177720014,236840,131534590,6961201,131250256,6965033,102339,829788,556420236,22908,177266592,41,7912,993717905,131,3.93,3.26,166656901,164347000,1980000,187715813,31
175152990,245621,131440358,6782360,131313709,6776848,96271,778644,546771293,25944,175677816,162,8692,980516863,135,3.92,3.25,162695280,161352000,996000,183232922,31
178174096,210092,131814196,6832162,131623848,6849561,100269,784590,550759193,29438,176493145,147,8317,992535399,135,3.94,3.26,166226253,164879000,999000,186414388,31
12898699,270528,47311365,6434778,47600931,6475933,100852,804902,556554439,23539,12383408,25,8448,155455351,132,4.04,3.37,163385345,162932000,0,184548893,31
73838275,177732,65210536,8059043,64860551,8033621,70655,553686,331916183,17515,72733827,4,4439,389672013,131,2.33,1.92,101501440,99185000,1983000,121849540,31
12923205,271313,48059733,7474347,48141632,7480344,101062,808614,572101020,17925,12013986,99,7868,210294984,132,4.14,3.46,168515528,166309000,2003000,188152077,31
12338878,187853,47994429,6932887,48039923,6922892,71739,561105,331504488,15260,11657458,98,5052,336088679,129,2.26,1.85,100926498,99674000,1006000,122563682,31
17064353,648219,330330530,25472506,330089404,25475484,316709,2471502,1992948591,64937,16281352,0,26322,1402064069,133,13.78,11.44,587789747,585282000,1994000,608639651,31
11579359,139836,87919138,4757801,88571687,4715973,56414,441088,244874173,30856,11524973,26,4766,314552321,132,1.66,1.35,76071714,74834000,997000,97474439,31
12447379,242310,66276081,6917204,66010791,6902504,109918,865407,598239865,25408,12072591,54,9112,379656144,127,4.32,3.6,178905571,177705000,1003000,199543781,31
13398869,215341,45723442,6386889,45921186,6440938,101439,796233,552864644,24616,13095711,0,7878,153686832,133,3.94,3.26,166366537,163925000,1999000,186752389,31
12435957,226915,58601579,7839181,58574730,7845217,109751,877644,578150994,27946,12327415,29,8836,209685257,132,4.17,3.47,174027290,172706000,1004000,195738137,31
178013652,213694,131548990,6831442,131439686,6856361,98267,790649,552350682,28999,176966094,26,7964,993523747,134,3.95,3.27,166253605,163809000,1997000,186809758,31
2500591,51623,2650519,55212,2689746,56743,17530,159086,39821600,7503,2529319,0,651,23262209,62,0.29,0.23,14135820,12750000,980000,34225246,31
12350927,194775,53252866,6473656,53146750,6464967,95758,779897,516610964,29158,12197469,0,6920,206458056,128,3.8,3.19,152498209,150226000,2003000,171083739,31
14834627,115026,6556420,123509,6369434,114604,37654,257509,124157460,10857,15086316,34,2920,56342453,129,0.9,0.75,36308296,35922000,0,57152841,31
482073521,466112,312955724,7685518,313014556,7692800,199425,1665678,1284750985,45523,482306155,54,17456,2526585507,136,9.11,7.58,380520644,379262000,1000000,401173401,31
12889506,263631,59060992,7273983,59160330,7262907,97468,800851,540583688,21454,12409706,54,8212,215178874,132,3.88,3.23,161839813,159528000,2006000,183560053,31
12381651,210638,55889616,6245898,56115062,6199708,182395,884052,522135279,62232,13849693,80,7253,280716519,1109,3.7,3.07,154163737,149823000,3995000,176006036,31
12501587,244011,57723373,7559851,57617484,7537731,108268,872379,588048861,30232,12466061,130,9272,267855178,131,4.31,3.6,176000875,174664000,1003000,197252401,31
12420054,227643,57790837,7497552,57766745,7528690,101310,796115,547090003,25674,12110738,119,8994,203086771,134,3.99,3.32,164484083,163237000,1001000,185004072,31
12815195,249203,59572191,7252638,59512250,7211289,101685,814426,531617546,21995,12428677,131,8440,216024484,128,3.68,3.04,159321463,157956000,999000,180028468,31
12767790,258082,57486760,7307141,57450395,7312446,107179,853280,592366044,24028,12396880,128,9483,271787686,132,4.3,3.59,178340326,176101000,2001000,200054595,31
12766409,245986,46833451,6414013,46972023,6421060,104495,840245,560156274,23647,12143351,90,7827,159650043,133,4.0,3.32,168518718,166191000,2002000,190153015,31
37841878,102297,17107585,168409,17072773,166663,42373,321353,156856805,16124,37604533,38,3764,150705763,128,1.15,0.95,49509650,47209000,2008000,69817206,31
12373709,178237,58337952,7309843,58751158,7377729,101153,773066,544459123,32825,13005013,189,8444,213729727,134,4.01,3.34,163165894,160893000,1986000,183933572,31
12224918,227064,57941720,7395170,57940459,7403996,121788,839950,569332357,26502,12170561,186,7804,216257296,135,4.18,3.48,170684537,167181000,2985000,190994636,31
33456964,1774010,21524458,133848,23941176,137107,287551,1224971,120945216,177093,42760371,147,34857,112151899,6146,0.89,0.73,37606414,29220000,8060000,57431379,31
8936642,64623,5225332,85760,5295508,88623,28000,195527,52309158,12258,9378397,20,1211,48178494,132,0.37,0.3,17965176,17650000,0,39370150,31
13216102,199977,45935147,6321998,46538391,6320504,135352,868043,590186702,31757,14456795,3,7581,217788594,129,4.32,3.62,171410424,169535000,1003000,192650550,31
13250308,218913,46875023,6566188,46882627,6612459,124765,887746,582028176,33016,13465036,59,9009,232060664,132,4.17,3.47,173444920,170924000,1999000,194677375,31
12271866,204940,47469404,7694245,47745015,7739822,111961,869327,576047590,32771,12765345,41,8829,157239491,134,4.11,3.42,172672895,170378000,2004000,193068604,31
12381488,252083,58740778,7571083,58620239,7544520,117883,863992,591435776,26421,12358804,42,8718,271061776,129,4.27,3.56,175922167,174620000,997000,196236706,31
11584536,90461,5432814,102486,5394377,101498,29005,196390,55969990,8322,12163159,50,2250,40377302,132,0.38,0.3,19099004,16015000,2826000,39962223,31
