@relation problema
@attribute 'L1-dcache-loads' real
@attribute 'L1-dcache-load-misses' real
@attribute 'branch-instructions' real
@attribute 'branch-load-misses' real
@attribute 'branch-loads' real
@attribute 'branch-misses' real
@attribute 'cache-misses' real
@attribute 'cache-references' real
@attribute 'cpu-cycles' real
@attribute 'dTLB-load-misses' real
@attribute 'dTLB-loads' real
@attribute 'iTLB-loads' real
@attribute 'iTLB-load-misses' real
@attribute 'instructions' real
@attribute 'page-faults' real
@attribute 'power/energy-pkg/' real
@attribute 'power/energy-cores/' real
@attribute 'duration_time' real
@attribute 'user_time' real
@attribute 'system_time' real
@attribute 'perf_time' real
@attribute 'class' {0,1,2,3,4,5,6,7,8,9,10,11,12,13,14,15,16,17,18,19,20,21,22,23,24,25,26,27,28,29,30,31}
@data
249546651,284239,154665808,908151,154758346,910087,113468,793680,521360888,1728756,250653768,1,517788,767573538,128,3.57,2.97,152167158,128021000,24004000,172565134,0
94344787,238187,62418372,415171,62351565,410916,77730,531781,304581809,1705097,94245038,280,295859,326161379,133,2.06,1.69,92742796,67392000,25146000,113414151,0
248844796,320827,154449213,915685,154659905,921199,112765,830521,520083637,1455935,251176396,151,513943,768993310,129,3.63,3.02,152889835,125487000,26890000,172831690,0
249140884,292979,154348698,907851,154480576,903170,102024,771472,511182007,1653175,250504017,187,414250,768362236,129,3.57,2.97,149613140,130361000,19052000,169970558,0
253845612,279767,155804920,711386,155585564,712336,113231,814804,513188135,1535233,253667612,82,310245,772566085,127,3.51,2.9,155338621,127079000,28017000,175596057,0
250480897,286742,155534808,1015424,155010748,1009301,108978,817769,520988308,1632309,250372185,253,605168,771594417,131,3.6,2.98,156518397,126202000,30048000,177026558,0
249096591,317910,154564197,869543,154482967,868916,114570,836144,515040180,1450696,250538078,4,514708,771353917,130,3.53,2.92,153873682,116905000,36656000,174223907,0
249063711,300410,154690464,904892,154713394,901989,104644,772909,513835463,1440576,250128733,44,504720,767062062,130,3.53,2.94,150477217,121124000,29029000,170974541,0
253681788,296183,155606161,742807,155008746,740112,111306,788063,504947968,1241297,253410067,22,255467,772137806,127,3.48,2.88,152148261,124731000,27159000,172444390,0
249296204,320585,154729597,907336,154587436,908408,104533,781124,503805910,1219668,250295180,75,341346,767946919,128,3.45,2.85,150608264,117519000,32865000,171039452,0
68473545,222136,45532317,262876,46216642,261537,47377,308241,109029252,16651,70166637,57,4997,242659761,140,0.75,0.62,34844939,33588000,987000,55107847,0
251873476,297629,155174762,705111,155110901,696011,101262,748524,513114781,1504511,252539465,210,305303,767027592,128,3.55,2.96,150028009,124900000,24980000,170838436,0
98699973,510475,65973463,580325,65319811,572651,294119,800135,322315366,1447774,98131111,352,410279,341129069,1891,2.18,1.8,97234926,69035000,28014000,117507106,0
249890275,298933,154789669,900292,154503176,905204,113799,808875,514098468,1744907,250397532,192,460461,770569106,128,3.53,2.92,153986506,117807000,35941000,174177541,0
252674305,294572,155615885,709336,155266789,704011,107840,778057,510554190,1634376,252992412,44,294255,768586628,128,3.52,2.92,153088712,128801000,23963000,173620231,0
100904615,251911,66170754,661072,65891377,659228,80898,533372,308239602,1400310,101203626,62,412820,344021760,134,2.08,1.71,94587960,64492000,29765000,115815994,0
252248760,308625,155566915,697227,155371085,696035,105406,760946,512309299,1612965,252998344,163,236262,770194447,127,3.56,2.97,149849352,117689000,31915000,169119673,0
248748974,327531,154513567,905212,154411204,907944,110276,805509,516654205,1561828,251106874,256,461824,767659626,130,3.53,2.93,153734102,125399000,28089000,173849682,0
251599697,332109,155121954,763812,155195608,761811,103193,765072,514631507,1381073,254036120,3470,268279,770957066,129,3.63,3.03,150786202,124533000,25902000,170993228,0
254761410,357504,154625283,700482,152461025,702578,122918,806820,494560073,1469684,260398145,61,74942,781683465,322,3.38,2.81,145068256,123905000,20984000,165300040,0
68691385,208690,45381707,314810,45983105,320432,51335,326853,110115453,19367,70344963,122,4555,241382318,135,0.76,0.62,34523419,32356000,1960000,54582130,0
252621176,305085,155516157,732181,155198438,731672,104930,775825,503989923,1578270,253186297,48,135940,769721909,128,3.48,2.88,151223666,115005000,36001000,171668737,0
69148333,196614,45580624,209356,45480883,209709,48761,294319,107880805,17202,70682217,1,3101,246771335,134,0.78,0.65,31429554,29198000,2013000,51723022,0
69075313,197643,45053531,209910,45600020,207686,48787,300152,106163258,17366,69648954,32,3980,239686304,136,0.73,0.6,34746662,34424000,0,54865995,0
250582304,285251,155004917,1000382,155006169,1000648,106063,797212,513083988,1478236,250778228,140,500331,770649476,127,3.53,2.93,154082104,123581000,30141000,174822811,0
251562011,262189,155089123,908565,154521884,907090,110662,834049,515961278,1271496,250013509,214,518062,770518703,128,3.58,2.96,155388389,124152000,31038000,176110056,0
68906051,218003,45963138,215597,45255378,216005,49345,293226,106943965,14248,70090321,0,3090,246004817,135,0.77,0.64,31376321,30162000,1005000,50983782,0
252845562,319100,155915276,858920,155876849,861790,108831,820491,520130460,1629651,253444668,140,411553,771717844,129,3.6,2.98,155816582,120674000,34905000,175780090,0
247885201,329128,154430479,905975,154496507,907510,109935,775309,519418191,1545127,250573593,3,507767,765664388,128,3.61,3.01,152758759,124441000,28099000,172673461,0
67022395,227769,45384156,217392,45964150,217484,56291,330033,107879508,16772,69681867,192,4397,240528892,134,0.74,0.6,34230588,32920000,997000,54846342,0
252733445,299611,155668466,707339,155266120,711698,111355,827883,509682228,1440197,253529451,254,270012,773213234,127,3.56,2.95,154125267,119963000,33989000,175603533,0
93671884,256260,62000271,457973,62414670,456631,78736,536156,301030866,1833654,94237254,258,290626,323058317,131,2.08,1.72,91716965,61650000,29830000,112560520,0
251908347,308309,155851348,694081,155724359,696265,102203,782458,491584864,1391403,252534855,132,18959,769940254,128,3.4,2.82,147110216,130837000,15980000,167248362,0
70622402,188768,45877442,209349,45373496,209927,48015,293169,105923812,18197,69797018,2,3110,245604851,133,0.78,0.65,31068436,29880000,1030000,51085106,0
69241767,215188,45739239,257689,45377492,258457,48909,296494,108376480,18391,70178384,4,3349,245952893,134,0.78,0.65,31658490,29356000,2024000,52123556,0
68745897,219999,45600570,234606,44992870,236214,47982,297481,106674219,15027,69524922,5,2918,245413733,134,0.75,0.62,31497164,29313000,2021000,52289367,0
251845729,320135,155628632,698131,155444380,698133,108372,778906,509924697,1250478,253145505,7,308997,769821182,129,3.53,2.93,153565036,114538000,38843000,174025453,0
252882723,289562,155177444,727166,155002418,719649,98166,767415,511689906,1284167,253232157,184,296593,770336649,129,3.56,2.96,149613220,122378000,27083000,169694016,0
252946013,282932,155517797,704245,155308917,703957,104559,767814,510948674,1626723,253092853,30,308629,769520520,127,3.58,2.97,152462136,126198000,26040000,172294988,0
254198677,271851,155698178,708344,155176368,708208,108702,800396,513048391,1718380,253233174,2,309616,772688582,128,3.6,2.98,155617476,123344000,32089000,175718532,0
252463030,299122,155897463,695482,156545240,700611,121718,776069,497828783,1508132,252802467,41,11019,771510687,127,3.44,2.86,148238018,121691000,25934000,168602394,0
252314171,285615,155341973,649367,155179801,649796,106964,776828,515452740,1624149,253341366,1,311101,771896890,129,3.59,2.98,154006562,118788000,34937000,173558384,0
256375075,312184,156886659,709802,156407448,706262,117094,793858,501062599,1300974,250366431,44,277871,773200750,323,3.53,2.93,151067130,118807000,31948000,171150237,0
69948859,183015,45583923,214265,45704057,218389,52365,321764,106177282,22592,69335210,136,4351,243259699,136,0.75,0.61,34661341,31438000,3042000,54378727,0
253760585,283036,155551575,709665,155200984,702934,104690,778361,511139022,1608540,253889135,86,350274,774613927,127,3.57,2.96,153642396,127339000,26069000,173120229,0
69597843,181769,45294451,176484,45604757,172145,50145,296909,104409197,21450,69433434,60,4378,242495313,135,0.72,0.59,34150492,30970000,2997000,54668248,0
228284800,250181,139766045,467838,138992975,466758,104303,619884,323341313,40213,227333994,0,10575,693828760,324,2.3,1.9,98649137,96297000,2006000,119471247,0
249470400,292980,154595277,901467,154495599,902726,103573,794997,522773441,1625579,250345299,9,515353,766686503,127,3.62,3.02,152756649,123505000,29119000,173068274,0
251577332,249843,154574875,806535,154081014,805766,103308,775791,510224600,1263793,251047869,8,507392,770446325,129,3.64,3.04,150874246,125782000,24760000,171749051,0
228505801,249242,138582238,490488,138648600,489238,103113,589384,325944338,40226,228741626,27,8552,688156953,327,2.34,1.95,95719527,92448000,3014000,115465202,0
68548795,190501,45353968,211517,45817369,208610,50286,299130,105814148,17908,69546852,26,4223,239312223,133,0.74,0.61,33692812,32476000,1014000,53083852,0
70465373,173171,45312881,233290,44942762,233060,48495,294512,106041712,19120,70225571,14,3232,246274092,135,0.75,0.63,31286144,30039000,1001000,51121350,0
249436109,296395,154676802,902291,154552258,913194,104864,772519,517608266,1534777,250751524,113,453738,768972902,129,3.57,2.97,150733459,119437000,31113000,171165790,0
252793557,310997,155695276,798170,155942375,794264,104317,752125,494550739,1574669,252770702,50,121057,771038206,127,3.42,2.84,148717586,118324000,30082000,169716271,0
247196325,314830,154202438,917086,154149295,925072,109379,782982,512988750,1489341,248355590,89,511968,764215461,126,3.56,2.95,154166911,125111000,28795000,174721123,0
71513315,238809,47331014,373397,47149097,372187,53772,314956,122525323,15513,73751795,30,4388,262258010,138,0.84,0.68,39545514,36341000,2946000,59466835,0
253515632,264728,155093645,731257,154887596,731541,105773,779939,513428064,1730274,253788359,6,293930,771453554,129,3.66,3.06,152278828,122151000,29792000,173174229,0
68907262,209950,45553131,211499,45953297,207952,46648,302847,105743448,17686,69942649,30,4361,242736037,136,0.73,0.59,34835184,31611000,2963000,55981042,0
69508065,212932,45886333,209460,45301247,211237,48701,294600,108075966,16259,70334582,7,3105,247607313,135,0.79,0.66,31717171,29356000,2024000,51995660,0
251418617,299709,155057307,708465,155130668,707292,104507,774273,512791258,1445398,253711650,29,304754,766844503,126,3.61,3.01,150877828,121615000,28908000,170937196,0
94302431,261901,62595183,505952,62682192,503586,74636,526336,300206985,1438776,94587406,2203,297195,326841777,133,2.09,1.72,91740448,67587000,23854000,112174455,0
252380484,291376,155390867,705572,155327034,699898,107177,762884,498447341,1338936,252655039,27,91503,768821742,128,3.44,2.85,149569135,120354000,28845000,169955949,0
249973299,319305,154900593,927900,154707680,928464,127273,786787,515928375,1617428,251381629,130,452602,771260861,130,3.58,2.99,150825259,127469000,22904000,171442199,0
242762421,269607,150634879,807945,150185443,808197,114155,809444,520824645,1432874,241107182,311526,414615,743117111,129,3.59,2.97,156804725,113376000,43143000,177793600,0
250864638,290991,154857610,901934,154701099,901215,110629,788012,511251224,1529326,250191777,8,456206,769288235,130,3.59,2.97,154143469,119949000,33985000,173557169,0
249363097,287284,154283718,852173,154298497,849021,100790,758715,509701036,1621408,250409723,45,400851,769905774,129,3.61,3.01,150116756,123634000,26134000,170996048,0
253964234,257583,155820770,713393,155241462,714660,113352,822147,517056361,1622322,252827410,67,312116,772661478,129,3.67,3.04,156601409,126240000,30057000,177349541,0
252578423,290966,155853186,712401,155474159,711582,108879,823123,523241675,1334612,252505088,259757,307597,770345420,128,3.67,3.05,157167846,133880000,22979000,177775628,0
96495028,260183,63324508,563422,63493534,557184,75489,531031,303352592,1422656,96042934,70,405588,329612069,135,2.11,1.75,91835726,62357000,29167000,112560026,0
251253500,320318,154907040,697376,155326662,691306,99083,741780,511317840,1449747,252737765,47,294901,767369807,128,3.6,3.0,149657500,123496000,25894000,170235963,0
92131913,270870,62099092,504135,62096825,503105,76190,523239,292319124,1255685,92047858,339,250578,318263220,133,2.02,1.67,89311558,65052000,24019000,109398192,0
251836467,329420,155687676,709642,155559557,706260,104499,783911,510278303,1564168,253213613,92,311221,769617001,128,3.57,2.96,152999932,120597000,32159000,174170442,0
252473900,288238,155310915,698000,155261299,696579,109552,810277,516383684,1718220,253475288,34,280020,771714496,127,3.6,2.95,160816646,135360000,25066000,182942782,0
94285261,262810,62586998,455439,62755810,461655,81292,555546,296629122,1446608,94153272,469,295045,323036785,134,2.07,1.71,89486023,63420000,25764000,110809908,0
69355701,195784,45148532,209876,45494828,206117,48247,298105,105236541,18726,69628836,35,4293,240901927,136,0.75,0.61,34444283,34274000,0,54686776,0
252327954,327779,155931615,703362,155543651,705562,138767,817781,519974154,1748555,253463591,11,296470,773561745,127,3.6,2.98,154627258,124758000,28944000,175103749,0
251323368,263453,155673873,911717,155127892,912523,109989,824733,517548187,1533122,249697186,1,494158,770645776,127,3.63,3.01,156298129,133060000,23010000,176922525,0
67465453,221051,45258437,169537,45842672,165901,53456,312765,106783498,19776,70511522,40,4063,243816307,135,0.75,0.61,34408056,33128000,1003000,54996155,0
252275175,306856,155521260,758585,155226449,753704,105440,799132,510447350,1440342,253576746,31,307545,771350772,128,3.58,2.97,153829957,123708000,29929000,173875056,0
253125983,325804,155780942,810740,155837316,811414,129262,792141,519824057,1598139,253380497,1,296060,770130264,129,3.77,3.17,153027467,128618000,24115000,173325505,0
1259745,193146,6845558,248457,6886424,244624,91953,716440,472529575,23929,1161389,0,5787,76266582,132,3.38,2.82,141818350,140512000,1003000,162815134,1
71483673,451489,130211541,459245,130282344,450643,220844,1788002,1390671944,62372,71532220,263,21049,1641017726,127,9.05,7.41,412288685,409934000,1999000,432766983,1
494795,89529,3453452,90985,3602726,96349,44138,318702,142999253,14813,831421,18,1921,85262443,133,0.99,0.81,45378620,45037000,0,65369263,1
5169781,595476,211774911,568143,211606558,556446,273432,2237168,1755781681,66055,4423007,373,23558,1998557747,129,10.97,8.93,517589267,517367000,0,538543645,1
607624,94522,2610948,84463,2609164,83391,41503,231430,77256296,8937,290533,16,2006,63943475,132,0.5,0.4,25780935,23423000,2036000,46137816,1
918102,124636,6561295,165288,6398085,154203,55412,372716,209706040,16353,880412,149,3901,122400255,131,1.43,1.17,64689084,63525000,1008000,84312916,1
908739,128464,3603231,117827,3599134,111043,56350,383079,212474797,13404,865730,43,3706,145783963,128,1.48,1.22,65929690,64716000,1011000,86669801,1
2038271,225032,6877772,239112,6947036,233616,94320,701290,455912061,21433,1408911,240,7172,70154703,132,3.19,2.65,136834739,134624000,1979000,157280754,1
5206077,599137,211720186,558857,211702410,557039,271896,2228059,1756482455,65401,4331917,315,23310,1997723324,128,11.0,8.97,514849759,514554000,0,534409096,1
1427026,152835,4652081,152399,4590187,158366,40755,263051,134589944,4666,330046,29,2648,83258025,133,0.92,0.76,39196483,37958000,998000,58978325,1
685942,105639,4381885,137598,4365188,141288,36768,253254,93580618,10697,337280,0,1272,59898477,132,0.64,0.52,30510749,29267000,1009000,51307110,1
1344179,158786,3425538,109685,3349048,108833,49940,376779,199676121,10916,858970,159,4113,110939338,129,1.35,1.1,61894214,59615000,2020000,82972392,1
5265176,357998,108176866,360538,108176917,364717,160135,1327178,944263992,35972,5138765,0,11533,1106691585,129,5.89,4.79,280971426,278835000,1991000,300805406,1
1065490,160294,3623016,124142,3356657,117634,55497,420449,264171032,15036,1011315,141,4623,49189880,130,1.93,1.62,77570121,76294000,990000,97928401,1
1411355,122230,4882848,130578,4814996,136712,37824,344431,203763157,9073,753204,24,3606,119527738,62,1.36,1.12,63262421,63010000,0,83255567,1
7433037,650076,84983670,4743305,84960327,4749927,310369,1814821,1306886776,90161,7408549,176,23124,434737668,1810,9.44,7.9,387802744,382468000,5006000,408517688,1
10463195,619968,218649868,639473,218627948,627769,301650,2575217,1959151755,80574,10716875,280,26245,2334497995,131,12.57,10.29,574353580,572962000,999000,595013972,1
907478,105828,5532648,159970,5427101,170940,49918,390414,209621570,18165,858861,36,3658,123675575,131,1.43,1.19,61943479,59674000,1989000,82465892,1
926113,130956,3667721,125732,3474473,117874,59449,391484,209903685,17467,895143,45,3693,110880453,132,1.44,1.19,64409418,63179000,1002000,84989726,1
966657,108472,3435010,117101,3564175,112717,54361,387981,223522891,18592,879202,179,4036,127182512,128,1.58,1.32,66031831,63690000,1990000,86929155,1
3328763,369898,107657000,354266,107470553,348990,168022,1340356,1021433627,43048,2955021,200,14352,1127509968,133,6.52,5.32,304519136,302078000,2000000,324558625,1
703268,123722,3507958,96572,3332223,96021,42288,305702,143634983,8732,413977,118,2012,83211870,131,1.01,0.84,42256661,41999000,0,62333408,1
588575,80605,4913468,150345,4922460,169219,36208,248927,83570965,11632,331808,0,1163,85790966,130,0.57,0.46,27546497,26235000,1009000,47745719,1
1385236,173188,3689279,130590,3482941,121538,59297,436272,260086583,15276,975669,19,4250,142256176,134,1.83,1.51,79223717,76946000,1972000,100090988,1
978629,133940,3430139,93071,3290474,96418,47528,318714,145272024,9077,491227,33,1722,83907827,132,1.05,0.88,42165240,39762000,1988000,60794520,1
107700214,419047,156401446,9034632,156594763,9040651,211777,1655023,1300419457,56724,106836983,223,20003,1929971169,132,8.72,7.2,380846798,379555000,1001000,401848834,1
4443215,104875,12552594,224601,12581665,231347,42467,300102,129705323,10667,3921494,0,1746,112546286,131,0.91,0.74,42500399,42303000,0,63123163,1
1560562,175483,3727949,121083,3379295,111650,53397,386706,210318646,13237,1220966,65,4133,112180648,128,1.41,1.15,65456066,64157000,1002000,86867852,1
1624555,189736,4873874,191546,4939162,197815,65980,485562,284939662,10343,762692,40,3425,48754044,128,2.05,1.72,83230383,82052000,1000000,103855107,1
1778719,115545,5367899,121577,5335965,134010,38443,273453,107989091,10000,1452385,79,2971,88095903,132,0.76,0.63,34153524,32835000,995000,54638795,1
4407322,371550,119229643,693300,119237336,702038,166650,1403386,1053365502,39751,4544689,113,13796,1161814210,133,6.73,5.51,308612211,308346000,0,329455320,1
1086050,127931,3468919,77674,3195195,74344,36460,234663,111444399,9033,599385,37,2620,92531883,128,0.77,0.63,36223745,33999000,1942000,56551669,1
2416624,273027,55998422,219278,55015261,223418,113416,844637,606572381,26252,2284874,160,8286,644038751,133,3.89,3.17,180727750,180319000,0,200860641,1
626683,101787,4657014,143640,4594287,148211,32874,205547,71721980,7236,449678,31,2081,62172547,128,0.49,0.39,24228995,23077000,1003000,44438704,1
1096535,147061,3681471,119791,3673954,119457,55061,383146,217298584,11356,569417,35,3968,142263516,132,1.46,1.19,67026393,65780000,996000,86388727,1
578528,104862,5810554,651268,5826442,655953,37635,261498,95631768,9657,605924,5,1338,68989283,132,0.66,0.53,31645750,28512000,2949000,52291485,1
1738964,200195,5484178,187894,6049540,207262,93513,810139,434729401,25557,2866684,189,6145,240859130,136,3.07,2.55,129210342,127869000,998000,149969419,1
69093606,408322,124789970,437009,124821798,429809,203962,1742689,1327201562,59912,69533448,130,17780,1391229276,133,8.69,7.12,394982108,392538000,1997000,415076908,1
398027,72049,3149977,78768,3310915,78329,36684,252999,83363858,13415,634513,0,1171,84166532,131,0.58,0.47,27891031,25588000,1968000,48687698,1
935379,120665,3510850,116326,3564725,108682,51964,378720,206704431,15595,1006269,56,3649,111736450,137,1.43,1.17,65672290,64433000,1006000,85924261,1
690852,109885,4888853,78415,4856907,78611,30976,205561,75589860,6361,268682,34,2022,74919446,128,0.5,0.4,24975148,23664000,986000,46088636,1
645059,81233,2660518,72215,2343442,64801,29780,195773,70846189,14009,603782,23,1990,59686711,130,0.51,0.43,21097650,20855000,0,40646469,1
711284,127664,3512273,84045,3265054,78949,36356,248104,123076788,9641,619459,35,2598,91723115,131,0.89,0.75,36058213,34894000,996000,55853114,1
1272135,151858,3494739,80654,3224845,75625,35697,243501,124450827,7685,611416,31,2521,98155626,133,0.92,0.77,36375693,34163000,2009000,56894957,1
1644814,179882,3716824,127423,3486319,124151,59459,434890,256441874,13916,1005455,23,4681,181068453,134,1.81,1.5,78249822,76059000,1975000,97781882,1
718133,87421,4325571,81858,4272314,77330,42057,276146,115122790,16709,889959,31,2575,64990872,133,0.83,0.7,34093559,31699000,1981000,54491991,1
1264765,154307,3658443,123109,3583257,122927,56813,434667,226775385,12921,703526,81,3514,135736945,131,1.57,1.29,69809250,67712000,1962000,90035897,1
764769,120632,3335499,74979,3430392,80945,36957,260461,109667212,9152,688433,30,1552,83577288,132,0.76,0.63,32063284,28932000,2893000,52571587,1
1524982,179361,3684866,121732,3607517,113709,51050,374223,228043821,10088,798395,111,4682,135436187,132,1.57,1.3,66862873,63577000,2980000,87325174,1
8723300,564695,8988299,261776,10447328,267196,349272,1295532,722404239,125660,11016385,16,22791,125561580,4040,5.19,4.34,214031799,206757000,6991000,234600519,1
1402733,147095,2599043,78282,2362815,64715,30260,193447,70694212,6249,597068,14,2105,52383464,133,0.49,0.4,23241982,21013000,2001000,43576965,1
937873,116525,3463203,118020,3580189,118088,54872,418402,222982419,19849,798119,0,2844,136121694,132,1.6,1.32,69006004,65689000,2985000,89341462,1
1584191,188125,54099425,182454,53992547,178222,82412,663530,451156391,26646,1417015,130,7256,590839712,130,2.94,2.39,136455089,134237000,2003000,157482996,1
7900353,467250,113410862,376755,112559088,370353,179829,1533630,1156456141,55351,7832427,3089,21047,1308490352,133,7.5,6.14,342076811,340778000,996000,362997592,1
717732,121084,7166921,156539,7045008,153009,35855,242051,113737675,10521,597135,26,2557,116728541,131,0.78,0.63,36241021,35015000,1000000,55994079,1
1389363,157760,3592818,121263,3577975,122071,58712,437344,225733103,11653,654287,27,3039,130249681,131,1.55,1.27,69046597,66843000,1965000,89641839,1
1680111,183634,3597305,120965,3580700,120469,54204,392735,221672084,7634,586106,135,3833,144063533,132,1.53,1.26,68602739,67366000,1005000,88990491,1
35326263,162758,55612999,172969,55680909,174559,81913,670554,414042698,26115,35503928,40,5449,313389987,133,2.91,2.41,126015012,123748000,1979000,146708338,1
685167,89639,3452788,84375,3511483,82017,50421,274051,119562333,14704,1228101,31,2566,94335430,129,0.83,0.69,35147890,31794000,2890000,55850628,1
5068270,587377,211339721,537827,211586568,550787,278991,2257752,1777141922,67261,5307901,169,23106,2008490555,131,11.32,9.23,525713756,525233000,0,546106395,1
4716736,558579,211070362,549538,211197148,541406,255071,2216443,1741021065,71252,4635417,289,23554,1975625953,134,11.25,9.2,512190961,510898000,999000,532498063,1
1062238,148091,3397821,113044,3542625,115503,54345,390907,202761612,13519,863637,1,2527,137961597,128,1.46,1.22,59195802,57004000,1965000,79729111,1
1724470,232662,4019341,178447,3674125,173324,85732,657138,456899278,22287,1676922,20,6538,61419883,133,3.28,2.74,133778344,133400000,0,154828092,1
3097482,168991,6070637,179422,6012213,188824,64423,493755,292817662,16301,2820085,27,4804,50979686,128,2.1,1.75,89195869,87930000,999000,109202030,1
34455565,537595,124158053,2282979,124289403,2288528,255527,2185107,1733493460,67825,34645642,125,23051,1217911571,131,11.76,9.73,507378217,505045000,2000000,526893364,1
648850,122176,3326320,105331,3323847,105297,51181,388680,209318421,14259,961134,24,3603,111018640,133,1.5,1.25,61298736,60054000,1000000,82035347,1
582658,107170,4999568,151184,4973229,166908,34919,203368,86308753,6333,229920,36,1978,85327256,134,0.6,0.5,24891082,24635000,0,45132126,1
1647522,176087,3382082,101687,3355042,99532,50037,364036,204620127,10096,924421,25,3735,117357048,132,1.44,1.18,63808966,63506000,0,83907220,1
883945,113546,3419349,103103,3403428,105183,52847,377108,198969064,15783,894027,71,3740,103518591,128,1.35,1.11,61721511,61586000,0,83631390,1
8812805,96925,1996160,63471,1776258,66442,30018,195102,63479437,8213,8885518,38,2002,50993178,133,0.45,0.38,18549604,18354000,0,38237194,1
10133945,777816,7840964,115957,7964035,117623,217562,728410,130256212,105449,11782426,2,19067,118653663,3859,0.93,0.76,42061860,31609000,10196000,61866407,1
1074867,162870,3549459,106068,3681390,112823,69146,415799,202474630,14158,1056238,49,2818,134780846,132,1.47,1.23,59638682,57200000,1972000,79810416,1
2857760,293205,4249117,276362,4416785,282463,168502,1144683,816439868,33361,3131281,38,10017,102998909,132,5.8,4.83,241903073,240317000,997000,262153309,1
918024,125787,3568079,118149,3566370,116342,51523,383419,226189263,14010,613339,20,3760,128871302,130,1.59,1.33,66314977,64971000,999000,87661376,1
1323960,160119,3597594,107097,3367454,103648,49245,366914,208760933,12723,873286,32,3701,110227749,128,1.42,1.16,64434798,63201000,1003000,84616282,1
6169757,680326,211775064,627236,211785229,616364,310175,2550373,1951275061,77066,5555163,145,25541,2228499914,328,12.4,10.12,573494227,572147000,1000000,594618212,1
2289824,277397,4257579,264996,4235408,261081,129447,1048386,739162991,32882,2216254,193,10565,99004071,134,5.3,4.44,216599348,216185000,0,237058216,1
1025244,133957,3414781,104217,3339635,100860,50704,379187,200165270,12830,834017,60,3734,133352295,133,1.42,1.17,62048808,60899000,998000,82122279,1
698467,104335,3987761,87632,3979247,87286,41097,291427,128612378,10017,373559,0,1740,75701219,133,0.89,0.73,41791646,41625000,0,62639419,1
674728,107062,5839404,150452,5825032,147983,35283,256425,107604181,10639,579847,40,2477,102329232,128,0.74,0.6,34796794,34629000,0,53928051,1
70787160,452293,49523681,1416244,49596982,1388240,75370,375175,127250517,21611,69321748,115,5150,245573632,524,0.88,0.72,41195676,40784000,0,61388087,2
70730582,735314,49670290,1458804,47079512,1406372,125069,473488,136701399,44556,67390901,0,2526,250219128,916,0.92,0.75,43310754,40854000,2042000,64091089,2
72382563,685181,52303559,1103429,51979613,1302200,88459,427145,136095359,35992,65334493,157,7617,246289226,915,0.93,0.78,39455799,38111000,1002000,59861371,2
193088427,1134001,125213999,1687825,122465775,1631525,175626,757107,311170039,36380,200256704,270,7293,630588758,1300,2.2,1.82,94159001,90923000,2997000,114657659,2
193603480,745976,122186159,1665161,121888378,1420905,148744,633135,302591088,59679,193637044,61,6810,578470819,908,2.11,1.76,88810610,86551000,2012000,108017792,2
193169874,545195,118590818,1684086,120918615,1426579,104810,653559,287921930,46543,196776492,231,10814,583210264,1002,2.04,1.69,88206213,82927000,4995000,109558085,2
189792558,438943,118634253,1652888,119938823,1353658,112770,597657,289847666,35414,193804952,247,5978,578286842,522,2.0,1.66,88271494,85068000,3002000,108110420,2
194235815,439622,123525196,1454490,121392598,1413475,108491,574488,284618639,41454,190419997,0,4782,576094447,519,2.07,1.73,84278320,81906000,1973000,104568798,2
81848383,395021,55583154,1361899,55433215,1389075,99030,450777,142341059,28445,82039304,0,2603,270761068,525,0.98,0.81,44335491,41993000,1999000,63505840,2
189597537,447070,121646520,1534708,123053377,1355800,96719,569283,286146757,29582,193203132,212,7024,566753008,519,1.99,1.64,87464294,84208000,3007000,108237765,2
191000386,439161,122695443,1370596,122106237,1419400,106429,568945,285456133,40751,194082453,142,5504,573327000,519,2.0,1.65,86756315,84386000,2009000,107366891,2
201959320,460773,123075148,2050116,124542977,1867309,96051,573885,303115645,43757,209852895,191,8454,590421170,522,2.13,1.78,89076725,85798000,3028000,108879720,2
193883323,465765,119596798,1443169,119605631,1406169,110028,573149,285227289,33913,193970028,0,5273,588262243,521,2.05,1.72,84030227,81644000,1991000,104288160,2
70277702,398803,47331538,1427459,45547599,1676609,78704,356481,128523207,23804,72025310,68,3596,248647165,526,0.92,0.77,37683023,36412000,1011000,58813808,2
357919379,648832,235252438,1939049,234539120,2050722,135151,930795,592961019,46756,353993739,1337,12993,1339427527,539,4.23,3.53,177077321,173749000,2978000,198139288,2
193013111,579603,118252872,1697066,119495304,1526098,102690,666064,293259061,42358,197215434,362,11666,593801854,1002,2.08,1.72,89786096,83409000,5957000,111258574,2
122306522,8775050,86901831,1494297,90882586,1172180,551537,2957135,370969710,594113,122917274,404,20380,405683086,2868,2.5,2.06,108888698,106567000,2010000,129802192,2
193091952,417400,122737194,1418071,121993785,1481499,110833,586713,287073276,40238,193083134,4,4928,577921670,521,2.02,1.67,87467838,85144000,2003000,107875245,2
72808167,777097,50694584,1416504,49238533,1394668,129916,471488,132371415,45204,69609779,0,2399,253198676,913,0.91,0.75,41848520,38519000,3040000,61523966,2
68704244,435147,49601983,1381636,49454757,1356693,74620,353545,127214835,18429,69540787,0,5132,249111842,524,0.89,0.73,40456355,36228000,3916000,61237039,2
71998607,709955,50871495,1447381,49207957,1477670,115996,414024,133957383,50096,71648068,59,3346,249686787,914,0.95,0.79,39192704,35949000,2995000,60225421,2
69942998,712796,47635441,1460551,46647324,1467772,115068,421934,136109052,37525,72295481,162,3877,252079446,915,0.96,0.8,39493827,36232000,2937000,60137882,2
192436294,481487,122150336,1499029,121996692,1463260,109527,572789,290614931,31985,194458324,148,5269,577883029,517,2.05,1.71,85569874,84350000,1004000,106007981,2
196274685,946832,135298421,1460746,134371251,1456030,124727,639503,315191243,34763,198076866,210,11004,610882690,949,2.2,1.83,94817990,93538000,995000,114915423,2
193724075,383508,123136220,1574619,122605985,1404856,108106,576615,282892775,45404,191387683,39,5662,573976986,519,2.04,1.69,87374823,85139000,2003000,107968289,2
71087430,479185,50897204,1436290,50667232,1422840,76995,375737,128361798,19242,70135126,0,3995,250485727,523,0.89,0.73,41629773,37375000,3934000,62548056,2
189148865,773377,122585226,1390627,121631133,1471565,128541,618863,298501481,37012,191929605,27,9171,569028915,908,2.08,1.73,87579892,85336000,2007000,107380315,2
83405728,718704,53653474,1604807,52662380,1443057,123059,481061,148716955,48627,82855084,56,4001,282361084,916,1.01,0.83,47346397,43093000,4008000,67414668,2
72102252,552389,48914613,1399095,48534972,1368060,72323,451071,131189814,26002,70036119,1,8331,255119665,1011,0.91,0.75,41688021,36520000,4935000,62450150,2
72403242,749598,48506503,1379285,46455685,1374103,127145,491906,131535722,36001,68301210,1,2265,259451540,915,0.91,0.74,41604199,38375000,2951000,62611337,2
190443688,575729,120105230,1622862,122027546,1376369,99378,655973,289236638,42281,194709418,77,9444,580653326,1002,2.03,1.68,88363683,85178000,2971000,108015409,2
195802433,1030810,119591756,1714882,118406538,1680113,157282,757971,309716375,59779,198682370,212,15020,593576341,1905,2.19,1.82,92104126,88639000,3021000,112255525,2
70266606,397348,47391874,1418533,45932297,1627062,80495,349324,128671811,24729,72392023,132,4056,251841662,525,0.92,0.77,38017114,35767000,1987000,58710965,2
69716202,439697,49728146,1392879,49572638,1372012,74772,367679,126666441,18939,69391366,1,4223,248624951,525,0.86,0.7,40797655,35446000,5063000,61693769,2
71054471,456105,54774289,1361016,54646955,1529020,86635,391886,140311159,21801,80010575,0,2582,283768021,527,1.0,0.83,41719285,38428000,3033000,62381055,2
252383650,9974414,162098020,1757811,162682545,2003783,728915,4147598,579572923,899878,258040705,7583,20345,765339935,2666,4.04,3.35,169912344,162621000,6941000,190378935,2
190299183,418785,121514743,1556682,122371790,1366710,104875,577178,287283502,38500,194164752,28,4938,573659335,517,2.04,1.69,87843203,83525000,3977000,108868968,2
190805534,480054,120110629,1419666,118984766,1424928,107674,588351,286228893,35549,191936651,28,5790,581089074,520,2.05,1.71,85927297,82685000,2988000,105566462,2
69855018,442818,50603543,1424285,50454971,1416778,74643,378313,128784839,18983,70041531,0,5035,249025625,524,0.91,0.74,41145256,36915000,3990000,61575511,2
69715453,401526,49812487,1468822,49522883,1526220,80834,356167,129680244,22216,73465657,34,3235,247343827,524,0.91,0.76,38453159,36114000,2006000,58712904,2
191708541,396449,122325991,1647491,122009814,1335619,105058,571219,285123900,43267,193147210,34,5208,577119367,517,2.02,1.67,87756446,85394000,2009000,107953564,2
85012676,314502,61063014,1166096,62483513,996957,67290,374868,151981701,20684,82288699,0,2622,278942091,335,1.08,0.9,44507172,43208000,1004000,64766067,2
190134049,409924,119971454,1436919,120100010,1428206,107806,583182,285097478,36324,193718839,25,5535,578366733,520,2.02,1.67,86694826,84365000,2008000,107499978,2
189118319,772406,120665381,1643503,122192709,1376861,124192,613088,292487788,39533,194214476,26,9059,571054892,909,2.08,1.72,88800270,86416000,2009000,109793538,2
194962144,985526,119715085,1683773,118131604,1641151,137983,743915,304697236,61195,198695006,65,15064,594657381,1905,2.15,1.78,92351343,87945000,3997000,113395288,2
210716183,514866,125448888,1442884,120070239,2031767,106682,667952,292243771,66086,189700637,325,9211,610928269,909,2.09,1.72,90077482,86592000,2985000,110483013,2
69076541,412508,48809325,1405979,47694002,1642814,66047,327204,127738284,21183,73360058,28,5145,242858927,524,0.89,0.74,37498302,36195000,1005000,59057396,2
66574300,481722,50359709,1467724,48374254,1613103,75886,334254,130041667,15896,71850224,28,4837,240029229,522,0.9,0.75,38115877,34779000,2981000,57279335,2
71410166,406698,49704972,1398027,49657724,1378891,86530,389432,128360740,26595,70927527,0,2532,254506480,523,0.9,0.73,40663708,37404000,2952000,61292401,2
249253645,9749433,156695886,1703220,154679533,1891501,740159,4018954,553679785,823117,248666570,8867,20893,759303554,2668,3.87,3.19,166890793,161485000,4953000,187097234,2
195390781,536785,117853350,1683891,119370634,1635858,99151,638688,291892974,50776,196681755,94,10273,593038377,1003,2.09,1.73,89644324,85326000,4015000,109451958,2
193436604,699648,120091736,1405612,117629828,1447748,145044,646059,294941380,54812,192522283,97,5901,585190720,911,2.1,1.76,86222032,84890000,1010000,106332237,2
190218284,449111,122344931,1430405,122682919,1423646,107526,562416,284920365,34472,194554535,2,5325,570401341,518,1.99,1.65,87505005,86205000,1002000,107556437,2
194875702,677470,121359237,1400260,118755027,1464393,148480,637679,289893553,52873,191034430,26,5212,583763934,910,2.13,1.76,86295249,82955000,2998000,106857613,2
190910038,478266,117857771,1693396,118693508,1585307,108639,575820,294280469,32520,194409267,81,6595,585199735,521,2.1,1.73,90227263,89051000,1000000,110773514,2
79638900,750767,55060627,2119652,54783428,2244732,117719,487796,163410093,45982,73192933,42,4358,292277699,916,1.13,0.93,50855174,47682000,2980000,71312973,2
67488569,457651,49896509,1379999,49850133,1346724,75530,352199,126938006,16422,69520529,0,4562,243827456,523,0.87,0.71,40915797,37530000,3043000,61253024,2
190521742,445249,119825595,1378735,119742395,1433161,107695,554555,282086755,29304,193515587,0,7425,575530723,519,2.02,1.67,86601010,84241000,2005000,106962756,2
191087464,485861,123639733,1452175,122452758,1412158,115744,583996,293547435,36026,192258303,3,5201,575497220,517,2.08,1.74,85465991,83114000,2002000,106037802,2
80986020,405052,69272607,1454881,69213037,1472003,73048,400701,165691316,29029,81187045,41,6367,330107480,524,1.16,0.95,52911949,51513000,1010000,72994022,2
193454226,765494,121553648,1661074,121183249,1620366,149526,710875,344352205,61447,193627523,38,6723,583964551,908,2.42,2.0,104822625,100317000,4012000,125571246,2
70699282,419022,50606657,1442277,49508123,1411072,99932,418959,130714183,27011,71002318,0,2283,254386065,524,0.9,0.74,40988461,36692000,3966000,61362518,2
72703892,741427,48994267,1439096,46721524,1403095,131519,475248,132671477,36570,67885913,0,2542,252712022,916,0.93,0.76,42426011,40037000,2001000,63162256,2
196962360,970530,119779265,1703996,118315625,1635616,138999,753093,301947033,63686,196120937,124,15640,594469162,1906,2.19,1.82,91473658,83263000,7929000,111653551,2
70386193,410801,47386276,1427146,47066010,1397376,87047,388286,126548037,20789,70489352,0,2890,256460009,524,0.89,0.73,40709209,36532000,3949000,61410909,2
191481872,485484,121597743,1477737,121408423,1433876,96658,567184,288129796,24540,191831022,0,6166,571313145,522,2.05,1.71,84776640,84556000,0,105301704,2
194439984,478415,121476434,1750915,121090557,1630201,108765,591122,297011774,39627,193481187,91,6651,582119527,517,2.09,1.73,90752881,88436000,2009000,111985844,2
126896560,8458154,86852336,1727140,87082881,1722608,522429,2826349,369690843,589201,130231050,20,21147,415732932,2869,2.48,2.03,111913864,105535000,5973000,132347005,2
74320018,1022833,51117030,1606461,50844910,1342126,251175,804202,152899317,76575,72850034,89,13283,263044081,3085,1.08,0.89,48167542,42961000,4995000,68394686,2
136336936,8504060,94346880,2338319,92799999,2347987,549101,2970053,394367041,558323,132496262,87472,24058,455189006,2870,2.68,2.21,116070792,107697000,8052000,136745996,2
193272340,485940,121969433,1416429,122378610,1397543,106292,576334,284990992,30870,193456170,132,5587,582583432,518,2.03,1.69,83359723,83030000,0,104645233,2
194016202,755460,118060420,1645647,117319479,1581011,147295,676176,296330479,48940,194497426,65,6737,591950337,910,2.1,1.74,90170169,87780000,1995000,110879880,2
120133083,9122802,81447191,1365617,82917594,1627156,522522,2731522,354479834,528968,121242783,229,21902,401971803,2673,2.49,2.07,104109092,99746000,4030000,124555209,2
70300890,948998,51073222,1391975,49571499,1388940,125906,530329,139974730,57396,71330805,1,13763,250287568,1912,0.99,0.81,44053643,36739000,6950000,64661440,2
73156260,403497,48527916,1434325,46919456,1400517,86308,398038,124904143,31143,68143592,0,2489,256934942,526,0.91,0.74,41118381,37871000,2989000,61661434,2
189394531,456999,121426738,1578225,123498154,1389400,97798,570622,289352378,30337,193295022,45,7387,569537265,519,2.04,1.69,88744024,85432000,2980000,109219676,2
190580484,789023,120973322,1622654,121305536,1459309,125745,621473,293544064,36833,194414559,45,9522,576598131,910,2.05,1.69,89640515,84323000,4960000,110000458,2
69815355,395024,50116754,1424615,49402709,1593209,78322,348298,130576779,28740,73429561,60,3776,247514700,523,0.91,0.76,38193181,36919000,1025000,58890895,2
72479363,1444891,54688839,2990042,57238409,2919494,98744,725275,211815363,31959,77128417,80,8442,314266327,1009,1.48,1.22,65080244,62888000,1996000,85362326,2
101399001,579811,78022451,1684537,78209949,1348911,95494,469405,176520247,31030,109271315,0,2930,335302860,526,1.23,1.0,55454714,54138000,1002000,76411372,2
151082258,7170154,105772183,2664523,106077686,2670314,1068724,5126176,468860741,1585271,157744723,36876,52373,491112246,4168,3.17,2.59,141058773,130776000,10059000,161451706,3
134753674,6524743,94135082,874653,94368491,888792,760334,4806584,398441329,1062925,126219871,374,53112,427599257,2870,2.7,2.22,116562490,105302000,10927000,137392399,3
153749944,6527717,104549717,908984,105060712,909158,721702,4762387,420305772,1007068,151543040,6692,46066,505052598,2481,2.85,2.33,126880145,117690000,8900000,148252080,3
153410357,6537820,104550163,903699,105261812,912936,719244,4764878,417447161,977134,151760565,147,48784,504479020,2479,2.82,2.31,126545172,118197000,8013000,146906142,3
154421520,6516647,104465343,882010,104814847,904114,736352,4774916,421709584,1023608,154839795,712,21986,504259840,2478,2.93,2.42,123849508,113606000,9878000,145125353,3
195026856,6698322,130410341,1391657,134666116,1379519,809353,5283285,806330675,3928946,199436384,400,648814,640620495,2674,5.43,4.47,239298179,171750000,67293000,259659804,3
408373416,6881762,258083607,2097970,259244699,2101556,912164,5916859,1131926140,3808431,412492680,56,881951,1259789626,2470,7.99,6.62,337127245,281501000,55098000,357015257,3
339640890,6802186,211122380,1128147,211536294,1128673,813046,5263854,670987652,974416,345482093,1368,34577,1008434436,2670,4.65,3.86,196635507,190321000,6010000,217021150,3
408534861,7515259,257682437,2062349,258228781,2068741,874349,5883089,1136201530,4001675,412104067,357,944571,1259921757,2474,8.05,6.68,335219480,275760000,58948000,355935409,3
251926905,9802398,175329502,4000782,171831327,4033749,2113679,7508964,1110746597,5100763,242960537,99099,413570,834630664,5019,7.47,6.13,329515519,277206000,52038000,349895769,3
420312084,9000243,271070653,2519566,272570875,2539743,1995705,7634681,1375998724,4588016,423479168,27339,1077137,1314352460,4818,9.56,7.9,402964795,335496000,67099000,424473333,3
141261594,6658990,96062835,891837,97917780,882381,688191,4622957,404266748,962676,146682733,719,45959,456703911,2479,2.77,2.27,122366517,113953000,7996000,142878076,3
345109012,6885701,213584888,1175695,212857348,1175249,828660,5566281,704600780,1046720,347976282,5498,65010,1033497086,2863,4.9,4.05,207301496,201068000,6002000,227567502,3
405608539,6867642,254964941,1650124,255681883,1654113,865699,5904131,1086720206,3713326,409870499,7512,409609,1229185749,2472,7.63,6.32,322326280,253960000,67989000,343211310,3
412893866,7107410,259470307,1650200,260438375,1655967,872314,5768290,1088918534,3599878,417480651,14933,219140,1264320544,2472,7.68,6.38,321693165,264422000,56875000,342381803,3
343054177,6774340,211404844,1131331,211349523,1128483,818954,5309042,672809553,1009577,346046788,354,32232,1015277508,2667,4.75,3.93,198938512,191576000,6984000,220284484,3
151693651,6585725,103404872,878594,104581057,888514,719144,4825423,422981087,1010612,152585240,3583,36422,500450262,2869,2.91,2.4,123398033,115060000,8004000,143653463,3
154020253,6772280,104604032,911377,103923244,912708,866063,4868548,432060155,1013940,153048863,8,49932,502102855,3261,2.97,2.43,129747818,121331000,8021000,151089870,3
351367691,5188672,233033677,2969724,232926754,2982084,782673,4309253,719896253,1254732,350174168,824,28588,1068663632,2864,5.11,4.24,213425475,202113000,11006000,234286767,3
152784226,6560861,104037156,900586,104822170,909402,724179,4775376,420158765,990793,152239475,71,34288,502353256,2481,2.87,2.35,126882113,119640000,6979000,147531702,3
420098441,7166271,267179884,3402053,267476888,3387053,844891,5908741,1125568972,4171794,421900928,18662,304938,1282082571,2667,7.79,6.46,332467523,276178000,56036000,352140750,3
152611650,6700773,102723756,893829,102937385,896089,776010,4691902,415108479,999156,155986540,3483,46919,500041707,2870,2.88,2.36,126346190,119032000,7001000,147155679,3
407361208,6935375,256558311,1673025,258098243,1666689,904178,5814238,1082149308,4035014,413805649,2748,479209,1239437986,2863,7.68,6.37,322311035,267000000,55000000,343005077,3
204660319,6544673,134930345,1413265,135715031,1432047,796594,5318458,809007177,3483228,207315694,22,557899,673531925,2475,5.7,4.73,237667985,188264000,49068000,258061399,3
186706077,6875014,126852651,917168,131889706,909617,761670,4803098,501283869,1022017,189305171,260,38161,599314117,3259,3.39,2.78,150146524,142802000,6990000,170273527,3
416162395,6886129,259522019,1654061,259381248,1660815,900641,5809611,1106239548,4260197,416447197,493,313636,1267658239,2863,7.67,6.35,328003145,270720000,56941000,348698545,3
152696878,6532600,104292092,884195,104996591,890781,724303,4723858,417663496,983578,151910967,92,18117,500009868,2479,2.85,2.34,125906361,117662000,7977000,144519667,3
450524835,6860073,284334979,2108877,284322291,2110851,871063,5988284,1223290376,4172250,453564007,775,1074183,1382770125,2473,8.44,6.96,367988027,311724000,55950000,389778608,3
407532840,5419830,269790596,3635719,270270206,3634078,809599,4819696,1184678076,4078704,412124980,14674,631950,1269720066,2473,8.42,6.99,350605607,291172000,59034000,370987107,3
174329704,6890523,118804512,901991,122363512,888740,786341,4749328,459651812,1035947,174180549,253,52025,558266579,3265,3.14,2.59,135798179,127573000,7911000,157237981,3
386217923,6910131,244104955,2051812,244854199,2047662,805290,5687766,1069235372,3876649,386810799,199,817966,1176467160,2472,7.42,6.14,317474305,259168000,58037000,338154782,3
152398422,6519864,104473838,902545,105015745,905487,737048,4812676,421001815,992923,152210231,528,19838,500838962,2478,2.85,2.34,126405815,117147000,9011000,147534426,3
153356618,6510656,103577836,882902,104449739,899659,743743,4815501,423570172,1019556,153302516,122,37911,501069085,2479,2.97,2.45,124335034,114994000,8999000,144745084,3
414440206,6876330,257260692,1678123,258800596,1679271,953283,5882513,1093217221,3687698,420684352,20152,60653,1265997388,2864,7.57,6.27,324287409,278005000,46000000,344904120,3
414807774,6974253,259060273,1656880,259333813,1653592,857096,5773035,1099600469,3677865,418083210,556,324742,1262603692,2472,7.7,6.41,322498307,273010000,49001000,342837285,3
123629089,5217976,96005823,2562419,98645494,2568465,659111,3581952,412125809,1008524,133034275,534,23759,432394866,2478,2.86,2.36,121533252,108179000,13021000,142110478,3
130830049,6611416,92492673,854648,94438633,862406,720592,4621485,395224626,997183,127780862,99,35336,419900076,2477,2.7,2.22,117345512,110013000,7000000,136780356,3
153607108,6564815,103545110,875753,104335223,884527,717836,4709410,420820489,1005051,151193453,73,29490,495647433,2478,2.92,2.4,128010127,121805000,5990000,149089434,3
477000481,10021933,309282101,4972131,309491496,4948467,2261242,8074321,1491511194,5241947,478395997,94080,977902,1483801168,5599,10.32,8.53,440655317,362293000,78063000,460057565,3
137382997,6351043,93007139,849785,91655640,878212,747975,4824704,392500586,1010295,131719769,155,16420,439283540,2479,2.7,2.23,113786714,110325000,3008000,134576907,3
408432680,6879454,254653378,1628188,254601109,1633658,847341,5737258,1067173333,3491552,409645456,1028,152255,1235960043,2473,7.6,6.32,312693081,253299000,59069000,333769816,3
204296980,6497280,136540874,1401675,137141260,1419372,846176,5362509,812800964,3725469,207234260,21,538259,676204052,2476,5.6,4.64,237788900,177247000,60083000,258701043,3
153147715,6514848,104365103,894452,105011098,902547,715972,4808264,420222025,1006370,151970830,5,43487,502483387,2477,2.88,2.37,127201004,121870000,4994000,147331104,3
204110559,6795916,135403483,1393879,135872819,1395081,748370,5091088,824644473,3689457,206140998,596,415032,671998248,2478,5.66,4.66,245693372,197319000,48077000,265969248,3
384975630,7241622,250038760,3075994,246510750,3107791,1163180,5129455,803174422,1899713,389026711,91,50609,1173385803,4036,5.61,4.64,238893373,225582000,12975000,258228168,3
159036222,7271357,111998791,1056117,116063904,1050967,855506,4775431,452443049,1011837,168826395,1176,63362,524016260,4433,3.09,2.53,136208804,126791000,9056000,156518800,3
152853158,6522606,104056641,874851,104717331,884546,730735,4744646,417934774,980470,152056008,34,33053,497961013,2477,2.88,2.37,125737920,118440000,7026000,145806017,3
153257752,6567701,104526003,887378,104976239,894795,760517,4824798,418718509,996585,150945122,2599,32160,502394550,2479,2.91,2.39,126769036,119495000,6970000,147039427,3
416588939,6881506,260349470,2090476,261053795,2088202,930015,5850330,1097804236,4088247,419325389,25815,250050,1271333643,2667,7.62,6.31,324257728,262676000,61157000,343967803,3
198914063,7204768,135660302,3157914,136592965,3158136,1008492,5321307,840368053,4577908,200001550,3267,631220,666703923,3259,5.79,4.78,249444028,183129000,66046000,269128452,3
417029679,7073551,259963160,1651155,259557218,1642578,899722,5913808,1100311679,3928335,419052196,600,235461,1271455621,2861,7.67,6.35,325812794,266651000,58923000,346335383,3
203038578,6759257,135703110,1403218,136236440,1396854,746703,5136856,830761664,3680262,205196858,101,489327,668557642,2475,5.68,4.69,246830536,188375000,58115000,267029610,3
154557053,6512036,105439553,883119,106286575,889904,715177,4677649,419645242,997832,152135164,264,38869,506664715,2477,2.89,2.37,126999912,115763000,10977000,147899766,3
136056894,6442709,94170974,868491,93545591,887135,752623,4764995,394030514,1033964,128971438,82,44370,430329165,2479,2.73,2.25,115506215,109107000,6005000,136545144,3
138343435,6516514,94242501,857979,94158891,878119,754520,4779211,386889710,1024437,129401293,146,43507,434124662,2676,2.66,2.2,114290700,109904000,3996000,135554799,3
147886333,6735793,100509776,903400,104971461,912962,756449,4458049,409738298,961172,158283398,140,46565,494005961,3261,2.86,2.36,120212280,111771000,8055000,141136652,3
201448492,6697180,136029656,1380811,140172376,1386483,867677,5292739,804343256,3425267,202515274,381,544584,664759426,2867,5.59,4.63,237645071,175282000,62099000,257814062,3
407619941,6962348,258863423,2069252,259565107,2069620,831189,5797081,1123227053,3828982,409333579,566,949053,1258016459,2472,7.89,6.54,333324237,280092000,52828000,354436830,3
153578517,6532150,104444439,882138,105380182,892058,723132,4779093,421914293,1006931,154647118,143,39317,504548711,2477,2.95,2.44,123771280,118395000,5016000,144720955,3
193604448,7119043,138412254,2700729,140094938,2682223,1009779,4960115,538809816,1569881,193540819,4850,46764,609259356,3261,3.71,3.05,161747277,153343000,8017000,181856083,3
153586046,6558255,104187517,886514,104918498,895095,712384,4713677,414014480,996033,152029611,299,38522,502468673,2479,2.86,2.35,125320001,117054000,8003000,145602851,3
205615444,6691396,135120111,1416255,135531668,1423568,778406,5229497,825211906,3917214,207119434,19797,593353,676230006,2477,5.84,4.84,243572788,187363000,55810000,265180115,3
414495390,6856019,260275025,1636743,260417158,1639764,818769,5626171,1072099275,4097289,416763249,2872,67449,1264218590,2473,7.6,6.33,314716043,268334000,46057000,335890391,3
409884475,6768462,257809533,2092954,258253695,2090513,857159,5867942,1135695139,4144256,412534857,183,1054692,1264393588,2472,8.03,6.66,339290245,272004000,67001000,359308717,3
152382782,6528288,103390518,889408,104286286,895250,727991,4714761,418567595,981079,151554667,193,26748,499560744,2478,2.89,2.4,126732140,122457000,3982000,147799432,3
415450262,6966352,260048727,1644106,260259116,1655690,831084,5732154,1111733497,4189542,416897537,263,480214,1266752272,2470,7.83,6.51,327983719,270912000,56772000,348283312,3
149537912,6678237,103268782,932314,106310891,901337,777761,4826677,420947932,1039712,154336739,4223,36991,491724164,2870,2.88,2.36,126130591,116791000,8983000,146064459,3
137931357,6656599,113825862,932353,114107046,930792,734136,4877724,446605412,971293,139563493,91,21143,543043847,2474,3.06,2.51,134694064,121492000,12840000,155805434,3
204509229,6771887,136414455,1805259,137054352,1807609,743708,5122455,835251109,3947917,206333063,152,825916,675247712,2478,5.8,4.8,247892273,192739000,54925000,267989384,3
192876060,6752514,128679751,1398102,129115189,1399011,742699,5038318,781356565,3582781,195016074,387,598076,645399796,2477,5.42,4.47,232857870,177385000,55119000,254088679,3
362065388,6846730,225216748,1182380,226321386,1184534,824229,5375681,705036999,983739,368904571,19550,60188,1102012258,2928,5.0,4.14,211046934,201669000,9029000,232387041,3
417619202,7012057,260966808,1692160,261337868,1696322,868602,5718600,1060202837,3647469,419694088,196,86382,1281475662,2677,7.53,6.28,310021582,259785000,49958000,329331592,3
408527697,6375954,269430274,3521656,269877526,3522406,795882,4767108,1180330690,4255249,412974035,113,621481,1270574316,2472,8.35,6.94,351303498,285977000,64994000,371268232,3
153540203,6550981,104791613,880113,105556712,889956,729310,4670873,417377137,990980,151846480,22,37085,503143417,2478,2.89,2.38,126790945,122438000,3981000,146504995,3
204772306,6747769,136582629,1397886,137278423,1407251,773152,5203777,820233669,3745596,205972087,99,610888,675510563,2477,5.74,4.74,244641296,175577000,68834000,265190544,3
132052535,6570498,93572831,857477,94668198,858781,718865,4681135,387593808,1014080,125478238,485,30739,419743510,2479,2.7,2.22,117308033,110979000,5998000,136930291,3
145035913,6031791,97778448,750494,98501543,757205,481929,4318886,368391424,771369,143345918,3,17564,476510409,2480,2.55,2.1,111485869,105097000,6005000,132604872,3
407566781,7439498,258677326,2066482,259031296,2072310,848141,5827493,1134427553,4121293,410836232,80,904197,1256578070,2472,8.04,6.68,337402569,276071000,61015000,357203414,3
152645142,6558361,104062522,876331,104668626,881306,716585,4726957,415708267,980373,152359734,6,28324,498205705,2477,2.88,2.37,125344925,121028000,4034000,146303560,3
205063072,6773721,136714612,1398327,137414403,1410318,775387,5185997,811241643,3717193,206810202,4433,409146,678290798,2478,5.7,4.7,242207877,178010000,64003000,263136418,3
129073345,5738951,92119113,1154658,90529261,1307415,2212080,4593699,528552530,1953868,128469053,327,171996,456416817,5992,3.56,2.88,158542683,142155000,16017000,181379198,4
130175066,5935429,93095342,1096601,92046675,1040734,2290562,4782289,543970018,2022363,129603877,273,337634,459902099,6771,3.65,2.96,162694556,148326000,14030000,183159447,4
152232184,7784574,106600999,1173418,107120730,1103376,3044088,6124831,681226644,2473214,158341426,1388,220064,542534715,8587,4.59,3.74,200425855,183078000,17007000,220710366,4
169390347,7236938,124045947,989629,122212167,973491,2864320,5990903,634338697,2478769,166897119,327,72654,612829822,9498,4.29,3.49,188966965,172547000,16050000,210091253,4
348958151,5746953,222728144,1094292,221705291,1227193,2187390,5363014,771429840,2000036,345663562,366,157387,1059198676,7160,5.41,4.46,229290255,216952000,11997000,250111428,4
128361489,6766471,91302730,1284144,89448272,1199826,2287685,5595701,539634598,2099797,128405376,347,410416,447008877,5456,3.64,2.95,161464481,138008000,23001000,182170977,4
369254691,9359088,231744188,1623780,235293601,1684616,3727192,7979072,1179087364,2326494,402524752,404,187610,1177227479,8473,8.08,6.61,349993948,324411000,25031000,370403298,4
144402825,6842397,104866615,1076413,105866213,1124454,2790036,5675287,630288845,2255497,150870947,418,251979,517949313,7970,4.2,3.41,187508249,160255000,26875000,208918858,4
354035680,6029681,222548164,1374706,219567486,1378020,2174229,5017055,802824767,2009315,351251608,475,39200,1091471370,6780,5.54,4.55,240035790,220731000,18976000,260943475,4
372857908,9355993,238047505,1677946,234214756,1618652,3652471,7636218,1007818144,2639257,365521394,534,102071,1149641742,7765,6.87,5.63,298139765,277797000,20057000,318831661,4
145032331,5268312,102799216,896868,101207747,893642,1952889,4243684,492107765,1650568,145426564,353,31448,525890567,6966,3.35,2.73,148243308,130012000,17864000,169242986,4
132087384,7051290,90188676,1081540,89877173,1037509,2436434,5158037,564296906,2336905,132351533,199,86056,452662759,6505,3.82,3.12,165868992,157582000,7978000,186196758,4
121983412,5110298,85066805,731730,85346838,724404,1593450,4385918,462962141,2150193,124963522,52,19526,427232293,3259,3.09,2.52,138719098,129358000,9025000,159809325,4
346897136,6546203,222483316,1643219,222014600,1616824,2470574,5533328,846934218,2092978,352688555,227,182828,1058847619,9025,5.93,4.89,252800813,231511000,20955000,272099695,4
125630726,5280591,87608096,757110,85794165,748696,1818155,4542448,466607710,2137005,129321726,178,18015,439985631,3063,3.09,2.51,140468752,130165000,10012000,160823106,4
139473976,5113799,103384773,932190,105211796,935860,1832888,4109585,482411085,1653071,142780656,177186,33815,496070524,7578,3.27,2.67,145302429,123019000,22003000,166332049,4
125494455,5739828,89216262,1374634,88392062,1346455,2098193,4349968,512549139,1961719,125229789,139,217539,444302852,5211,3.43,2.79,153528635,139269000,13926000,173000200,4
142226246,4884576,102425521,922272,104170420,934003,1799342,3855003,479060235,1622547,147506271,528,32208,502404663,7187,3.26,2.66,144745477,132432000,12039000,165721283,4
131856272,6699583,92491704,1110613,90758712,1148004,2630453,5312074,576471668,2064240,135646516,63,265549,465253600,7164,3.88,3.15,172282781,161881000,9992000,192165549,4
125707757,5665530,88419634,756976,86633698,755766,2126268,4805424,535254176,2360107,128055628,47,25433,435538134,4432,3.61,2.94,156978760,146615000,10042000,178145561,4
349517440,5081070,220775481,1022395,218104952,1002697,1904778,5005527,784014793,2385644,334941092,212,30310,1040969768,3255,5.5,4.53,233039508,224693000,7989000,253803736,4
346450059,5069853,215660037,1076537,211907405,1071505,1718480,4667304,753902083,1923347,349138230,61198,24745,1049499187,3253,5.25,4.32,225487108,216163000,9006000,245982012,4
201899832,27057024,148254699,7603116,150774442,7625871,5681799,18584088,1416758744,7099751,205270377,913,80664,708323495,10538,9.53,7.76,419323434,398993000,19999000,439727877,4
142074094,5669922,105210878,973742,107209740,1000502,2149201,4575446,537100057,1771913,147364510,156,48980,514017124,9233,3.73,3.06,157754260,138372000,18914000,179192633,4
131086065,6574812,92056840,1201108,90736376,1254769,2362603,4762010,566915972,2098328,133598046,152,474797,469031660,6784,3.84,3.11,166966552,156620000,10039000,187426674,4
349443357,5892280,220418436,1210550,218504112,1125244,2175922,4804269,758107854,1832703,344580078,46,180939,1059612422,6730,5.25,4.32,224111712,203869000,19889000,244266790,4
132577736,6698101,93640093,1122768,91864644,1097090,2654078,5331887,579705630,2105944,133907861,132,351370,466485002,7165,3.93,3.19,172716596,152297000,20039000,194434244,4
156536657,6092696,122280176,990054,127160408,975750,2439717,4805680,587194831,1901455,162042786,35,58433,571289058,10537,4.06,3.33,172459332,151076000,21010000,193120196,4
344440416,5163560,216331971,1016037,213152368,1002786,1730833,4647304,752120939,2172464,346393198,109,24666,1040132773,3057,5.22,4.3,224069509,216656000,7021000,245041279,4
145555239,5151641,103773231,886809,103650843,925878,1964380,4163702,494810193,1733481,148273515,406,43288,523608713,9038,3.45,2.82,149518337,130154000,19022000,170445045,4
119998676,4259525,88162158,714234,88446142,690244,1495662,3668697,421552959,1814550,121287575,15,17179,420963420,2867,2.88,2.36,124113845,117857000,5992000,145408696,4
345652284,4662021,218118628,1162145,215070523,1315170,1910390,4688116,724965783,1639110,348270777,39614,121284,1057540233,6337,5.16,4.26,214969199,201528000,12969000,235249612,4
162799482,9157177,116310487,1395613,114297606,1483260,3803539,8225751,897796246,2843539,164982876,203661,218854,584783337,7893,6.07,4.93,266950927,243403000,23038000,288829211,4
184415867,13036568,141849314,1036732,138853893,1047965,4649981,10742579,849995818,3504691,190623511,70,275160,768955338,23566,5.94,4.86,248994429,207829000,40770000,270295361,4
137276678,6751128,97979488,902782,98167214,918119,2334891,4993931,569540550,2186886,139398876,127,44893,491163633,8396,3.93,3.22,168254319,153872000,13988000,189824998,4
351419569,5839863,220852612,1728988,218633646,1626313,2011474,4665041,743938833,1767719,345237649,59973,212313,1064495829,6954,5.34,4.4,223274422,209905000,12932000,243488426,4
347617957,4634660,218166189,987622,215373432,987452,1655139,4433576,738018491,1942926,340963112,1377,24396,1063532504,2869,5.25,4.33,221164552,209697000,10932000,244193043,4
129530105,5983564,93828521,2533737,91067808,2378633,2319667,5062883,567072787,2178331,131747455,40,27348,456024127,4560,3.83,3.12,169302529,156954000,11996000,189705553,4
126978414,5114328,90528677,725156,88507631,709748,1819606,4470226,444376768,1858422,127225975,67,302263,442706252,6213,3.05,2.48,134468512,123129000,11011000,155674790,4
132663405,6571330,94750987,897249,92303999,853109,2469588,5109595,504799727,2330712,130409305,97,246323,472932424,7515,3.46,2.82,152768024,132380000,20057000,174180525,4
148275453,7029057,106834373,1538208,106891286,1593348,2661960,5766873,610800521,2208331,142031881,144,38270,526958887,7577,4.14,3.38,179907116,161483000,18054000,200983576,4
345688599,4649838,217356190,1005134,214951429,1004969,1627302,4335707,743250472,1895041,343729287,1603,26306,1056486963,2868,5.15,4.24,221705421,212447000,8976000,242775556,4
131077621,6365330,93695014,1109678,92398778,1120147,2523522,5268739,567311515,1945375,125428484,289,360555,449621205,5994,3.79,3.08,167052828,148665000,17959000,188305662,4
182347915,12909666,138279094,1961115,139136590,2251418,4689840,9503883,971227174,3179269,186530234,1678,174944,704276568,11090,6.54,5.31,285539063,262170000,23014000,305406575,4
126060194,4748072,90208324,936927,89637176,965145,1770054,3842800,434852991,1547194,127332843,12,35785,445761680,6570,2.98,2.44,128874481,114538000,14066000,149530621,4
126437346,5435261,88221568,1138199,86391380,1153246,2056777,4408473,508295919,1979531,123909576,75,28719,432837383,4344,3.52,2.87,151803117,142509000,9032000,172578824,4
127894809,6009253,91684622,1255732,90715875,1149963,2246139,4995887,551813015,2104375,126258898,216259,841766,451335724,5601,3.78,3.08,164091085,150788000,12981000,184232526,4
348892624,4571504,220358670,1029837,216687488,1232414,1849905,4439001,720926082,1579213,349619127,34,157285,1062304876,5947,5.09,4.2,215243826,196918000,17992000,235518866,4
349097045,5694463,221165843,1318498,217532264,1425198,2349449,5248444,821555752,2023556,349978828,1039,265366,1065438198,5989,5.84,4.8,244510927,229073000,15004000,264851861,4
125536911,5282550,87439579,809342,87180758,757017,1866019,4237994,490451346,2007174,126221793,152,132517,434463269,4169,3.31,2.69,147816113,136481000,11038000,169362229,4
179205367,5597726,134187252,937089,135146916,965739,2070023,4442295,571212514,1925290,181801014,2162,268236,684336745,9657,3.96,3.26,167712263,150366000,17041000,187814188,4
128403030,7479537,93806023,1504523,93396603,1453605,2893127,5895350,609302224,2429966,123195519,13,608935,438236403,5993,4.1,3.33,182203455,167913000,13909000,203803349,4
130020422,7280972,91745779,891261,89589302,984709,2812468,5881653,596256972,2590330,131654923,117,361915,451881588,5992,4.05,3.3,175561799,161227000,14019000,195058638,4
188882102,8434617,141024132,1647989,136754911,1515873,3060221,6247176,708540374,2266494,177816752,134892,212169,695511496,11462,4.82,3.92,210664435,179220000,31038000,231881445,4
349063508,6613418,220699297,1559150,217567728,1609120,2509429,5422886,807810017,1915769,347894506,169,39655,1066369760,5987,5.63,4.63,240543238,225134000,15008000,261101343,4
420771165,35601627,278013678,10686769,278623482,10678423,7609017,24905985,2038023100,9414770,421539394,3624,224319,1290411232,9503,13.74,11.23,601279865,579914000,20996000,621597569,4
147404083,5822350,103890325,915784,101096433,912758,2117757,4621999,514458428,1962251,148275812,2119,38235,522852773,7968,3.5,2.85,154763211,139505000,14947000,175213034,4
149863405,7083684,106059096,1109802,104067702,1071071,2644412,5685513,620360294,2503227,150169213,24449,68016,530736461,7123,4.2,3.41,186615140,163379000,22912000,206444464,4
406411293,18002961,260975227,5904844,257999879,5891483,3551793,12838968,1251576965,4555988,402686865,304,66541,1249772845,8291,8.59,7.06,369741533,351538000,17976000,390387623,4
129493375,6229488,94118662,756934,92697165,739148,2298587,5488686,505213416,2490022,123006555,276,29033,446935545,4489,3.41,2.78,150216074,140839000,8989000,171083686,4
149925426,5323897,105578944,906000,102461287,885341,2059076,4311065,510451372,1861501,153123388,647,38336,530575282,9038,3.51,2.86,153107896,132880000,19982000,173945413,4
354342558,6326840,221555188,1459975,218954561,1484743,2577319,5490779,866694258,2075343,360979438,164,350794,1080564332,7548,6.17,5.09,254561331,229311000,24925000,275892764,4
127542988,4404691,91646592,649059,89563270,819079,1757985,3936099,443077665,1580440,126889653,168,238071,452243390,5954,3.02,2.46,132942535,119633000,12853000,153095425,4
128249933,6129384,91626476,1080847,91078045,1136058,2429245,5043871,550669899,2167909,127546588,166,499440,450591070,5600,3.76,3.06,165273274,151979000,12998000,185446051,4
126256387,6614753,88247752,1031625,86701121,1146865,2597962,5508313,557677180,2181466,127436736,35,136814,437787042,5124,3.75,3.05,166310964,152925000,13079000,186514267,4
137378108,4728436,100266115,912411,100895494,929920,1723078,3795202,477601322,1736124,141675874,72,30456,493642869,6570,3.35,2.75,140994683,127624000,13063000,163475498,4
123997491,4681141,89828715,1070810,89712735,1071119,1720978,3799609,431244298,1621973,124537736,35272,29805,440285014,5953,3.01,2.47,126859886,117444000,9034000,147076524,4
363086117,6042336,229926410,1180612,227326758,1195776,2159987,5245641,798233802,1902138,367363998,30,40004,1129846285,8189,5.63,4.65,237157951,222958000,13934000,258268353,4
148155443,6049341,104804445,946898,106744403,972202,2312094,4802246,530494344,1949382,151756437,67,43464,526195836,8001,3.68,3.0,159376980,138067000,21010000,179120107,4
126715526,4899628,90620198,747502,89032956,870139,1860323,4526763,448555635,1660445,127978321,218,186012,450782280,6196,3.02,2.47,132719850,112459000,19904000,153025314,4
192007925,9731030,143008583,1721820,140564406,1713834,3584509,8012130,907547697,2427751,186415943,265433,127674,690110934,13992,6.04,4.96,255654757,223408000,31915000,277268549,4
119301115,4742849,88569236,740333,90279569,726092,1646964,4260352,461792185,2020904,120589684,359,28085,420602106,3258,3.16,2.59,135610058,129340000,6015000,155223709,4
348147557,6521445,220787349,1420710,218615196,1353774,2496992,5697337,840618714,2144480,348236152,222,309026,1060428831,6182,5.86,4.82,248279055,232829000,14989000,269833173,4
346718645,4548094,217504979,1087431,213451194,1284258,1802868,4253670,730814536,1549040,348079365,35,76802,1053974727,5331,5.21,4.33,214096434,201707000,12042000,233691915,4
345154910,4766846,218475232,1039995,217555707,1029365,1641707,4471228,747787286,1812245,343589312,591,28673,1058345256,2868,5.27,4.36,219627734,213285000,6008000,240432859,4
128214941,5859783,89640711,938149,88021669,983468,2308142,5095869,534049325,2139633,127789988,72,121165,438190862,4994,3.64,2.96,161532727,152274000,9016000,182232046,4
134991357,6698116,94730476,1084405,92799497,1073491,2603903,5285724,581228369,2109872,134688482,110,507952,475388061,7555,3.94,3.2,174611199,153320000,21044000,195682734,4
125702437,5384501,89273093,726510,87452967,715415,1703098,4266238,463979880,1933255,126864774,1314,22427,448495979,3071,3.21,2.61,139690649,133115000,6005000,160604787,4
391191342,5208206,252927075,1244325,249762167,1278521,1954276,4552909,821088066,1588106,394326035,286,38794,1238870330,7376,5.84,4.83,243221431,224846000,17987000,263336928,4
131704519,6814949,90740696,1257292,93137884,1176044,2314647,5031167,554000663,2448187,136475210,74,261472,459494316,6578,3.75,3.04,165806709,150549000,15054000,186485320,4
193034619,9916069,138094498,1359624,136737862,1421706,3967024,7734023,775298679,3239257,190768971,398,85213,693060568,10138,5.28,4.31,225826733,207409000,18035000,247234658,5
254264591,9372623,188506661,1702021,193277710,1589712,3465199,6977041,903121342,2766300,264132369,1575,465001,930677943,10429,6.11,5.0,264352095,239876000,24088000,285360460,5
397485257,9214586,250575818,1269138,244197419,1254686,3397438,8601823,1019114805,3594336,393850918,527,40770,1236704815,3449,6.95,5.7,303774355,296418000,6986000,324232732,5
390231944,6760921,244703688,1144447,237906052,1126976,2262537,6241822,923313106,2818337,388649037,16948,38546,1213812994,3451,6.4,5.26,274029418,266644000,7016000,294369883,5
161589496,7947250,114040000,1061021,113989164,1195193,2927978,6706741,627929224,2365890,165149020,185,372091,577200638,6622,4.21,3.42,187171745,164833000,21977000,206846128,5
388281829,6758523,243183863,1286535,236412523,1270861,2254170,6185803,924704441,2799762,389938990,183206,28770,1213256725,3451,6.3,5.18,274704085,268340000,6007000,296116617,5
212041241,8629707,155453324,1489958,156008909,1486678,3174333,6521152,761346514,2389198,210355897,1295,79432,795689913,12770,5.17,4.23,222865236,193305000,29045000,243262302,5
163012209,6657417,112940909,1101122,109687545,1104858,2070920,5475503,624147460,2788162,161385662,458,169447,570698071,3460,4.14,3.37,185277701,171866000,12989000,205981315,5
164654577,8102187,116719963,1534641,116163039,1761271,3202123,6413949,723504530,2467355,169263997,191,490526,602820465,7165,4.81,3.9,215980874,198685000,16888000,236882779,5
460269181,12020227,308557134,1897331,310557457,1861834,5270261,9775189,1326954704,3692061,454620823,680,255764,1485915775,14740,9.05,7.43,390556887,371089000,19004000,411065191,5
165403276,7544308,113559938,1526448,111958458,1416014,2880763,6278799,688339759,2658662,166717884,266,507378,578504744,5408,4.57,3.7,205660273,190286000,14943000,226558206,5
193635991,9319200,141335261,1234580,140275522,1219672,3519805,7519953,776754112,3279921,193013842,420,242408,738964289,7466,5.21,4.23,232258637,215930000,15994000,252199933,5
169898526,8897508,114427164,1967429,112188459,2006523,3458264,6714457,804180063,3016770,169700536,35,619752,594682636,6388,5.3,4.29,239589103,228282000,11013000,260006922,5
362572559,5911800,237234918,1158465,235335619,1165097,2032842,5553176,911201489,2558659,355227785,12280,25351,1143576156,3258,6.25,5.16,267273189,257010000,10000000,287886288,5
396905424,7003949,250375855,1234007,244045349,1220460,2388064,6075240,971222262,2502319,396443784,233,31758,1277016346,3457,6.68,5.5,289364960,278913000,9996000,309742499,5
398038597,9760778,253725877,2022452,252146399,1816889,3718188,7682218,1087337084,2914927,380352621,361,577764,1212172084,8333,7.45,6.1,322653784,302224000,20014000,342241024,5
412324780,13741420,266464222,2617250,273714456,2644023,5880498,11152490,1546924162,3141794,442770747,473597,940103,1338957868,11213,10.41,8.5,457559355,439195000,18008000,478633807,5
386045789,8890083,247607240,1658271,245515796,1479961,3166853,6744985,946712415,2747978,384442545,125,370404,1192998555,8179,6.57,5.4,281683736,258286000,23025000,302410423,5
151001685,9811887,136767419,1455349,138567885,1348856,3326515,7520124,811948955,2897006,153397287,222,414440,649728464,5684,5.38,4.37,241597746,233286000,8009000,261865715,5
209235716,7987348,149760939,1488702,148262324,1418447,2923461,6218567,723520730,2276919,207176600,1732,49568,759423968,9599,4.92,4.03,212117113,193752000,18070000,232833385,5
233991594,11758366,171618481,1404029,171162509,1350299,4887279,9370832,972652233,3673944,227849077,33564,385158,862745630,13169,6.55,5.32,288087357,249814000,37971000,308827280,5
187419862,10998892,122033056,1941775,120040349,2000894,4569330,8294006,912814002,3238593,188888950,84,750081,633548055,9120,6.11,4.95,271628609,245258000,26027000,292753487,5
199701833,7421077,136199161,1085279,136834574,1171119,3177006,6326125,699038209,2348319,196646207,687,364317,711303620,9552,4.77,3.89,208478287,177299000,30877000,229683014,5
158994055,5656006,111863040,835447,112294379,834956,1974995,5038430,592208173,2488093,158890212,66,22856,562881279,3458,4.0,3.28,174702748,168492000,6017000,195980449,5
436872535,8367344,286556380,1866960,285599081,2048696,3282350,7249451,1077837026,2369089,449650806,254,281208,1443968586,12760,7.48,6.16,318464900,290151000,28014000,339278140,5
167600014,8727557,117799068,1597221,114773985,1485073,3657684,6561551,762481755,2592578,167315656,67,532346,603754050,7944,5.11,4.14,226971795,210672000,16051000,247080171,5
386887120,10055199,248394600,2145664,250002806,2079894,3436828,8358467,1096047636,3212353,383126601,149,580871,1214626742,5692,7.48,6.14,320618493,310289000,10009000,340802458,5
162190866,6890620,113450444,1402004,112624815,1345734,2649678,5837614,601939939,2335592,163326902,41,312171,573463398,5992,4.05,3.29,179557071,167163000,12011000,200212835,5
175239528,8863263,116393542,1632790,115740719,1623531,3247192,7102293,733497040,2880090,175004571,203,491527,600257314,6579,4.9,3.97,219184595,201959000,16996000,239835414,5
212513460,8910420,147149776,1235309,147130892,1334179,3352358,7201913,758825447,2685052,216483117,106,234505,744428761,10874,5.19,4.24,221460355,194319000,26905000,242099219,5
167300370,7482313,117181058,1326012,117011869,1453888,3037863,6044704,637717906,2360821,169020310,23,107932,597531048,8088,4.31,3.52,187118583,163797000,22971000,208243724,5
161102994,6526944,113725436,1252939,114200683,1358420,2697519,5917082,604534949,2459657,161585543,160,234309,574936909,7013,4.06,3.3,180057592,166710000,13055000,200266576,5
165602941,6868392,114501485,869258,111807723,881138,2565486,5943155,675471484,2875816,165988230,110,32173,582807622,4823,4.61,3.76,199635806,188250000,11014000,220685346,5
206020447,8987428,149226533,1091511,147210544,1085035,3639084,7318196,770180754,2853629,202778069,327,340097,766055432,10433,5.2,4.23,229602800,204288000,25035000,250841450,5
205985695,12070611,141994947,1306109,142293657,1448717,5039654,10864642,1149331277,3922295,209332467,169263,64473,733844632,8091,7.66,6.22,341012494,328688000,11988000,361607241,5
390000830,6877102,244782520,1139703,237851451,1122523,2279789,6285856,929323310,2686602,388810945,16760,32664,1214749232,4038,6.45,5.32,275019252,265615000,9020000,295619225,5
162604214,7091924,114431616,885301,112582585,884028,2554773,6134945,679194428,2947735,162797336,183,30931,574338455,4434,4.53,3.69,201819117,191603000,9927000,221645306,5
164496071,6804938,115252325,1298421,114608307,1391434,2867417,6383561,609559297,2529560,167544574,5,28462,582005796,5551,4.13,3.36,182607540,169251000,13019000,204315464,5
219607034,9775726,158599180,1220661,157381324,1144068,3798422,7486067,831443727,2835103,217713261,2599,244140,807012777,14426,5.66,4.61,247721720,221476000,25938000,268080467,5
293836672,14386534,186918948,1780491,190578165,1581178,4037405,11027777,1218353915,4522403,306869815,4422,50108,1053643604,6953,8.32,6.82,359641738,343312000,16014000,380044880,5
167262271,10432018,117644818,1831479,116539581,1821356,3927200,8310115,837645360,3158822,168123719,173,639421,598828727,6674,5.59,4.51,249306291,234212000,14949000,269941205,5
166962308,7550333,113110099,1802288,112098377,1703743,3008134,6209868,715142388,2540395,161885637,101,395433,572092435,5561,4.89,3.99,209723965,199336000,10016000,231195942,5
164519516,8123056,114409898,1612262,115509910,1513871,3001198,6185066,703567392,2742851,165426675,28,433822,584791220,7163,4.73,3.84,210340958,188085000,22009000,230683297,5
301215346,37917806,220747762,12660371,221634213,12614314,8836403,26371462,2075752272,10864502,300750032,398,309975,1068464179,16136,13.87,11.29,613970907,590750000,23029000,634471695,5
164966770,6890985,115367203,866888,115538466,863862,2600067,6002242,685791437,2979789,158782285,175,39697,574407201,5217,4.69,3.83,203387134,191102000,12006000,223577410,5
396981782,9170837,252425964,2072207,247484937,2205654,3874076,7908142,1129350901,2782951,396375173,36300,684685,1249194244,7160,7.74,6.35,332902268,314654000,17923000,352984484,5
185493143,6892476,128001640,1537342,129023126,1827792,2791080,5780273,665067843,2251501,187931796,198178,293761,659856475,9160,4.53,3.69,199945325,181481000,18047000,221171776,5
391126512,6131541,249146795,1205872,248704439,1210442,2321256,5786548,952495248,2588374,383427228,266,132102,1193398695,4428,6.56,5.4,282337554,269975000,11998000,303356573,5
163589925,7675640,113870284,1641410,110446675,1650642,3122547,6267373,712159168,2515839,165809352,22,239895,589033256,6399,4.78,3.88,212643312,200284000,11957000,233389710,5
161743400,6708269,113234051,1088746,113310883,1075528,2524413,5674549,602979760,2166158,163156892,59,314113,580116160,6429,4.1,3.35,177011400,163733000,12978000,197244908,5
328866095,8412058,220254329,2451151,218152335,2540731,3486937,7506922,1558406805,8205855,326683461,190,1697696,1151977227,7845,10.64,8.74,461434514,346108000,115036000,482204761,5
194303640,9706794,142371050,989172,141623954,988438,4278709,8255040,976790937,4575929,201232938,703,54713,713685872,8339,6.51,5.3,285981195,268583000,17037000,306780528,5
486473060,18592837,335183505,1516912,335979626,1517414,8650840,15162945,1598955149,6388919,475390753,321,199871,1631027155,20773,11.02,9.03,467179068,422881000,43987000,487897536,5
167626049,7605975,114819239,1371138,112598548,1605358,3182076,6300297,718538702,2478885,165305831,149,346484,584014831,5993,4.82,3.91,214178898,196809000,16983000,234929902,5
380129459,8440222,241476984,1833983,243941253,1712373,3063856,6723417,1070161562,2395251,392968154,168,349977,1202261492,6377,7.52,6.19,313555038,300186000,13008000,333933387,5
493654345,15086451,324822278,2035174,326946948,2019744,4555561,12719511,1519627556,5054724,491072279,3213,92664,1612012009,11634,10.73,8.82,449620720,422229000,26950000,470028588,5
387987784,7499609,243181316,1546786,241269223,1413615,2855877,6437969,915267495,2181955,396574507,202,294219,1228966010,6620,6.5,5.34,273246152,258907000,13994000,293901046,5
166576946,7608493,115278646,1169204,113170337,1143217,2854083,5961536,606751430,2375019,164987480,242,55717,591707590,7209,4.2,3.42,181663957,163247000,18027000,202121800,5
165972187,8021684,114644002,1385325,113188393,1318963,3393170,6795054,778619740,3182503,167005699,107,167052,574534732,5863,5.3,4.3,232623283,218268000,13953000,253503046,5
393539765,7184917,248350742,1951779,241903821,2107822,3387990,7604196,1046328058,2944394,385621545,72,69644,1209786612,4989,7.2,5.88,316467212,307196000,9005000,338104661,5
163484447,7592778,110478510,1340167,108247235,1338359,2979566,6204695,697686352,2587594,167435240,88,167062,566545246,5777,4.72,3.84,207356986,196055000,11003000,227616147,5
390020964,7457682,243702489,1412465,242054343,1444370,2905147,6609508,914409418,2308242,393272177,203,230254,1222584697,6425,6.41,5.28,272541106,259168000,13008000,293266824,5
398424234,11016348,253430999,1559482,251442390,1354178,3018494,9025618,1055223986,2884285,394218268,114,296048,1233051484,6489,7.51,6.19,310832002,293549000,17031000,330282138,5
178012261,8640714,120294992,1619947,119096170,1626959,3426862,6821975,753750856,2644225,178457514,32,516235,614705344,8148,5.11,4.16,224944631,205647000,18967000,245664457,5
401078598,10761579,246527937,2169880,243806845,2160924,4192256,9076890,1155057628,4203732,401794579,11508,862001,1246395754,7161,8.04,6.58,342507059,324228000,18012000,363885905,5
388982161,8239480,246949401,1370132,242586680,1454879,2996094,7174138,932702468,2466249,389679815,6974,572294,1220327772,6616,6.55,5.39,276892523,258710000,17910000,297282224,5
166273090,7397786,115150113,1229425,114176445,1379419,2855356,6022402,609204169,2294727,165397354,8,147856,592339882,7061,4.18,3.41,182066795,158573000,23083000,202548282,5
169525859,7567800,117409753,1028121,116120046,1176120,2875406,6127771,629951149,2567540,171904831,133,416761,601921102,7652,4.3,3.5,187537467,169293000,18031000,207592364,5
164868227,8053420,114769009,1509836,116286341,1603549,3057897,6182227,714568427,2562599,166867324,63,492577,580159221,6581,4.97,4.08,209117082,199787000,9035000,229468779,5
159868408,7491434,142066642,1064338,140616175,1061045,3004885,6784932,659941063,2711481,157355634,210,545308,709299346,7644,4.6,3.77,193918203,177554000,15959000,215536666,5
185741261,8524097,131082390,1410425,130287919,1401260,3060260,6686047,678482226,2401180,185446821,270,49360,680206265,8964,4.71,3.85,203447915,185068000,18006000,224161108,5
153571411,8149755,113257111,1402816,114610060,1383833,2667961,6515604,665827142,2586503,160146043,58,63553,573075759,4157,4.53,3.69,200427366,189134000,11007000,221315869,5
385617626,7042821,248136751,1535334,245836270,1599107,2731899,6301132,899832516,2227481,384013588,33,347757,1187963465,6424,6.31,5.2,267387165,255021000,12001000,287339434,5
396377463,7447375,250905658,1409537,247797166,1248121,2983894,6528126,937463868,2538003,384796152,69086,513816,1234164987,7447,6.6,5.43,278351919,258952000,18996000,299081040,5
167643496,10552629,118803431,1253035,118016345,1483097,4424530,8559921,836981725,3365311,165767644,346,708756,595298120,8145,5.64,4.58,247249082,228964000,17997000,268045415,5
494517037,14992489,330950657,4600806,327337529,4741844,4795332,12147139,1424145704,4256743,498950813,33808,276980,1627262751,13037,9.93,8.17,421581341,402304000,19014000,441876217,5
256976664,10387741,189215808,1345665,190364915,1375163,3795529,7748658,894488256,2604937,262351617,1255,168087,990261619,18231,6.27,5.14,265455584,224182000,41033000,286164361,5
167365479,8142880,117192733,1534002,117415879,1649114,3192815,6468456,727269977,2515360,169245318,57,410850,603956053,7363,5.02,4.1,214803059,196481000,17952000,235014872,5
223115745,9204646,161542765,1265757,159418447,1126407,3358930,6859769,813056216,2630734,218749019,522,361406,825858162,15648,5.71,4.68,238886120,205434000,33069000,259563093,5
167211175,7005785,117690081,877937,116096730,805669,2533030,5703715,606992962,2421855,165891898,109,233558,603890907,6583,4.16,3.39,180636429,168322000,12023000,200297661,5
166090894,1470792,121102028,1573075,122965676,1553930,205541,824557,274585812,56948,176011234,116,18222,573991616,2365,1.93,1.59,84711448,78307000,6023000,106051543,6
285166767,19667602,211859447,9405524,210786589,9488174,5059401,14867815,1381038703,6578285,285155988,69967,87418,953562171,10098,9.16,7.47,408029682,387624000,20032000,429279080,6
189909708,6413294,140841338,2494597,140283435,2454198,1279732,4347977,465882022,1853621,193050442,211,31108,666168671,3650,3.23,2.64,139645022,129179000,10013000,160531385,6
166147909,1901556,119295977,1710060,119798583,1534094,214665,896449,261452343,72811,164762644,40,13273,553547060,1695,1.88,1.55,79856735,74530000,5035000,100192091,6
754304505,19382443,487248062,10261988,485149492,10316186,5236769,15960047,2004031126,6464721,753530588,123041,112866,2259129294,10089,13.63,11.21,591124810,561731000,28986000,611297483,6
244744054,23394183,175415308,1994760,174255004,1916764,556092,1869189,610239815,3355621,245276692,122,32774,785000534,4430,4.15,3.41,181728028,167329000,14027000,202302868,6
701228723,13400339,434031060,3237803,432926519,3368646,654500,2246211,1171951437,1740526,695276384,16549,50315,2055836917,4231,8.23,6.83,347750973,334321000,13012000,368462395,6
697828329,11702349,436417516,2762248,432279890,2801895,2160604,8529940,1212866166,3447405,703454056,1082,71059,2112967331,10937,8.55,7.08,359575682,333210000,26016000,380303555,6
747165865,19417507,485735198,10837259,486592839,10772828,5256331,16032374,2024443909,6795818,746217802,210011,102872,2227602216,9699,13.83,11.38,597660326,569227000,28011000,618753746,6
206411070,2157484,131238084,1772369,127478189,1662816,258844,890019,310585517,103280,200916477,149,14667,619612282,1697,2.25,1.87,95357479,90015000,5000000,116100967,6
751711901,19446968,486211418,10241233,485199202,10307249,5201426,15782870,2005476837,6488176,755115538,103750,115176,2254419708,10090,13.71,11.28,590695979,572401000,18012000,611545548,6
754818937,19573346,487791166,10316366,486568625,10304413,5371486,16089952,2017454667,6466281,752973356,117809,143495,2255968416,10092,13.71,11.27,592937185,569539000,23021000,613609499,6
264029101,16687921,197595276,10894099,198813447,10840639,3715200,11744745,1183331393,5725490,263473985,86138,73671,860961583,5914,7.87,6.42,353222726,343899000,8997000,373205138,6
167531679,867227,129203914,2503480,126826678,2336598,232518,867631,284718385,101797,165631272,156,10854,582301595,1308,2.0,1.65,87433293,83231000,4011000,109640672,6
285907171,19798803,210576185,9858719,208741352,9716180,5946108,15484174,1452640948,6649241,284172631,74890,113784,953418987,11774,9.49,7.72,428514751,409298000,19013000,448298999,6
286529669,19757452,210978438,9872015,211216817,9811289,5835380,15681291,1471757805,6758206,285752330,81705,108893,961576831,11770,9.63,7.84,434612681,409177000,25010000,456174054,6
1184887701,6813260,840140858,5669183,832897788,5741673,1707406,5862860,1826045648,1875494,1172828699,14411,62303,3845141834,3646,12.85,10.69,538052944,530641000,7008000,558968409,6
160030098,2486262,113216566,1926709,114130381,1784142,196542,866403,261243179,97724,165063372,56,24048,539822303,2084,1.86,1.53,80937321,76635000,4033000,101547799,6
266305069,27645057,195806826,4417644,192285751,4590809,626003,2206599,776917449,3556209,270065840,63,45698,882182823,6316,5.21,4.28,232113138,214777000,17061000,251087585,6
195678947,3043580,139114116,1630541,140722110,1689894,415242,1512372,347634654,161549,190593338,44,189696,641134529,5578,2.44,2.01,105707130,91389000,14059000,126564654,6
740828798,17449595,481533680,13222959,482981430,13318038,3824546,13565197,1903889261,5905247,748101872,29824,97177,2249825225,7400,12.92,10.63,564256701,547911000,15997000,584515702,6
186245848,1710036,148576341,3326244,148191659,3545264,247300,1085809,362698164,158619,180039190,85,22577,674259109,2606,2.54,2.1,108828761,102462000,5968000,129550873,6
315088520,35062591,231706761,7453996,236958760,7677490,6004898,24857720,1678135598,9620752,300357056,16533,118523,1047190826,14488,11.12,9.03,497454684,477083000,20003000,518579682,6
663016837,2504834,402854692,2576321,403127454,2390180,291863,1582148,930883964,112439,663342031,40,26538,1913503600,1690,6.64,5.53,277466719,270061000,7001000,298795809,6
201972911,1485817,125934388,2542672,125069089,2110566,340116,1141661,325799426,140651,204226262,1,10655,617979411,2089,2.33,1.92,99959336,92664000,6974000,120797540,6
164341011,2216014,113152885,1945195,111868715,1786308,231061,947017,300101329,92235,164278774,42,10848,555717805,1697,2.1,1.73,91640486,84395000,6950000,111432493,6
170527515,1741437,119470467,1619224,121851420,1555235,187796,795632,277426903,59794,174481789,0,12181,566389784,1305,1.95,1.62,83783754,78539000,4970000,104104301,6
282647548,19948629,210340300,9696583,210280148,9658109,5757466,15426783,1509123475,7147622,285159284,40796,113864,943010321,12515,9.85,8.0,445235395,428858000,15957000,465935450,6
354929960,38048072,262364513,7838420,259740118,7692818,5015908,15430639,1595486476,6062298,359621244,69594,111212,1202291707,10365,10.57,8.61,473081858,449761000,22987000,494437041,6
753441099,19274943,488762731,10433229,486163483,10339917,5196319,16064099,1993729666,6557189,750932227,76991,114620,2259449635,10092,13.53,11.13,586749360,564395000,22015000,607579538,6
178692659,2084793,132411913,2825979,127648502,2811364,439081,1294437,335716325,166498,183747804,158,23947,625521549,4796,2.32,1.9,102824659,91513000,10941000,124699423,6
169934644,857590,119843831,1686976,118883864,1611491,190712,730132,256512509,67554,164414085,66,8263,566577064,1109,1.84,1.52,79477298,76146000,3005000,100083260,6
753283397,19438277,487031611,10247730,485994212,10320824,5240098,15942460,2001973834,6499058,754360893,109732,100594,2257750021,10090,13.58,11.17,591605783,574311000,16979000,613666935,6
285647816,20187231,210240427,8640469,209155647,8623660,6236763,15782558,1509380239,6934393,288291803,75875,88649,948154300,11775,9.93,8.08,443937310,416586000,27038000,463875236,6
643142428,1359926,402772679,2167834,402476458,2091137,316450,1546672,899425579,97930,648856564,43,18007,1903685379,1105,6.36,5.31,267296561,262906000,3998000,288092164,6
175606920,2018514,130235480,2398582,134720692,2291166,235393,1015954,321522822,83327,181233247,60,20201,627401326,2847,2.3,1.92,94032475,87702000,6048000,114634632,6
670457335,5441381,428175889,4117499,424451912,4058644,2031020,4674660,1140377878,1153935,675849008,303411,54499,2003018705,9330,7.93,6.57,336157097,313690000,21978000,356995649,6
675104381,6187364,429427378,4588915,425959352,4304255,1392422,4925277,1106606573,1559918,676123526,102,36904,2041587606,3449,7.8,6.47,327576249,319260000,8006000,347593055,6
694027190,9483117,441448132,3321033,441999560,3294999,1934650,6733411,1220605258,2495152,688662036,9032,59437,2093281565,7990,8.74,7.24,361838421,341558000,19974000,383431643,6
568383669,27691572,409539813,10022896,416115487,9980034,2565014,7398233,1650340720,3802478,574963356,816804,174135,2044174650,15750,11.22,9.25,483478304,451205000,32014000,505083601,6
213470925,1324877,133624541,1518035,131956269,1463195,317855,1033538,307381633,116855,199273350,49,12399,606893138,2280,2.23,1.86,90837396,82375000,8036000,111711888,6
315299977,20379625,229851822,11475696,230081581,11375159,5269245,14415808,1453263877,6245818,310193065,49564,129351,1061240060,20354,9.66,7.89,428976778,395500000,33041000,449872628,6
697207560,17126948,437451066,2687785,434576899,2744510,636548,2457766,1189660397,2452129,707005751,244,44710,2034377090,5934,8.34,6.92,352632233,339069000,13002000,373683262,6
205120309,2610837,125507173,1756061,129116211,1713616,277457,1163086,327883545,132404,214881926,17,27713,641881584,4108,2.39,1.99,98894061,87615000,10951000,119615621,6
671032057,2739314,401178239,2419480,402704151,2454774,356839,1806943,956924273,124225,681423563,50,36082,1930379789,4101,6.87,5.74,282632114,273236000,9007000,302368049,6
242942281,8864211,180872045,1745634,180456980,1670139,1240509,5624779,539138886,2645005,241541202,26,27223,872968084,3259,3.83,3.17,158436560,153142000,5004000,179136108,6
634868380,2185719,399018795,3017722,398593045,3193618,332772,1763409,929847620,102435,639553406,207,33594,1876354632,3198,6.66,5.55,276578210,268193000,8005000,297374102,6
668776123,9317183,536407970,1963650,538226582,1975437,1141649,5734800,1142226270,2324006,677364797,90,39947,2393152924,3260,8.16,6.8,334988550,322693000,11951000,356293121,6
206663595,2098746,132149027,4264504,131726430,3779951,339558,1119865,372380277,142343,211513600,7,16927,643679391,2869,2.67,2.21,113432699,106108000,7007000,134400922,6
649753058,2428534,411011025,2282481,408331348,2085112,653586,2264255,920836546,213988,640789009,416,44007,1908450698,5785,6.63,5.53,273876639,257390000,16024000,295314499,6
655342997,1966135,402022679,2597796,405080104,2554159,477249,1920741,948306631,163050,661265501,101,30149,1924538569,3444,6.84,5.71,282744772,274195000,8005000,303182284,6
248677579,9690226,183588236,3131058,183594239,3074104,1315016,5797140,569467213,2492002,250240167,6,30293,862023245,4751,4.01,3.31,166813898,155501000,11035000,187717860,6
751190728,19409078,485929741,10380602,485219366,10437339,5085123,15885100,1999051214,6559228,755559475,121367,140018,2252607989,10090,13.58,11.17,588376339,566022000,22000000,608646755,6
283618594,19522505,210864490,9468239,210948237,9488221,5066800,15087574,1366058823,6618808,286413441,35305,89159,954785828,10095,9.05,7.36,405484281,383181000,21953000,426841764,6
388603696,11799409,287456599,13200850,287293081,13077679,3023447,9432872,1338719915,4722633,392382078,12565,112337,1423810886,8158,9.09,7.48,397278728,382025000,15000000,418547194,6
213290154,9138293,174773790,2296453,174205301,2258932,432290,1409280,557978823,2574488,213482557,17,38078,718480298,3845,3.77,3.09,168991142,163646000,4958000,190112448,6
220518593,6004600,175648716,2570122,172011453,2476629,1232056,4161656,504613321,1512620,223453237,85,27693,842055371,3260,3.57,2.95,148580237,139292000,8954000,169718702,6
204930252,9887189,165253957,6827306,164721165,6841236,1863374,7452219,660704086,1651357,199322453,114,66658,755302483,11288,4.56,3.76,193226374,170701000,22090000,214977240,6
198637339,5645104,137553991,2222238,135290420,2307767,1235421,4163050,440072011,1638043,193856806,192,23353,658975753,3260,3.11,2.56,132270409,122939000,8995000,152626004,6
700908432,15685872,445533750,2471310,443707853,2466499,544487,2162730,1186222086,2171231,702507841,39,38449,2048495413,3839,8.33,6.93,350105201,336628000,12985000,370859563,6
690032163,10004141,446588433,2377573,445475909,2391619,1676311,6408330,1134681343,2787899,680446078,2,43936,2081904620,5597,8.1,6.72,336310097,321952000,13997000,356616685,6
642370601,2351048,401328975,3273581,400228265,3366249,520452,1958180,947750804,143363,654857056,111,34935,1903689094,4794,6.77,5.64,281879483,267613000,13979000,302343540,6
330728622,22033427,237586832,2692730,236858357,2680105,7523127,17099870,1752240105,6058522,324991025,29310,117524,1173624496,18074,11.58,9.43,517753719,481426000,35957000,538802820,6
212840509,6040158,154078193,2492528,149402003,2270559,1167555,4099189,445089744,1502222,204974364,97,22249,750052093,3258,3.17,2.61,133912621,124609000,8971000,152837206,6
163490520,845763,122143902,2203442,121965742,2195367,175433,785265,276140319,77939,161046339,68,17147,553895386,1499,1.96,1.62,84236503,79881000,3994000,105355084,6
651396886,1400424,396400237,2385526,400873022,2282064,240029,1594012,918900667,110361,651506487,133,26093,1910211727,1874,6.61,5.53,274108670,268675000,5012000,295278964,6
285496050,19689327,213358390,9439799,215016139,9464166,5781747,15705845,1476295750,6701843,288433287,76216,90415,958237585,11662,9.7,7.89,436706108,412269000,24015000,457581942,6
166929935,1159976,130144597,2539079,130203017,2432517,249646,930791,301935802,102989,165974050,78,13096,574086670,1891,2.11,1.74,92182103,85868000,5921000,113158972,6
199736448,5630458,172312445,10550420,172207121,10246057,601557,4130781,601531973,134517,197143737,83,15751,825470356,4809,4.17,3.45,179066178,168788000,9928000,199984237,6
646016309,2105835,405153746,2499445,403940878,2568764,310006,1625025,911729120,128198,653671700,50,32344,1937014086,2720,6.56,5.49,266692672,262375000,4005000,287591127,6
182127129,1850283,133940101,1409427,130167459,1384116,276185,940435,291433909,88758,176430624,98,8410,611369824,1695,2.09,1.73,88601974,85273000,3009000,109330557,6
366586146,19120014,265928919,12479122,263457851,12348554,5859512,14264065,1590107691,8024109,366281411,68671,81983,1185962596,9547,10.61,8.65,469601413,445224000,24012000,490938610,6
168373537,1260723,128417189,2430209,125050296,2379390,288872,1020512,296333824,99251,163392333,88,11748,581777096,1696,2.09,1.73,89987489,84646000,4979000,111379520,6
216837843,3429421,136879330,2026301,132410307,1877239,486009,1330172,361964937,180883,216364144,83,195754,682310451,6358,2.62,2.18,109913075,93495000,16085000,130216363,6
692717326,9615146,469137750,2847856,467983102,3056122,458963,2126033,1161480581,2317378,688974361,58,45873,2148248988,3839,8.17,6.78,346423378,338170000,7980000,367532949,6
347274830,37989897,250192970,6615689,246272312,6792225,901462,2567698,1055440199,3468066,338879107,48118,52634,1100438778,7375,7.11,5.85,313306448,299906000,12995000,333894620,6
167458839,1041438,121683727,2669641,122987969,2642434,158111,730828,305976378,86896,169810810,65,14228,582160490,1501,2.16,1.79,92669209,87372000,4964000,113795000,6
637759305,1680895,399925558,3394212,397186383,3256713,368357,1762827,912880211,145238,631482929,129,26110,1871029413,1692,6.55,5.47,271268974,265894000,5016000,292061598,6
186850206,2119115,127610140,1837381,123476115,1766544,308496,1091575,304552765,133255,181909219,104,22785,615327881,4109,2.17,1.79,92483475,85196000,7016000,112762380,6
230558441,9745657,196619006,2231541,194442980,2080362,524183,1561603,562068252,2409720,226340970,12,32346,852361054,4429,3.86,3.18,169122882,157771000,11054000,189867190,6
549209718,16442194,502079206,613119,502282269,611710,5412927,8540171,1318830348,1593408,549955641,477,317929,3000291806,97885,9.21,7.64,389527278,231171000,158117000,409756087,7
377012607,6408231,290822129,1191626,289952674,1272491,88638,944435,391452052,24501,366833586,27,5325,1281600634,232,2.78,2.3,115600865,115389000,0,136512597,7
674460094,28361070,310949276,680905,311210412,671557,5643062,14683419,1294387149,1907803,681764009,494,609810,2284429540,98337,9.36,7.73,381085864,220688000,159774000,402001536,7
518893036,21675545,357804705,674144,354956916,672294,5811668,10213845,1274589536,2252020,516030554,359,410175,2087738623,97884,9.21,7.6,376345975,169977000,205972000,397879773,7
303344991,6489877,201238785,179984,201022952,183530,97464,1005235,428550759,20803,306120695,176,5465,1225468405,229,3.0,2.5,125480781,124196000,1001000,146833800,7
406485541,12871860,402385064,247737,400565944,245649,134077,1420806,647429483,39975,404247489,10,9097,1928473582,330,4.54,3.77,194573380,193268000,1001000,214157779,7
880415910,29427021,509368080,710709,510041919,700560,5677378,14088869,1466905402,2225390,889100774,683,511698,3107320204,98332,10.7,8.86,430280510,248766000,180830000,450832021,7
613368310,18106255,448231955,850539,447333111,853732,5532590,9461938,1793447664,4440082,610676674,900,1690965,3053857561,195551,12.57,10.42,531372208,303562000,227421000,552025509,7
542422172,29169513,378930002,829970,377132808,836521,7054690,17056539,1738771202,3299111,539172689,438,449593,2429754877,107662,12.61,10.36,511232008,281886000,228907000,532812215,7
193362544,5983192,389567312,1318122,390742129,1307982,89978,1008878,442638261,37236,191312757,339,9245,1257832072,331,2.94,2.42,133310233,131070000,2001000,154399243,7
678902765,29082750,312488348,676363,312688604,668984,5673019,14419699,1326749780,2124052,676223000,654,450129,2181393115,98332,9.64,7.98,390266949,219892000,169916000,410265680,7
306856756,24455388,201593510,214304,200293531,214147,120643,2435574,532224157,35635,305211308,1,6602,1430126513,328,4.03,3.4,157061756,156776000,0,178477218,7
536070371,28387578,373795176,822103,371434506,824169,6951892,16071745,1764852003,2619182,537325491,478,368510,2710065072,107656,12.77,10.51,516875090,290770000,225822000,537436361,7
284708607,12599658,196284211,181801,197989473,179875,98988,1401335,407761040,22992,282438893,52,6500,967236486,334,2.94,2.46,121898042,119606000,1993000,141779079,7
453047324,20795317,309607023,554392,306421123,560079,5923059,10093979,1146999889,2072446,450065411,551,589438,2170729564,98773,8.32,6.86,339256583,173945000,164948000,359230819,7
612921470,28435172,458979885,836895,460718711,845668,6519827,15031011,1821148157,2354452,622999575,579,439565,2616230462,97883,13.13,10.82,530273211,313938000,215957000,551204286,7
889152334,29108987,413479738,696704,410476090,685335,5837261,14203375,1409302942,1960478,880093052,622,642043,2917512387,98334,10.31,8.54,417393166,242857000,173898000,438934830,7
450768864,17243599,302150304,543157,301803151,522230,5497896,8478311,1031069947,1896115,449455764,451,475593,1806166555,98381,7.31,6.06,307205584,145970000,160967000,328239120,7
305622316,6512930,201692998,184899,200645025,185588,99740,1015230,430493108,24751,305448405,0,5449,1332878491,228,3.05,2.54,128742891,127423000,995000,149654944,7
447745155,16736439,303378105,568555,303538050,579668,5428625,8640725,1288048928,1671943,445887681,124,323762,2500079839,97889,9.04,7.5,381373770,223003000,158002000,402594148,7
576994599,28110638,311610653,649094,311386649,641149,5666207,14567115,1322053237,2122417,577574491,44,444370,2382457282,98337,9.63,7.97,390116059,225679000,163767000,411834897,7
682501151,29336991,511628160,682437,510982035,680533,5718202,14172953,1419401285,2030681,681323185,363,532526,3009467797,98331,10.26,8.48,419229579,243291000,175210000,441826400,7
777934713,29536646,311469267,684991,312219565,688030,6011005,13940896,1485107351,2107606,782360712,98,456785,2688386344,98331,10.81,8.93,441237463,267353000,173229000,462339814,7
679490330,29165143,312530929,633834,312908588,631832,5626399,14448459,1296279168,2121575,668602448,27,447973,2286219392,98336,9.46,7.84,379139330,208223000,170364000,400227184,7
432975740,31849964,215538752,239149,215295063,247953,132908,19924085,677353056,47745,430217408,70,9469,1746123731,424,5.02,4.22,200275648,199960000,0,220691026,7
813596866,21458432,654989191,774020,658870876,763665,5723228,9949656,1600210723,2794461,814472026,186,417275,3559318376,97885,11.74,9.72,475189114,251901000,222912000,496422040,7
512789933,27572618,358356858,777339,360300794,775232,6439780,15434137,1635375211,2389711,522019433,254,392406,2418365091,97894,11.95,9.84,478430878,263043000,215035000,498783688,7
203787180,6448455,100578394,148812,100569219,147691,78829,840397,323175659,20793,205155806,32,5168,919891399,331,2.33,1.96,94982417,94677000,0,115838900,7
685834552,29158336,312653311,694107,310801546,678050,5696642,14814452,1321923219,2434789,683114412,204,450585,2522360479,98334,9.77,8.08,389924230,215104000,174084000,410665295,7
552210103,20906816,510869822,603410,507710429,594439,5977684,9635952,1371091687,1964244,549461892,372,604459,2860615329,97886,9.79,8.07,402123684,237845000,163893000,422558496,7
679867315,28726512,310330530,631147,309335117,630664,5608256,14573963,1308227862,2099909,682577681,303,627432,2302628130,98338,9.65,7.98,384075806,211191000,172156000,404803467,7
447212877,16830230,300878564,570350,300126822,575171,5596727,8758007,1184662663,1675137,449149427,86,312841,2292595927,97894,8.4,6.99,347432630,195035000,152027000,368344108,7
304889524,12731207,200767434,181636,200300991,180637,100860,1125516,436037553,31893,306361339,0,5542,1434682671,429,3.22,2.71,127264271,125933000,1007000,148167169,7
204440709,6488228,101803675,146722,101528755,153310,97594,896365,327281739,22489,205179061,91,4838,928722597,326,2.34,1.94,98308144,96944000,999000,119680229,7
680136260,30012105,310467371,674049,310993432,677722,5622407,14630045,1349606211,2599993,681346164,280,578442,2396859590,98332,9.98,8.27,392877411,222110000,170084000,413674536,7
680615630,28690570,311828931,659628,310334060,653468,5666051,14574864,1335965006,1933185,679074139,82,635777,2401151828,98339,9.82,8.13,395160554,226746000,167812000,416775563,7
531078593,31993346,215625897,282270,215680537,271044,150133,20638296,834277964,44791,529943236,57,11915,2045482153,423,6.0,5.02,247115603,245915000,1003000,267445160,7
719299077,21081960,558097366,749248,554893885,742125,5817588,9900476,1516668956,2479081,714704291,175,356136,3088995050,97890,11.01,9.11,447732780,237219000,210194000,468181978,7
449555453,17145577,302648698,566738,302111868,558799,5397483,8454879,1180826980,1918106,448415454,177,356198,2301429057,97889,8.39,6.98,349326085,181014000,168013000,370388924,7
674315429,29122996,312580645,683721,313197943,690509,5674497,13920279,1436886991,1885279,676625755,75,459830,2273669572,98332,10.45,8.65,425121003,256696000,167801000,447747579,7
534280306,24511706,209068393,229899,208712349,231369,123782,9829951,618442148,35530,529386124,29,8148,1704597321,324,4.53,3.79,184907440,184758000,0,204996874,7
430130877,30851424,213982156,256116,214044248,254735,141651,14077283,676304539,37248,432595744,26,9360,1750043768,432,4.95,4.16,197849594,196506000,1002000,218813949,7
511309572,27966676,360870461,801867,363459002,758722,6371949,15182969,1639582676,2428735,518876867,1563,471083,2514011020,97887,12.09,9.97,481187996,274896000,205922000,502539248,7
507120224,12819785,202659911,217026,202578849,210908,117241,1354051,537391520,32386,505696089,79,8480,1525820339,326,3.92,3.27,161422049,159145000,2001000,181783553,7
199533668,16438036,110245868,458849,107709129,460766,5506441,8314170,768199128,2004446,197332738,132,332074,852663778,97897,5.57,4.65,223917921,60161000,163439000,244489334,7
679244510,28376141,311006559,670734,310801277,680025,5721693,14557908,1336948025,2099153,680682956,331,551001,2195275786,98340,9.81,8.12,394752014,234987000,158991000,416115125,7
514080577,21361730,354301261,894368,356776894,896921,6009895,10153719,2110333350,2502441,519507557,225,374616,2674751810,97886,15.22,12.63,622634341,404397000,217675000,642999798,7
707264676,41686236,315046661,682734,312821569,683592,7616495,26128404,1439754050,2295559,719105744,53,638316,2186491867,98435,10.76,8.87,422651915,251041000,171028000,444159422,7
684921929,28442549,312723256,645723,311630096,660459,5773119,14734189,1342258012,2264704,677439691,90,646657,2395389271,98333,9.92,8.23,396309800,224755000,170814000,416505413,7
444413589,21572361,306976411,593824,309309219,590094,5874977,10555151,1279450589,1839799,451018740,358,324389,2228993500,98131,9.19,7.6,372872788,224355000,148234000,393767131,7
447516484,20803821,307001434,552885,306762879,554737,5759551,10152567,1156637249,2173839,453582403,200,539721,2149366766,97886,8.51,7.03,338914871,196743000,141814000,358698796,7
204588312,6477951,100719161,143478,100440246,141115,91905,895740,325241334,22801,205449837,189,4754,927482131,231,2.35,1.95,98312828,94984000,2999000,118734880,7
212502759,13175291,104181289,158829,102398837,161853,273560,1737334,340830966,76466,206148418,0,6782,953616175,2092,2.56,2.16,100106512,95767000,3990000,120504732,7
304571197,6492925,200513127,175927,200527532,175911,90258,951669,436725686,29401,305307740,0,5420,1427156611,328,3.13,2.62,128153756,126934000,999000,148585365,7
682487252,28795425,312258252,663667,310786225,674586,5800469,14848697,1344146893,2436009,677912934,86,619903,2196695014,98337,9.88,8.17,398035239,219131000,178106000,418863576,7
872868268,28695840,412272249,696853,413576878,700032,5561971,14037370,1437477313,2394625,877144666,32,488064,2678161469,98332,10.63,8.82,420937269,259176000,161109000,441491683,7
517526067,22085672,356975955,675098,356522096,667119,5606645,10117402,1303415590,2692293,512920780,304,415004,2279158535,97892,9.66,8.0,383644735,171118000,212146000,403726060,7
307514258,12817556,201744036,169624,200689174,168120,94579,1269588,390780283,37431,303023265,49,6613,1128265733,333,2.95,2.47,119097537,117766000,998000,140403065,7
679848549,28948766,313199868,642554,313585104,639486,5700655,14481546,1291388080,1757517,670317150,98,447068,2391576380,98332,9.49,7.87,376168328,203704000,171750000,396355597,7
776330844,28605268,410325954,703043,410365345,689428,5772377,14056859,1530719717,2021522,780887960,233,626799,2987268274,98333,11.18,9.29,446528700,277888000,167932000,466634253,7
678386343,29207181,311713245,643492,311523077,637318,5530882,14462653,1326510995,2392796,678038770,159,446022,2186129593,98332,9.89,8.19,390265079,222816000,166862000,411570279,7
406283227,6514763,101628203,186428,101763964,183126,92980,955344,454784258,27547,405445782,42,6948,1323136140,325,3.28,2.73,136995960,136733000,0,156401134,7
205339628,12794429,14385898,153221,14901390,142909,83494,1490866,306335714,25915,203136991,31,5226,680973858,338,2.4,2.02,93491388,92184000,1002000,114311804,7
681553946,29312813,313267909,649719,311934191,657869,5578542,14517391,1344074758,2161230,679219222,111,632450,2195981488,98333,9.97,8.26,395973101,231208000,164148000,416335746,7
329371130,25421939,207467067,217103,207067906,210533,120625,13903020,568785604,33567,331959715,171,8611,1403903626,329,4.19,3.52,165807438,164399000,1002000,186098670,7
450024097,16311605,302687386,562055,302439647,550221,5289619,8452274,1186690031,2140337,449787268,188,358407,2308700247,97884,8.58,7.14,349398903,204001000,145000000,370306154,7
507003017,12828118,201647480,218358,201490957,209277,135422,1320168,547673829,34682,508447160,49,8419,1736765510,424,4.03,3.36,164123034,162719000,998000,185020281,7
354518326,49508396,214016930,233629,214721633,224215,137283,26418367,602662858,44403,353540930,56,8582,1369095776,527,4.74,4.03,176914700,176604000,0,197906708,7
447835418,17228157,301114473,542013,301653979,540354,5301310,8343663,1118573744,2204779,449956753,186,315221,2103881669,97884,8.06,6.7,329529364,180084000,149070000,350875586,7
771226745,34454275,377381008,3562438,376456226,3429758,6569800,19492022,1686276853,2749606,764216152,72839,762186,2716327824,101551,11.32,9.55,402428143,226819000,174861000,423710174,7
516160917,28095148,357178292,788145,357551537,790775,6284612,15239242,1702753617,2927711,527202068,268,377957,2624710097,97886,12.67,10.44,499352252,282987000,215990000,520652145,7
407178948,12790848,101242609,185208,101257123,187409,106989,1398707,465766459,27921,405703614,1,6172,1224268115,334,3.47,2.91,140771747,138577000,2008000,161124812,7
376083449,6401919,197506419,197345,199462093,200920,96794,1024848,471386721,21772,373729514,44,6306,1437957247,227,3.37,2.8,141688843,140473000,1003000,162615279,7
356316378,49804219,214628828,222141,213756055,221735,144723,26033416,599209837,50083,354550553,1,7964,1377619105,529,4.59,3.87,180949283,177700000,2994000,202082317,7
450011559,17020191,303358145,590551,301820533,592908,5529011,8840428,1328364661,1788806,447707488,130,383927,2598310796,97893,9.43,7.84,391419049,246059000,145034000,412186033,7
446019485,16187044,301341906,524544,301765280,538618,5412928,8470264,1102201260,1983310,446718165,106,501329,1991739366,97898,7.93,6.59,327677158,174631000,152678000,349041676,7
307394020,6475324,299451785,298527,297682178,298978,77055,863128,324259266,20818,306172216,73,4953,1080293992,232,2.32,1.92,99069214,95711000,2990000,119818637,7
347153657,16854316,302547146,543668,302800312,549785,5422808,8597698,1191251491,2063901,344556162,203,342050,2397166345,97903,8.51,7.07,354842472,185265000,169242000,375541280,7
686889582,29475007,312367033,662325,310668282,666525,5606919,14523473,1325382175,2326951,677345778,45,626873,2508761359,98333,9.85,8.15,391143404,208408000,182357000,413567422,7
658334156,21253587,312321261,617259,310466223,628478,5942254,10660254,1290389641,2028865,650665464,68,509976,2163038379,98238,9.47,7.83,380331009,224778000,154847000,400738986,7
792816614,25156922,455875422,4967544,455680580,4963234,3085748,14495120,1817506469,2826573,795613741,1309,610494,2489414221,6624,13.12,10.94,530471304,468160000,62021000,551035298,8
217548065,6959356,127078519,547019,127666026,543511,1249564,5154821,459987438,204933,223288073,244,18262,780153997,4626,3.31,2.75,138230958,126950000,10995000,158393777,8
729839730,6923247,435644164,4062590,437222371,4059952,1342692,6183131,1507512829,2100282,730980324,469448,272097,2242320158,4419,10.73,8.94,445390622,378956000,65992000,466416030,8
337958546,10351954,209008772,3932832,206755465,3870951,2354389,8327549,1058318732,2491096,328477337,582,961015,1163815319,16908,7.78,6.51,310665578,219205000,91085000,330974933,8
270996280,8652545,158276836,4124740,158191382,4122650,1746985,6479795,654370762,465564,273466320,859,560726,1021847696,6790,4.64,3.85,194089789,181819000,11988000,214498842,8
549833017,6854622,213937920,4377920,214553859,4394696,1262813,5400629,932313823,227453,552653439,542,184587,1554905229,4231,6.76,5.64,276313200,263090000,12955000,296654472,8
244567105,7985597,142116640,2539466,138082408,2572315,1698320,6127983,550428650,309134,234276764,221,41483,854952000,7356,3.96,3.28,164196894,148978000,14997000,184899693,8
365188967,6789701,155544670,702328,154654104,689045,1286025,5283761,655643733,304025,360618143,68,24220,1035120982,4824,4.78,3.97,197768398,183464000,13883000,219118500,8
374865215,9605555,205356778,3395903,208914220,3412694,1618321,7225528,1004226621,2031036,372036187,498,415436,1268816660,4424,7.19,5.98,297496426,236399000,60845000,317451231,8
215463542,6728730,134145120,583736,134538827,578505,1185400,5127676,469274588,243169,204620598,182,23845,777292813,4231,3.35,2.77,139980118,131781000,7926000,160924052,8
351299053,11392238,204782451,3854574,205535247,3833202,1834285,6955272,773134146,1453431,357898564,403,41138,1335204376,6774,5.51,4.57,229163300,212809000,15985000,249392371,8
746776439,16474137,422165185,1731297,421779077,1725428,2323973,11243153,1517763921,2340889,750783812,606,385289,2247430785,3286,10.91,9.09,448475333,393231000,54892000,468530656,8
735405419,6866239,434204578,4074974,433824217,4056035,1453996,6311183,1482975294,2103015,736827946,384,533769,2258290305,4421,10.64,8.89,435904404,383666000,51954000,457387106,8
774081088,9953466,448974419,5285289,448634747,5272124,1954276,8243947,1659195871,2592469,776094429,519,1030208,2491184974,6378,11.96,9.98,492508404,418304000,73877000,512718666,8
283734530,10278868,159387182,2836665,159128642,2832796,2857781,7899468,680791008,3504909,288775201,519,36429,993855382,6670,4.86,4.02,203182035,191840000,10990000,223112100,8
721797707,7645601,430198525,2298175,430525019,2294437,1310777,6650204,1538128774,2542438,723503899,156,913091,2242514216,4618,10.95,9.11,455273504,384027000,71005000,475742140,8
232337776,20576133,131414927,613906,134833953,621009,2524716,11583117,578069419,366604,224245803,88,34324,756320047,4235,4.23,3.49,172864083,163664000,8927000,192603260,8
251773788,7098490,141980338,2482503,138561508,2480647,1505036,5424436,554114598,264680,256772430,2541,40158,843256775,7951,3.99,3.3,166589605,145271000,21039000,187093551,8
246266093,6411921,140158786,2752468,139140580,2674046,1274065,4962067,529026927,200947,245897033,166,36197,855997146,4621,3.83,3.17,159126880,147691000,10977000,180264373,8
282843406,9086140,155658155,2907175,154729226,2914944,1842815,6892102,590621214,272711,287579591,54,33449,975387353,6778,4.36,3.61,176513944,161056000,15005000,197019869,8
273934659,10190189,160321145,2715446,155471695,2687585,2969257,8398296,700024606,3490748,264048435,79,55399,901427409,9901,4.93,4.06,206342607,183978000,21997000,226164578,8
291598192,6854162,167125115,2952085,167116902,2979011,1438662,5504816,743886950,293110,293281255,250,35937,1075110977,6773,5.38,4.46,221092473,203768000,17064000,241379655,8
292773396,33549046,180105239,3081119,179843615,3095288,6762137,18883327,1219389220,4676255,297200914,427,99719,980162247,7749,8.38,6.83,361712217,340479000,20967000,380939154,8
272860573,8944924,146398393,639354,146316876,644081,1728260,6572523,541753599,322002,275883455,174,39161,988515211,7949,3.94,3.28,158269043,148920000,9055000,178134300,8
271469677,18556742,177809090,2990050,175788196,2961152,2805836,11994312,732946526,696386,273397776,228,46719,1076146561,6569,5.45,4.52,218748744,206329000,12019000,239975448,8
256173945,8983682,151205113,3105467,150094895,3023342,1664006,6497665,574029575,267632,260528782,23,36221,890221345,4620,4.14,3.43,172479905,164128000,8006000,191819284,8
305852381,9320436,193376114,8791139,193182566,8870107,2536368,7573025,784057711,206438,312960991,44,45871,1061025554,6672,5.68,4.71,233050816,216630000,16046000,253206075,8
235377979,8638411,153936963,3416727,153157174,3417755,1563546,6471536,558031259,290193,226500663,53,32138,863098208,5016,4.08,3.39,163092485,147889000,14888000,183656216,8
356452621,6663490,178998111,3253374,178428793,3210513,1160320,5179888,691751841,272229,346907186,186,605127,1100997461,4622,5.04,4.21,203109944,197770000,5019000,223697326,8
345338610,11384502,226966914,3163696,228763332,3137651,4611320,9677745,973035687,1337987,335657344,54,219776,1316186793,63026,7.03,5.85,288434244,190692000,97353000,308449086,8
817690085,12009570,461602190,3896425,459959625,3880002,3532530,10756757,1868518672,3912041,810664733,33014,142717,2379600241,9895,13.39,11.14,548587070,481169000,67023000,569471720,8
253946192,8146006,190842927,3389498,190805520,3359142,1520250,6289621,671663295,288636,254067086,1737,47701,1118745188,4423,4.86,4.06,197151460,189920000,6997000,217377102,8
292728336,6250069,196099384,5869967,195559147,5808280,1516293,5144729,668129960,810342,293764781,895,47364,1017725445,4623,4.8,3.98,200135198,188888000,10993000,221165519,8
419044564,11017558,194212261,671423,191931530,671023,1781719,7300107,808107370,208744,420743492,65,33014,1481765983,5799,6.0,5.03,236561167,223249000,13014000,257344410,8
299793238,6519137,151103345,3088922,150525648,3041673,1301490,5063344,609827888,254983,305264496,100,37035,935590297,4621,4.38,3.64,181735503,169443000,11960000,202087100,8
274401426,18289148,155841285,3033397,154781338,2969705,3156869,12068504,664572637,644137,280781880,117,34919,944229490,4625,4.89,4.06,196165387,184926000,10995000,216681859,8
761341034,34889667,433974078,4154290,433813739,4163662,5114343,18922742,1801584940,7634636,764415158,224,256734,2260877646,6786,13.18,10.97,532365766,477032000,55003000,552933437,8
231504325,6470690,139403500,2849610,138323871,2797552,1302938,4863968,513122796,204662,237428528,107,34394,835365724,4622,3.72,3.08,154817434,145424000,9026000,174901308,8
328224259,8786023,167016475,599735,166923653,597971,1436043,6410696,598269736,304097,330378433,1625,103317,1160208103,6384,4.42,3.68,178968927,168691000,9981000,198871117,8
231654307,19541452,125475455,569592,127508505,579125,2589492,11602300,576120489,400765,239529712,14,29761,766188590,4882,4.25,3.53,168417088,158105000,10006000,188937145,8
228516262,13952278,136426807,2856824,138297115,2861933,2246917,8773436,579780103,506158,236823886,41,36855,800915151,4625,4.26,3.54,171050099,160861000,9991000,191484317,8
497164083,8717880,214360801,4341696,213818486,4339306,1627768,6812863,902222129,373638,499985581,207,1095478,1535729439,6668,6.66,5.57,268176461,251913000,15994000,288557878,8
341728664,9138954,187747692,3867682,188557519,3851363,1755470,6790771,706682641,374028,347926964,27,42700,1261687415,6386,5.21,4.34,210286374,195952000,13996000,230190884,8
253326488,8717768,144663195,4592071,143802468,4491806,1664845,6545086,572462120,231512,253928878,112,47289,876896922,4627,4.13,3.42,172870633,161721000,10913000,194072852,8
245442257,6519888,142523183,2916336,140488744,2861364,1376710,4955430,525481969,204451,251884358,27,38803,896795116,4620,3.83,3.18,155060353,144648000,10045000,176096194,8
244373972,6867373,140795212,2915806,139961541,2922630,1476237,5283039,542127812,574855,245563073,141,47253,852868406,4622,3.91,3.23,163190992,149903000,12991000,184428768,8
1023257631,39920437,449518719,2385962,449585510,2381533,1222953,8087082,2177136142,467027,1029780008,83,37173,4564904718,1704,15.76,13.17,639373917,635877000,2999000,660008868,8
313317817,8973014,168001460,3074838,168453834,3065508,1734680,6710395,701828037,317879,315602541,836,33973,1183723677,5646,5.28,4.41,209593339,195355000,13953000,230247750,8
957347395,17353583,519560569,7188102,520391228,7166148,2345287,11878002,2051682071,5676379,958303247,260,1031435,3092361662,5009,14.97,12.5,605847746,545486000,60053000,626235384,8
286239332,8949524,156802949,3840864,156814166,3836681,1610228,6408801,631272120,386864,288259126,1050,153705,1012865587,6658,4.59,3.83,185010073,167763000,16875000,205975064,8
287930559,23248954,159704201,1111765,158618222,1100320,2790083,12113914,969599961,3265733,286717599,3587,555660,934973499,4627,7.04,5.83,290274368,227937000,61983000,311040227,8
344488059,6599372,170001537,3606591,168775678,3542943,1316281,5102998,665971415,199070,347191658,15,539850,1082791769,4622,4.89,4.07,200357119,189113000,11006000,220286176,8
368460728,9516760,220716702,3780599,222136057,3761221,2173237,7593503,1013995758,2599641,370919379,314,53378,1306135605,5374,7.16,5.95,295708535,285363000,10012000,316178235,8
239922200,6641212,149353364,2902086,148040157,2835858,1345354,5200590,527530801,289242,229228059,17,26910,857404970,4425,3.92,3.26,154422040,144099000,9937000,175005690,8
270051720,8544390,154594323,3009069,153082846,2957751,1692965,6392407,568887904,243793,276564341,331,32600,969470641,4426,4.14,3.44,170134738,156928000,12994000,190225282,8
753024831,19941569,418588150,2094484,419497773,2090626,2757363,12816485,1562941804,2808909,757604139,111,999963,2230004198,3291,11.46,9.58,457383110,400781000,55969000,476873107,8
232516144,19214523,131918942,2585326,132449770,2561215,2770535,12227974,553662951,494358,239824195,148,35856,771944065,4747,4.15,3.44,161920838,152588000,9034000,182185980,8
700395040,9651584,425566062,4339560,428811853,4349029,1745071,7826882,1501357869,2513337,703015816,741,1067492,2184787437,4615,10.85,9.05,442958786,375771000,66959000,463761700,8
798663253,17405762,478498781,6957781,477759892,6931511,2560934,12033971,1730533452,4478939,796843005,188,598178,2480930243,5033,12.78,10.67,508371127,460213000,47918000,528359446,8
240764928,8479651,138727633,580832,140814586,580143,1425642,6111129,472600232,257919,233761910,92,32320,774939888,4236,3.51,2.91,140596252,130297000,10022000,160881033,8
480896389,31012172,227121618,3019093,226058893,3011950,5716144,18571723,1165158374,3441008,486925754,773,59627,1497735889,8735,8.51,7.03,342477094,320046000,22003000,362760644,8
357670840,17107072,216085312,1316883,213767339,1280810,3927724,12658528,1277150832,5987568,359332901,2417,630211,1224661583,9350,8.99,7.41,375333160,295210000,79786000,396267145,8
332228171,8961166,166627971,3697479,166112646,3698502,1764610,6876528,678400563,286469,332437539,139,38569,1136133172,6581,5.12,4.26,203752300,187471000,16040000,224692097,8
710635795,7209604,429959201,4457277,433011781,4465402,1324672,6156646,1495513087,2661645,715212689,1545,812029,2218125933,4615,10.84,9.05,441857060,383492000,58074000,462649069,8
244953893,7113374,141408208,2834751,141195528,2839345,1561739,5399343,556826505,252673,249561841,1,53959,872717630,6778,4.06,3.37,166523543,153144000,13012000,187601590,8
398334202,6694900,179451508,4275052,179487771,4268838,1237776,5256506,790766392,480031,400437867,27,76154,1256780112,4233,5.85,4.88,236192580,223962000,11997000,255937945,8
285816111,8734185,156659750,3680417,156620792,3722315,1472290,6714583,647028707,233652,282521269,108,32495,1096250022,4230,4.7,3.9,192483380,183155000,9007000,213449254,8
445992122,11286935,187429483,3094928,185108310,3100038,2987575,9004063,945916950,463510,437056927,3030,55713,1391866503,11070,6.97,5.81,276555845,255236000,21019000,296887146,8
250029668,6846624,142060129,2860549,141118829,2803068,1467034,5226159,511405423,262449,249376348,47,37155,832967791,5139,3.71,3.07,154692794,144504000,9965000,174447259,8
751561858,8527731,444826811,4464101,446687211,4476898,1653686,7605408,1562337987,3101017,750306606,906,961500,2340194060,4035,11.37,9.47,461694802,399358000,62055000,482548408,8
760068329,7824148,453536156,4090992,452547766,4053609,1725460,6836974,1559158643,2841278,759372475,778,525520,2367642896,6769,11.41,9.53,460831435,397528000,63083000,481664488,8
478195470,14899204,251873455,8371581,253678283,8331954,2932216,11629830,1277839096,4078560,482902001,752,46916,1675731928,4042,9.2,7.59,381258503,370041000,11001000,401892941,8
789871780,7763193,446960065,5375434,447738752,5367331,1626524,6911314,1731792123,2352349,790227012,2954,909593,2471200418,4614,12.53,10.45,511285758,448840000,62116000,530679944,8
795841886,20974248,457810899,6820981,458107222,6812965,3195022,14203294,1730158436,2647171,796171350,239,451088,2443882473,4618,12.79,10.69,510670827,455340000,55041000,533208467,8
735818607,7325597,436422351,4047965,434496664,4025476,1549535,6620322,1522768108,2463616,734572770,713,571547,2275118264,6770,11.06,9.24,448113432,383742000,64124000,468188311,8
846162064,13692530,493400160,5785968,493514468,5794615,4104387,11698598,1905478144,3504619,851341451,431,1036961,2502258991,7941,13.76,11.42,561899304,502637000,58957000,582090224,8
400899282,7118014,177394468,793669,176030784,798087,1253411,5285053,795779371,422730,407324239,44,25267,1341414332,3651,5.91,4.92,234197340,222807000,10990000,255250481,8
719758842,7136472,432899629,4450568,435618114,4441220,1362556,6246903,1488567295,2254405,724512760,1012,988380,2204980426,4615,10.81,9.02,440393646,371085000,69015000,460101547,8
244393240,6819297,142312420,558764,142657251,565356,1168094,4868131,522718285,270630,250371617,165,31436,965600188,4427,3.84,3.2,153654047,145307000,8016000,174329058,8
246000238,6950814,140257113,2729177,140171213,2742922,1450970,5277728,537243274,266486,253117563,74,33486,858086903,6583,3.92,3.25,161390496,148097000,13008000,181255029,8
142670388,208780,75282503,111979,74376634,100690,73462,381049,177911324,21935,144260946,177,4983,365978894,375,1.27,1.06,51726560,51539000,0,71751337,9
147844495,177937,77083400,115611,75594876,115789,78908,434572,178972987,30729,143854926,0,3875,373933285,381,1.3,1.07,56716515,54436000,1979000,77205465,9
48387193,165056,24252059,68895,24396602,73268,59264,267314,59992748,99624,43447103,248,3748,131079135,2337,0.42,0.34,19505667,16157000,3029000,39510113,9
167634287,1513087,110822979,152944,104956267,150738,566472,1910463,246568677,201441,155308419,0,30845,535769920,6234,1.84,1.53,73002407,55995000,16700000,93226065,9
42274141,384987,24104966,76154,24652480,70275,204362,485431,64592058,50859,44749150,191,8649,121381510,2087,0.44,0.35,21742227,17323000,4076000,43150036,9
48132336,600622,28128058,84623,24852776,81344,259555,482295,73355565,83541,43255863,43,15720,138638234,3121,0.51,0.41,24979458,17430000,7177000,45507200,9
43658257,169596,23399245,66271,22633058,66722,50542,243811,50458411,15209,43118635,168,3469,119332067,382,0.35,0.28,16887252,15547000,971000,37119353,9
4372503,125805,2214660,61065,4462769,46493,43610,159182,15178223,20297,6958545,83,4353,28253754,454,0.1,0.08,5465276,2100000,3150000,26322540,9
141977233,253186,76541857,123758,76419050,115892,79646,411050,179946434,20443,142505298,1,4675,368220584,373,1.27,1.05,56689939,54930000,998000,76541904,9
144358500,211311,78130424,108586,76638385,109725,174196,557911,199550019,61716,141624103,47,6426,378234561,1374,1.4,1.15,61932069,57651000,3975000,82472228,9
5698714,178288,3642975,67790,5700674,49761,47376,172289,19138281,19068,11619024,92,2466,45701774,453,0.12,0.09,6489613,4180000,2090000,27191608,9
46923832,284038,23616642,72607,22834054,72961,141768,416941,58797087,20104,51938610,0,1990,144945629,1351,0.44,0.37,17478304,12173000,5072000,38644766,9
46968236,148709,22140618,67347,22962651,70445,58678,252577,51510889,21500,45240578,11,1484,126518864,431,0.36,0.29,17779104,14602000,2920000,37864288,9
2043737,153904,3113276,56046,7063189,40722,22972,127285,15649580,15699,7523086,22,3421,25725169,381,0.11,0.08,5872333,3169000,2376000,29063902,9
140206064,258845,77342750,111851,77201075,111100,70682,418838,183208591,15730,147008080,0,6377,370972041,2349,1.31,1.08,57280434,53957000,2997000,78160653,9
142587414,221410,76395782,113145,76192306,113464,82218,432763,185960247,21363,143713322,0,3632,366736253,381,1.34,1.1,58391606,56183000,2006000,78668852,9
67887768,255979,37022012,94407,36620206,92910,70778,279576,78026490,20367,67995486,0,5915,184638267,609,0.55,0.45,26034434,23880000,1990000,46266112,9
147237780,216979,76139821,114701,77733485,119526,177805,548957,192882712,48747,145573386,25,5718,379449609,1360,1.37,1.13,59799523,56476000,3025000,82412518,9
3260247,176713,4195785,42652,5603948,44140,45402,154756,15744981,14190,8767676,160,1896,2868303,406,0.11,0.09,4453202,2093000,2093000,24168392,9
146710987,297199,78096226,117333,77940626,117277,94619,470380,183017990,25437,146232594,0,5943,372686026,625,1.31,1.08,57820824,53570000,3968000,77508249,9
141863012,247803,76806963,113228,76506285,113084,87150,446305,182571587,26064,141080199,0,5381,364962441,621,1.31,1.08,57693573,56367000,1006000,77620781,9
64666474,301858,36236750,98337,36020566,100972,76349,302390,80725784,21486,70159933,6,5900,188499776,656,0.59,0.49,26156697,23920000,1993000,46135762,9
67683087,510912,36333728,100887,36087834,99867,121616,354105,84262840,26428,74916073,3,14182,192813955,1597,0.62,0.51,27601749,23268000,4046000,47549954,9
139659407,265231,76676102,116890,76301803,115706,106401,458470,178500711,28398,142487905,134,5448,371043556,621,1.3,1.08,56462407,54260000,2009000,76362657,9
147223953,593302,106871326,136476,107952781,129874,121923,572437,230225365,98345,146525200,93,15283,500293315,2330,1.67,1.38,71876553,64515000,7056000,92149686,9
64963912,588784,35959762,101151,38941714,99705,73894,299095,87374777,47591,71404875,54,15095,185552410,1598,0.63,0.53,25317306,20013000,5003000,46019301,9
139828411,229969,76423468,110208,76054410,110354,71902,411934,178675069,18643,142261387,0,5054,369052001,373,1.28,1.05,55937237,54686000,994000,75781210,9
69750645,181142,36501721,99337,36290663,98947,47644,268610,82998100,12217,73336542,82,4094,201996849,175,0.57,0.46,26389096,24227000,1938000,46307623,9
813430,127851,2623760,52610,4974442,44309,42477,155686,17047159,21544,9531041,65,3509,29756048,450,0.12,0.1,5202067,3669000,1223000,25743396,9
43070036,454202,23253168,77967,24330646,70663,178964,467421,65809929,58089,45455800,41,11717,123416606,2090,0.45,0.36,21844988,14669000,6845000,42374923,9
138929991,225091,76336677,112873,75938554,113203,76863,415818,177326974,20384,142415851,0,4843,370386666,418,1.29,1.06,55404728,53125000,2004000,76391968,9
48508409,342233,28572369,85577,25837893,75596,182044,450655,67367275,74039,41847766,357,16538,129152426,2350,0.47,0.38,22751799,17356000,5104000,42304818,9
48434549,923974,28755978,89319,29577449,80055,273669,599727,85064288,143592,42682417,205,25665,138614254,4066,0.62,0.51,24590112,18264000,6088000,45612479,9
46761191,185857,23987181,65153,24165491,68220,48724,238106,54675472,40376,44827267,48,3377,129009225,1361,0.4,0.32,18517261,15279000,3055000,38596273,9
47421838,139440,24064003,65549,21591285,71429,115839,336362,56457603,53296,41859586,120,2268,130478540,1123,0.38,0.3,18515982,15220000,3044000,38639342,9
48274599,199797,22293721,68118,22273153,67971,56879,243853,51010610,10535,49605728,0,1383,125072054,385,0.4,0.34,15199758,14015000,1001000,35387431,9
73715023,457927,41626334,94710,40347409,99613,174108,449162,95792490,77145,71489140,20,10116,212090131,4046,0.69,0.56,31755872,24555000,6875000,52625259,9
3436456,170325,3697061,61744,6416979,42410,40949,158808,19767566,45369,11589722,40,4575,31955488,1391,0.15,0.12,5640456,3216000,2144000,26423619,9
7402479,225497,11802260,59036,13226023,42787,108811,217956,27516998,38047,11370543,32,9533,44066266,1284,0.21,0.17,9198002,4936000,3949000,29532040,9
140192856,221922,76324753,114279,76031915,113934,75554,415883,177495997,18077,141345538,0,4738,365744911,374,1.26,1.04,55638715,54451000,990000,75501491,9
140728488,259901,76664242,116129,76348316,116151,90559,436880,178236052,27753,141792164,0,5465,368282194,621,1.28,1.06,56435412,54097000,2003000,76276195,9
3277365,172915,3226838,57367,5342985,42077,39317,150133,16735818,15053,9202999,35,2830,31224789,379,0.14,0.11,5998927,4700000,940000,26988235,9
1009212,162763,3193034,54445,5684683,43941,39487,153283,16076612,15321,9937855,138,4068,22509563,400,0.13,0.11,4717108,2250000,2250000,24019105,9
45618878,183756,23884398,62755,24018522,65529,47706,237911,53787653,55089,44118210,47,3396,127496718,1356,0.38,0.3,18514180,16293000,2036000,39327320,9
857360,161161,3404639,49751,6202910,44116,43692,157210,16358113,18350,10667644,72,6180,12449451,450,0.13,0.11,4728259,2678000,1785000,25532111,9
68410376,244921,35404316,102226,35033338,101223,78362,305007,77691067,23117,67947935,0,6180,183466591,610,0.55,0.45,25723390,25513000,0,46595376,9
66555329,253762,35360244,85753,35086793,84272,61493,267927,78409966,19298,70844079,37,11551,184141537,881,0.56,0.45,25761772,22554000,2941000,46678804,9
43264834,155127,22526251,67506,22870514,67070,49833,234703,50894755,16070,43031170,0,2317,119909873,379,0.35,0.28,17097675,15835000,989000,36657638,9
49937789,103446,24433334,65478,24564934,68102,39699,222492,53461241,13403,44177107,27,1686,132731486,178,0.38,0.3,17971158,15661000,2088000,37817268,9
58840847,219139,29432205,74283,27192490,73851,258949,569903,68557876,80305,45365584,63,7178,142323115,2350,0.53,0.42,20183909,15902000,3975000,39779480,9
14192432,841672,12484748,96026,15187286,89754,467083,805302,62992112,124897,18128084,280,46588,67404704,6277,0.45,0.35,21373569,8067000,13109000,41446660,9
61568173,286933,37774132,101319,37583622,101890,74586,326162,81834584,23299,70936807,1,6840,183790623,1588,0.59,0.48,27093958,21828000,4961000,47936676,9
844956,130594,2530259,54491,4894805,44639,40800,157529,16408424,17068,7301317,92,3209,31301578,402,0.1,0.08,5264590,2978000,1985000,24887059,9
148814110,221737,78450144,113987,78478114,118885,184597,589612,195685063,58264,145416939,42,5043,380823377,1368,1.42,1.17,61356926,56004000,5000000,82373140,9
68839954,193196,36521093,86393,35650483,85261,57261,265255,73062840,18492,67887537,13,4857,183856525,634,0.54,0.44,25231803,21964000,2995000,44897601,9
138195307,260943,76273213,109659,75873938,110212,93950,415403,177598876,17319,142912363,0,6218,367378564,618,1.26,1.04,55548299,53260000,2009000,75723972,9
1350441,143767,2756193,51284,5136881,42053,38018,147822,15841696,22916,8721601,329,4083,25363631,622,0.12,0.1,5385873,4088000,1022000,25105430,9
6885144,130923,2212745,62316,4493566,47761,43223,165055,15559148,18026,10181243,85,3888,34548057,451,0.14,0.11,5648867,4276000,1069000,28301231,9
140527342,213952,77594482,109036,77274519,109587,70198,407257,178018222,20816,142496770,0,5674,369050005,622,1.3,1.07,55944302,54785000,1014000,76371014,9
49315928,167538,23293841,68725,23259554,69409,58356,253037,55927116,23047,53696324,0,1247,135267210,432,0.41,0.34,16189994,14129000,1883000,36929648,9
49180693,225315,24806578,70554,24121659,70597,134202,350244,59412607,46477,44519209,51,3756,136480213,1368,0.44,0.36,19851814,16469000,3088000,39964928,9
48853343,130011,23122281,64446,22685784,69010,55652,250369,51483930,21096,47124636,56,1307,124989921,390,0.36,0.28,17883016,15579000,2077000,37695650,9
45988010,166912,23328015,65541,24077946,67286,53007,241029,52184764,21273,42254908,28,2542,121522686,620,0.37,0.3,17556763,13248000,4076000,38228004,9
138685777,255030,76122168,111633,75938443,111264,72500,413117,178386687,18023,141657845,0,5437,366447404,375,1.28,1.05,56006702,53602000,2022000,76287290,9
143693447,218331,76257489,137867,75313656,145614,92088,435394,185257309,31392,146121299,78,6940,372345377,447,1.37,1.14,54543739,51501000,2874000,74960411,9
62901295,242579,35194872,98910,34794283,97921,55866,267533,75067313,16389,66051860,29,5163,179880100,391,0.53,0.43,24706356,22535000,1959000,44703904,9
55071879,285858,23267979,69618,23893779,73930,143110,380398,60130242,34943,55793145,63,1660,147178048,1375,0.46,0.39,17743018,14540000,2908000,37239393,9
117631762,197560,73146543,120657,73354178,118237,79057,430085,188720396,25169,116884482,0,4438,420794845,376,1.37,1.13,58852344,57482000,1008000,79888119,9
144456263,319786,77434821,113392,76887042,114262,131821,496814,182026217,49887,142577912,0,8032,372204447,1362,1.39,1.16,56921421,53676000,2927000,76791510,9
3130079,237918,5516437,64208,6944370,49364,44252,171206,20440300,16345,16353676,138,3183,36988576,447,0.15,0.12,5960788,5679000,0,25710369,9
143125471,1369591,83440791,132558,83162342,130867,504405,1015333,230394212,158389,156996853,7,25104,410979656,6291,1.67,1.37,71296327,58967000,11993000,91619950,9
919324,138804,2310466,54275,6179714,42803,24285,125862,13741189,9124,12751780,75,6518,25927444,148,0.12,0.09,5028873,3588000,1196000,25337839,9
142022940,198840,76229419,109320,75966218,108952,69407,411093,181891733,21568,141307435,0,4819,364279475,373,1.36,1.13,56532982,53260000,3014000,76693959,9
43952982,239325,22164923,63172,23851228,66726,96335,299518,56960323,35608,45848801,35,7574,124750419,1118,0.4,0.32,18983924,12733000,5876000,39509610,9
51040836,167217,25186374,67065,23084441,65223,138365,376595,59300771,53169,44226772,48,4753,131818764,1373,0.41,0.33,20004881,15744000,3936000,40934360,9
15265419,748028,11851866,77146,11353269,74326,206222,394159,36183400,80522,9994018,1,10376,44157525,2363,0.26,0.21,12377646,6031000,6031000,32752622,9
5250076,157250,2586570,61957,5131601,43870,41547,163757,16871727,20496,9825404,65,2929,30698293,653,0.14,0.11,5912746,4561000,1140000,27293816,9
47313151,142811,24418680,61191,24215282,67666,38939,218980,54352909,10414,45453264,40,1644,134656173,179,0.37,0.3,18072515,16876000,992000,38311733,9
140034361,232177,76325240,110753,75766263,110377,70737,417243,178146792,18193,141878339,0,4968,368254666,375,1.28,1.06,56138697,53846000,1958000,77645255,9
1628402,151930,2961582,54746,5310279,46295,43824,159841,16249602,17591,11012018,75,3814,28864394,451,0.13,0.1,5204316,2986000,1991000,25190786,9
276268523,2908882,171559019,819506,169028764,815577,1300601,3049262,527106368,947170,274246455,156,21225,849983052,3521,3.76,3.12,155022463,148688000,5987000,175660061,10
124694194,3214821,88147598,358663,86465832,368665,1102733,2596636,314116040,847994,122331665,462,20479,436790079,4375,2.17,1.79,91465702,79164000,12024000,109647068,10
108163579,3581079,75610281,440043,75408227,444237,1304484,3147563,317528847,989402,105595741,65694,50684,381680350,5795,2.2,1.79,96502247,82163000,14027000,117087975,10
109310235,1739288,75586756,426805,74759828,441800,405762,1403878,220385231,316089,106534676,191,10424,370104782,2021,1.54,1.26,67743199,62326000,5026000,88638831,10
108772973,1262243,69641609,599869,68132040,601331,374741,1530839,205005571,254066,106229007,142,9378,367026527,1891,1.47,1.23,59580444,54272000,5025000,80060449,10
123150639,3895689,90687258,781059,89996474,715194,1498069,3285248,377443915,1119911,123619009,151,35834,461466152,5751,2.65,2.18,110506596,99152000,11016000,130672270,10
92243432,1508603,61768278,673882,61312877,708696,296126,1166738,188169895,218843,96807575,18,14319,330390289,1987,1.34,1.12,54943844,49661000,4966000,75074384,10
103863379,2761232,74095564,366881,72313521,358243,1222784,2649737,292217476,949426,100568258,203,18208,366734587,3521,1.99,1.62,88884285,78699000,9961000,109404498,10
103813711,2718908,73397386,375348,70996535,368051,1123375,2588634,276400774,915570,101109639,155,14465,370302948,3261,1.89,1.54,84478986,80078000,4003000,104111604,10
110482330,2499160,76097454,673519,74278684,742507,940670,2355590,291316793,744426,107353879,162,15961,392945947,3520,1.99,1.63,88372724,83077000,5004000,108655003,10
100575551,1277506,64537796,591593,61839381,581103,407619,1489648,192952071,306357,92735403,51,11533,335563143,2024,1.38,1.13,60159672,51832000,7974000,80275707,10
106301744,2854624,73794115,432793,70277979,428982,1273323,2733226,291628342,953015,102343947,19,20363,375308510,3618,2.01,1.65,85951469,75559000,10074000,106434317,10
278978995,3103130,175106325,698461,173007226,692877,1311201,3449168,538669176,909498,273404804,228,29594,852912414,5034,3.89,3.23,157729809,145484000,12040000,179025420,10
303416381,1969281,190732977,1292940,187809628,1358533,594299,1849362,511787912,247829,308359670,3,169020,939337566,2991,3.62,3.0,154014634,144731000,8921000,175008954,10
119538826,2952995,86193456,357998,84376726,361236,1098123,2486986,320275639,928994,116334577,2754,18425,414277221,3517,2.2,1.81,93716647,86397000,7032000,114313686,10
106459620,2673771,75740361,385059,72142278,378802,1114211,2575159,280682002,900497,102514763,66,14365,384384706,3307,1.94,1.59,85473613,80206000,5012000,105919737,10
107594980,3672600,75599699,396235,74886584,395326,1333575,3307917,325490246,1000072,107943549,165,37154,385835531,5990,2.25,1.84,98660943,85314000,13048000,119252922,10
275637834,2759409,174545241,845222,172022960,836408,1197581,3198661,515695950,806196,268926230,49,21466,834451226,3840,3.65,3.01,154276372,143913000,9994000,174875174,10
147328548,4726221,112114830,3393993,107384915,3471434,1046473,3255342,465393898,1166469,148261036,44476,50013,538223567,6449,3.21,2.65,136509153,125223000,11019000,157141300,10
159961840,3781151,139969681,677674,138180672,661971,1967606,3422947,484985002,1039127,159550180,294,40194,649208109,5993,3.34,2.74,144470297,132156000,12014000,164666489,10
277792205,1986881,170219368,1197201,169510834,1285731,672895,2007165,485481999,376251,282323797,30,20664,853748378,2763,3.48,2.9,142250658,133829000,7989000,163080245,10
158558925,2632587,108484212,883923,110147712,838435,995111,2366825,371964937,634646,153228277,51,29302,556724052,6314,2.57,2.11,110093826,93770000,15792000,130218216,10
105515893,3491635,73993614,389422,74200889,380287,1258197,2754447,308920813,906579,102985103,99,27025,374003345,4694,2.11,1.72,92754805,82455000,10055000,113803724,10
275848346,2870671,176342990,821444,174442178,816405,1357703,3474556,536275110,912142,268493421,88,27667,842826109,4300,3.75,3.1,160350251,146011000,14001000,180693928,10
107138563,1570037,74047268,331387,73201096,335537,421869,1685409,210879780,369745,104739379,566,16719,368998792,2226,1.46,1.2,64423283,59283000,4940000,84988925,10
277909505,3756259,175243358,839373,173999941,821204,1294906,3150912,550228707,1061190,272697130,102,36380,853097276,5986,3.85,3.18,164577977,150279000,14026000,185610619,10
107558857,3648857,75437706,390604,74769316,389604,1331818,3302141,323563614,983896,107690923,5,36326,384862223,5990,2.21,1.8,98859081,84640000,13940000,119206393,10
145568356,4872517,111512330,811212,110719605,744730,2505595,4430324,534445112,2051569,142414579,76,72200,538824392,6253,3.6,2.91,163518804,147201000,16021000,185329026,10
277133550,1809176,170802880,1063086,169013796,1095220,523366,1744277,456681789,317901,278195710,159,20104,853552817,2992,3.35,2.79,137283598,129933000,6996000,158006680,10
262559665,1564155,160901977,684789,157636757,746406,360188,1510165,410265061,271078,262861911,192,16987,789580090,2017,3.01,2.5,123374373,117009000,6000000,143731220,10
268806787,1399234,162930407,1055397,159723311,1046387,467299,1852522,423422706,283654,262237634,71,15333,801686620,2017,3.07,2.54,128610892,123269000,5010000,148940468,10
87009637,1117551,75459895,699932,75000434,627297,358285,1472931,203399633,285090,86451281,68,10840,379562500,1891,1.44,1.18,62749601,56404000,5937000,83239778,10
265913901,1553922,161485113,1018454,159269340,1012149,451548,1773190,422826332,240936,265781890,49,13351,800409479,2019,3.05,2.53,127405949,123020000,4033000,147147080,10
124311291,4615287,94531521,563208,90942854,585098,2150520,4533077,407508976,1335411,126298157,89,162074,485059370,17323,2.84,2.32,123166034,91947000,30982000,144920021,10
109009420,3653846,77286145,388492,76332826,389131,1309202,3295096,326008195,927129,108949376,10,35587,391792288,5799,2.26,1.85,99027519,85873000,12831000,119779911,10
100879570,1524415,71217229,372238,70874064,343646,538704,1550664,201031777,312308,98533834,72,11008,349236654,2867,1.47,1.21,62165623,54857000,6981000,82842739,10
99965546,1208588,64313524,695000,62538582,663875,388607,1562613,198826547,314129,94436896,50,11082,335595948,2069,1.42,1.17,62213351,57790000,4055000,83240869,10
105273127,1784305,73387537,592392,70263941,593955,540107,1470544,223125893,249172,103880676,3,13256,367606193,2997,1.58,1.29,69685992,60387000,9058000,90891986,10
275441634,2805518,173244022,806819,168960822,801300,1305334,3055904,523525851,980398,268959164,81,19691,839214135,3515,3.7,3.06,157552905,147263000,10017000,177452339,10
271505480,3042499,170154826,807025,168491367,803204,1294645,3036028,522359036,920439,273687320,27,21170,836407796,3517,3.72,3.09,154155901,145874000,7993000,175078814,10
263987173,1638036,161010422,1038708,159543007,1033629,432954,1854275,423635224,218904,267334650,1,16045,799174470,2017,3.03,2.52,127760486,119527000,7902000,148695448,10
261681137,1630644,159870515,1097622,158514350,1132685,416054,1569112,427772244,232423,266595354,8,12933,786627026,2017,3.11,2.6,125563246,118279000,6957000,146069717,10
273916137,2280307,171423522,860650,175193837,816716,689700,2340587,460518656,445173,276220815,60,24825,848497905,3452,3.38,2.82,134605520,127243000,7013000,154226150,10
294482423,3250831,188168467,900810,186776700,908578,1381381,3567214,575795899,908348,293217104,276,38660,907235067,5797,4.14,3.42,172768544,161381000,11026000,194103828,10
355756338,5154994,240855113,1130643,239096624,1132575,2453923,4752345,800877811,1128542,353053875,15003,96796,1143088651,7683,5.7,4.69,239465316,222167000,17012000,260581277,10
108635026,3450251,75618625,398822,74763538,396154,1353084,3279154,321806611,965772,108698762,7,35746,387801705,5991,2.24,1.82,99051432,79755000,18942000,120020878,10
136407469,10727155,102459658,3699263,102140186,3648722,3523616,8130809,774426852,3411702,138753225,11396,71251,494571510,7146,5.19,4.23,231048296,216798000,13987000,251799831,10
127131561,3558329,90269633,369644,90537135,366257,1233298,2744268,351877775,925069,124789000,114,38665,435533457,5795,2.44,1.97,106768759,97368000,8941000,127418000,10
138805599,3633003,100184000,413614,96605042,401429,1893800,3985069,410860010,1147970,133859086,15717,37254,493328664,7033,2.84,2.32,123844410,102436000,21089000,144540036,10
107897003,3590840,75143178,382491,74741599,381795,1348046,3263710,322033508,969412,108241563,34,42044,386533924,5990,2.23,1.82,98591586,81248000,17052000,118800169,10
275653731,3610931,175130448,837774,174219628,832124,1311477,3123655,550746436,1030859,274519927,114,40358,842562539,5789,3.95,3.26,164456096,157090000,7004000,185175270,10
104670627,1308371,65403488,679149,63463318,656009,387403,1536560,193736975,305573,98841887,59249,10790,353376039,2068,1.38,1.13,61032310,53733000,6965000,81522912,10
107681001,3698949,75456020,387566,74853483,387426,1333774,3324193,323803841,982250,108171100,30,38870,386842163,5990,2.28,1.87,98553714,82141000,16027000,121128359,10
116120606,2399788,83469930,605942,82112150,583975,1125102,2248917,305228716,640609,111071489,64,23446,425345330,4140,2.12,1.73,93364919,84083000,9008000,113328544,10
107211706,3632085,75385354,383428,75129764,386310,1352167,3293014,322068727,1003190,107380598,12,37871,383939015,5990,2.25,1.82,98153231,86781000,10972000,118853847,10
277456332,2976611,173232995,805148,171667624,800284,1208072,3348710,537366798,840816,274080421,96,28536,849696994,4630,3.97,3.31,158284991,146827000,11062000,178350524,10
306766673,2786399,204330019,1162709,203275229,1160166,1163035,2832736,573517951,874571,309659756,17,25780,949515652,4230,4.16,3.44,170721828,160430000,9964000,190497608,10
277671550,3686993,173434315,1022654,174556393,1015482,1385120,3473393,557663664,1025731,276850393,91501,36494,855598672,5794,4.01,3.31,166943928,149706000,16966000,187648591,10
106553437,2725943,74398098,358506,71182496,360880,1198493,2723291,295390644,967825,102561075,5,18362,376386538,3518,2.1,1.73,86675422,78294000,8030000,107375065,10
110308173,3354825,77763088,458348,78311029,461772,1419449,3381860,339163884,931529,112278180,1013,39262,390690757,6187,2.33,1.91,99326753,85976000,12996000,119853570,10
98336548,1207550,63128013,642667,61634000,616911,393181,1509936,196636397,324574,94156341,41,10308,335804634,2022,1.42,1.16,61471091,53979000,7129000,82651219,10
108338765,3204459,74622491,646972,73780196,628668,1178359,2546253,305736235,961473,105758734,66,144621,372231339,4300,2.14,1.74,93813669,89455000,3975000,114495962,10
104677130,2760375,74274731,367370,72477817,363907,1210789,2667417,293634764,969877,100816504,110,23475,371023695,3521,2.07,1.68,89347083,83989000,4999000,110468900,10
147135451,7206362,111591585,2345508,107982787,2288172,2495132,5637599,641737069,2290966,148087452,17383,44141,520708165,5605,4.38,3.57,191446006,178083000,13006000,212636919,10
207228976,15131337,165113183,1133878,160199326,1078637,1422615,3909280,592128416,1530721,204983762,7722,50393,702145181,7927,4.15,3.4,178098569,157799000,19974000,198456385,10
318688784,4287479,210777266,906914,205307934,817003,1943088,4220007,641370983,1237743,299924417,129,49278,1015946620,7033,4.65,3.84,191026869,181746000,9037000,211339178,10
265760878,1525766,162069518,1022949,160035057,1020803,449519,1944402,428218736,255918,265283703,212,13773,803008146,2017,3.09,2.56,128907242,121481000,6970000,150035644,10
96446340,1304509,62509404,620010,61437866,599933,420457,1498598,195775805,312632,94224804,46,10551,335440483,2218,1.37,1.12,61298534,55033000,6003000,82092725,10
115611745,3058760,85917933,696923,83765592,721849,1505899,3055578,352990705,1068651,109323787,71,32707,423970654,6481,2.47,2.02,106598131,92294000,14044000,126317514,10
113975100,2816455,79485506,1014812,76705016,992295,1277461,2742506,341977651,1058742,114540250,473,25831,414839318,4135,2.38,1.95,103410828,96067000,7004000,123642137,10
272918235,1640019,171968020,1121474,173428339,1104358,572815,1913649,453468701,394964,264067238,99,23501,824106658,2995,3.26,2.7,135408581,128160000,6954000,155422166,10
263392750,1544040,160823920,867546,157848201,906014,390886,1546655,419506967,309003,262675006,104,14229,783274867,2018,3.06,2.56,122903305,115605000,7036000,143724731,10
378446739,17526860,269298755,1399185,269374337,1331905,1311314,3501373,836765369,2306632,376127183,2605,38235,1184918721,4820,5.95,4.94,246217173,238833000,7024000,264844064,10
108047670,1827704,71442235,745482,69888843,842980,527730,1417815,232591404,262859,107201225,5,14800,373916876,2999,1.71,1.42,68498480,61221000,7025000,89819956,10
99447499,1488173,67881357,318915,65717604,314714,414265,1476811,186110264,221589,96058125,2939,9579,339126785,2022,1.36,1.11,58507354,48327000,9862000,78862150,10
274580999,1609003,171073307,847262,168907913,837357,580502,1944318,437621621,322827,273536258,99,17958,834281356,2866,3.17,2.63,132056862,123747000,7983000,153655024,10
98414956,1363310,64261882,752147,61641835,730933,433685,1545642,203620196,394776,92660577,101,17756,338327417,2799,1.42,1.16,63783359,54565000,8928000,82398662,10
99498230,2283232,70347161,624306,69890737,631761,797379,1981899,241317095,344565,107085976,33,34920,366408742,7172,1.76,1.44,74317522,57745000,16209000,95649592,10
291931756,3036519,185502791,807224,184310926,805701,1139541,2833393,546907283,901027,284335777,141,28709,887323514,3519,3.9,3.23,163437777,155017000,8000000,182968732,10
122473918,3267367,89419907,408284,88675269,430929,1318151,3159296,344762502,899738,120013079,9664,40067,429388741,5894,2.44,1.99,103852717,97559000,6034000,123842019,10
66180514,9562817,32875481,4409828,34481605,4425292,61619,406204,205434064,16610,68367588,204,4291,144045981,198,1.49,1.23,63565502,62155000,1002000,83950929,11
99283867,22470919,28967061,4670768,31851810,4517002,62832,1410429,250770969,23888,105639853,52,4828,206417128,225,1.88,1.57,76863932,75453000,992000,97379367,11
67593079,12549632,27051429,4526593,29185866,4432422,63307,485468,192790167,22532,68855281,17,3470,152030715,174,1.42,1.18,60684898,58282000,2009000,81462471,11
85053600,24116555,40518044,6168855,38339452,6212124,238329,856796,353726883,103255,84253826,316,21686,284333452,2889,2.6,2.16,107210804,99982000,6929000,127788467,11
65645864,12129984,26655930,4580381,27173172,4587632,59366,447758,205982560,19142,66598735,53,3659,150683409,176,1.47,1.21,63798813,61577000,2018000,84739128,11
69502984,24683975,40944634,8519602,43378257,8414229,75361,821807,314257495,925401,72985142,170,5222,211427248,183,2.25,1.86,95710375,95431000,0,116444897,11
766266867,23440644,604489915,6121031,603384790,6106826,210131,2279935,1270086893,59639,766220030,176,18422,2597077127,220,9.41,7.88,377039749,375742000,996000,397592412,11
66316751,12240902,27444117,4386563,28893473,4390104,56811,438022,195867444,13268,69401647,19,2697,152949531,174,1.43,1.2,57089770,55775000,1014000,78433035,11
66911985,5791525,27122152,4340827,29143229,4334308,54289,383093,187887572,14614,69441356,27,2538,138888239,181,1.35,1.13,55463515,55188000,0,77275148,11
67507590,12350438,27055474,4415849,29283883,4328955,60415,431208,198663834,24164,69575218,22,3941,135729643,242,1.44,1.19,62582513,62277000,0,82334225,11
66338070,12235573,28375398,4468184,29014392,4462676,59622,464218,197592564,13359,67817313,160,2763,139117291,174,1.46,1.23,57771257,54482000,2971000,78420161,11
74728594,5951205,28906035,4668000,31026884,4469956,59062,408043,214050419,19093,80815375,123,5094,194744864,175,1.5,1.24,65876358,62612000,3029000,87222205,11
71602336,7687931,32758974,4320449,34344640,4301342,61578,456765,221669538,14031,74435112,0,3449,283531217,187,1.62,1.34,68421730,67033000,1000000,88571409,11
1502184,130864,2589346,54998,3651132,71042,23641,130624,14615074,12084,6957441,60,6950,3231486,207,0.1,0.08,4796272,2247000,2247000,25754955,11
281076086,59399333,170506789,36433548,174101763,36171294,228566,2193067,1406182685,4669892,291295281,230,24597,746398789,180,9.98,8.31,412096211,410643000,1001000,432675727,11
67071291,12474379,27134254,4461879,29276840,4388980,65073,438150,195682488,21261,68914641,178,4120,139055565,236,1.41,1.16,61872932,60665000,1011000,81795670,11
67385079,12496375,27099643,4479787,29221663,4381134,60155,446702,192537558,22240,69319622,47,2388,152530164,221,1.45,1.2,59277732,56056000,2950000,78998919,11
74254738,10704235,28744030,4495424,31212035,4308583,56126,407536,199586908,19372,80836963,35,4536,175235335,206,1.45,1.2,61367383,60046000,1000000,81077891,11
66885040,5875314,27162423,4210943,29108890,4203489,56137,395258,199770607,18876,69374789,98,3013,165973861,181,1.43,1.19,58510977,58193000,0,79163712,11
84924820,20476979,29973713,4412632,30187986,4421449,70082,1205066,247555158,11687,86110639,23,3247,179988678,209,1.81,1.52,72068271,71485000,0,91425469,11
132290988,12918148,54497209,8585810,55079586,8587914,76326,623477,360218395,18912,134093060,40,5421,294257296,172,2.61,2.18,105500893,104165000,1001000,126141421,11
65912155,12241645,28014907,4394359,29236559,4423636,59355,420978,211088747,16254,67789935,23,3850,150620339,222,1.53,1.28,62194731,59897000,1996000,81955655,11
92329429,27896036,59012694,8317310,60677014,8168959,77210,2099791,313004017,958664,94612343,10,5444,254295265,215,2.32,1.93,95738765,94511000,1005000,116612443,11
77792233,5778271,27623560,4504887,29651177,4474386,55604,406739,205285412,16615,79413476,53,3907,176582867,196,1.43,1.18,62989149,61746000,995000,82655629,11
66948711,12400665,27045654,4627581,29368745,4558156,59273,439832,202219257,19730,68780253,64,3870,138305927,224,1.46,1.2,63696762,62536000,1008000,83524077,11
66347946,12309168,27840155,4450419,29104148,4451175,58137,424594,208786595,16080,68436694,28,3741,165363322,212,1.5,1.26,60919448,59682000,994000,81468652,11
65369605,22843485,35313807,5630199,38494686,5501768,79389,1519904,290405741,433765,67571768,141,5307,194277410,199,2.1,1.75,88304319,84962000,2998000,109371426,11
95401401,12151808,40479459,4366769,41452333,4362318,64604,457879,224420148,12229,97355426,0,3362,218814314,174,1.61,1.33,68684685,68387000,0,88511473,11
80155432,23903120,42345327,9422929,44708415,9173525,78297,1384616,331260142,474523,87492859,7,4886,226757339,179,2.41,2.0,101548727,98002000,2969000,122087071,11
75721554,20743892,47752059,7542623,49263310,7509071,82123,1185038,316349874,16410,77756258,0,5082,225025360,222,2.27,1.88,96013379,94766000,997000,116013605,11
75662412,20727730,46784416,7471063,48776840,7493386,72227,1187992,314061170,23343,78945004,37,5015,224396416,222,2.33,1.95,93069098,90775000,1995000,114186532,11
777208215,33610954,617883677,6147394,617402733,6129548,221439,3528067,1352741863,54139,776987244,87,17993,2678120507,261,10.06,8.46,400656512,399388000,998000,421329476,11
65971162,26542168,40425627,8116113,42276490,8085196,71007,1681344,294917425,976630,68731898,144,5608,200376016,196,2.14,1.78,89829917,88621000,995000,110795783,11
66815662,7464219,27853662,4313693,29743012,4310732,51624,393769,201000015,14752,67776774,36,2737,165678311,159,1.45,1.21,58688721,58433000,0,78907684,11
803391045,23401604,655191451,6126622,654495043,6107983,226875,2433168,1372427600,52260,803866970,27,17736,2756984031,238,10.04,8.42,405631859,403405000,1997000,426241105,11
66657460,5864261,33438533,4368493,34268545,4367443,54017,397325,188747626,15234,67692098,1,2480,157706812,187,1.36,1.13,58640275,57384000,1006000,78454743,11
283958116,41926385,225853930,9974185,221224827,9976471,8589302,17599106,1376558157,2854275,285359726,174,593570,1215754332,117349,9.96,8.21,404450657,212044000,192040000,425125391,11
66881543,12382779,27911799,4498255,29055960,4449162,52949,430053,193127752,14450,67714796,34,2753,151804896,174,1.42,1.18,60047294,57894000,1962000,79978612,11
66695401,12441048,27088340,4528599,29151196,4457633,53860,418349,193844480,17525,69009185,123,3605,151513718,174,1.44,1.19,60146134,58869000,1014000,80477218,11
135718474,11446128,57549610,8727964,59477401,8707142,79549,628854,381237241,24598,137767881,7,4587,300019512,183,2.76,2.3,112395109,111027000,1000000,133033100,11
74916919,12456328,28883070,4676876,30900164,4457275,60392,494061,216517622,21191,81058871,5,4345,181600309,206,1.55,1.27,67826425,67487000,0,87884665,11
106179439,16053230,60819696,4746918,62843452,4542038,60437,935620,248275343,22945,111891463,33,3184,287020208,183,1.89,1.59,73639758,73322000,0,94669367,11
766917350,23347342,609751309,6138458,608649433,6106576,205823,2256630,1287227149,56970,769014115,34,25820,2645716387,216,9.67,8.1,382026066,380731000,1001000,402686366,11
71426546,12777762,29704197,4841599,32628696,4608459,60266,429455,211070458,16201,79219651,32,4282,174661085,217,1.59,1.34,61820532,58548000,2977000,82627802,11
70852794,12935665,18800772,1998782,19801069,1852555,124614,501098,129702176,43572,69854913,13,2238,139205545,995,1.01,0.84,41327004,39084000,2004000,61865953,11
72747054,38424606,31639989,5063418,31496339,5036973,301076,14626184,561672900,13930494,73863724,35,23567,191468331,3544,4.02,3.34,168112063,160826000,6992000,188324986,11
1547392847,39229966,1241697545,12202142,1240883663,12165205,393806,4416393,2619610734,105165,1548896772,199,33598,5322421594,228,19.49,16.32,771571944,771318000,0,791904728,11
66580016,7404304,27399829,4366269,29806895,4352887,56228,411205,203171390,15541,68558135,39,4163,167165238,160,1.44,1.19,62449346,61076000,1001000,83456431,11
66938472,12384165,27703623,4428465,29125446,4433189,55118,407410,193279676,12623,68501797,0,2413,151177723,174,1.49,1.26,57276099,57097000,0,77106098,11
749050671,23122455,604651047,6020073,603695197,5996895,220974,2243920,1252943987,58761,748315191,206,20696,2577837547,229,9.39,7.89,367983126,364640000,2988000,388998077,11
67202883,21647349,52026603,7703606,54258149,7615195,103500,1147528,313054510,965492,70790331,55,5080,241104565,191,2.29,1.88,94474202,91852000,1996000,115747285,11
80037775,26762122,41866986,8964253,44489264,8679732,81831,1062977,320771143,919971,88114085,3,4337,234963656,188,2.33,1.94,97513927,95280000,2005000,118431903,11
57335405,6954797,37336963,6204641,38675019,6203449,62689,454474,238343818,12469,59321554,0,2974,170401639,161,1.76,1.47,70628009,69280000,1004000,90865269,11
120897685,10410345,52382502,4685323,49793429,4588811,185898,700123,240872339,69557,116794351,82,6196,294820900,1349,1.79,1.49,74735345,71297000,3012000,95029565,11
765705384,23103021,604971089,6037234,604838729,6027116,233943,2169974,1291843912,61678,765583308,273,28287,2617319505,218,9.72,8.14,383180713,381741000,999000,404006098,11
89307693,21197227,30070164,4759986,32852737,4639858,70540,1286712,267822121,32865,95936551,372,6256,227169918,204,2.0,1.68,78529677,76280000,2007000,98354455,11
66768357,8228908,32468343,4563359,34299392,4446632,55926,396583,200428176,16694,69384082,287,4342,171371916,175,1.45,1.18,66417613,65122000,1001000,85766664,11
751835525,23175754,609786714,6058809,610209346,6048972,239590,2433722,1504374978,54785,753510214,35,19745,2591305045,214,10.94,9.16,443676578,442296000,1000000,463946635,11
143182412,19107752,42075301,4643134,44589538,4649642,65829,506748,272171127,15682,141500980,91,5109,343965903,169,2.05,1.72,81881940,80724000,996000,101313860,11
66425453,12258054,27439467,4391954,29316269,4384488,57813,415839,201412085,16534,68288945,21,3925,151242737,212,1.45,1.2,63247547,62869000,0,82843771,11
66386134,12197919,28583916,4405589,29164022,4366609,54922,454237,195323706,11185,66853876,16,4070,137543419,173,1.41,1.17,61216148,59969000,999000,81615412,11
67016640,12394065,27063649,4305493,29270260,4267708,58046,489350,208257358,23273,69026984,1571,3919,151733263,213,1.5,1.24,64498536,63199000,987000,84785693,11
746580892,23260892,604106475,6094810,604329722,6080922,205291,2237001,1277665972,48096,747838097,90,17340,2565470132,222,9.66,8.16,374968968,374819000,0,394986284,11
80010802,23637292,27033766,4522435,29936187,4472892,67048,1850337,245854334,24485,82454451,1,2991,190437070,229,1.93,1.63,72793799,71465000,1006000,94348770,11
72735758,7587696,29008747,4632970,31997398,4473132,56316,390692,210452419,15538,79727409,41,4591,169911681,192,1.51,1.24,64991197,63636000,994000,85533659,11
86520761,22692302,28728044,4654334,32168067,4462962,68854,1312943,243690372,20087,94177739,168,3776,192772273,207,1.85,1.54,74116126,72893000,998000,93594498,11
72832032,12511603,29223971,4616747,32214791,4438638,68297,490210,209743443,15391,79720225,27,4019,177830272,168,1.54,1.28,64701814,62391000,1980000,85124367,11
84846503,6247358,47589637,6231723,49696794,6169863,76512,566023,329457830,25895,87526669,4,4109,394537572,183,2.38,1.97,100949784,98573000,1991000,120844305,11
71334666,12275275,32907345,5693909,34526778,5651041,64562,622246,244284294,17866,74032740,81,3775,173240489,222,1.77,1.47,74387902,73053000,1000000,94427981,11
787591532,23361627,609862099,6032676,608998079,6007702,236759,2324114,1307013235,59723,787671912,157,17466,2641581084,245,9.86,8.27,383376363,380991000,1999000,403951555,11
96930163,21597410,28821973,4618478,32328048,4439429,66430,1253444,258809120,19588,103369527,59,4788,195951818,216,1.96,1.65,76242715,73983000,1999000,95577440,11
56046380,17454084,30290521,4646029,31933106,4648638,74659,3345172,263514758,396417,58602542,72,5457,166934985,329,1.97,1.65,77543268,75365000,1983000,98045919,11
79817798,22039796,28818500,4538218,30605041,4537712,77432,1210526,245177680,21796,82367043,0,3061,160331839,262,1.89,1.59,71284660,70049000,1000000,89576685,11
203396916,19190281,77351683,9209834,79305310,9042156,101352,776035,500770606,27086,211286995,216,8163,562473201,171,3.61,3.0,148110463,146781000,1005000,168718777,11
66189196,12097221,28888860,4215044,29123014,4230508,56837,410652,202492990,13039,66528425,0,2470,138056973,221,1.45,1.21,59629391,59455000,0,80041902,11
66140162,10271250,40416517,4497819,41453273,4519001,58505,408068,211220077,14939,67776826,26,3848,188898154,212,1.56,1.3,63720010,62416000,1006000,83502769,11
762328426,27352744,605382192,6043843,604754024,6024437,233770,2394997,1304320566,63874,761696136,51,18917,2583545167,231,9.91,8.32,382800221,379328000,2986000,403614163,11
89137524,12471352,32529014,4428241,30217689,4341271,226582,649320,221020962,84333,88551413,54,15397,191599623,2525,1.66,1.39,67681401,62415000,4953000,88421163,11
71709787,7360445,27350192,4416217,29322754,4415217,61800,400294,213066571,18184,74440448,82,3861,242444311,200,1.55,1.29,65296464,64974000,0,85964229,11
746208005,22189337,604562443,6070810,604834553,6045551,209442,2213294,1297199213,51453,747429974,165,19645,2586355396,221,9.64,8.09,384265922,383061000,1000000,404514318,11
219923596,38403693,158507373,638859,157304308,635295,507570,2876159,748182347,6351759,225373625,397,58275,720739558,4040,5.06,4.17,218966221,211541000,7017000,238878247,12
400052039,14874441,258924780,1081363,261429902,1093814,645208,1918171,792946695,1450917,411205369,548,47121,1208796368,4816,5.59,4.62,237335946,223921000,12995000,257010161,12
320181613,548547,198348852,632531,197285282,642866,148658,795427,429361517,53560,325118816,191,10102,946443940,519,3.11,2.58,129128439,126815000,1997000,148733165,12
150291625,13995230,106351568,427503,103970376,401559,385173,1097119,369228043,167713,149570301,51,21494,468291559,2477,2.59,2.15,109278770,103022000,5943000,129713926,12
162765142,17403535,145111059,968585,143954639,935104,725792,1706787,497228444,1508209,160003532,155,45316,597023025,4821,3.38,2.8,145282803,134866000,10064000,166416583,12
102199527,1968534,83393315,214761,79775576,207853,246405,922842,155778129,88866,96218650,64,6904,339789054,1694,1.1,0.9,47961590,42656000,4960000,68061137,12
323271825,430292,198273668,626874,197639124,644980,140176,785603,435326876,52051,319605534,164,10967,942369312,520,3.15,2.62,131289987,130048000,1000000,151111288,12
323549098,659913,199205513,639187,199811077,654250,138874,867205,431529998,46557,322957220,156,15125,943297317,994,3.11,2.59,130920500,124663000,5983000,151987564,12
457632555,18898175,294913050,1533863,297138563,1588591,1438035,7885720,1103017031,1520947,455252674,195697,76177,1426734204,10648,7.81,6.46,325343119,306012000,18938000,345528771,12
320830923,621642,200072176,646896,198832541,649170,139995,764094,423642717,54842,321795459,31,9484,942624244,517,3.09,2.57,127622297,124235000,2981000,147660136,12
93242897,972512,66085320,160901,64767980,142989,149315,521717,140963882,43200,95911360,90,4110,338004242,915,1.01,0.85,40833937,38534000,1976000,62423064,12
133993979,7497585,107978393,479939,109111360,499793,311105,959950,293314351,179247,136421387,131,31810,466565492,2476,2.1,1.73,91121089,79453000,10924000,111434766,12
111545487,1174232,79963560,2004753,81026715,1995065,107735,614568,221051538,61632,119957088,64,15562,448805397,1945,1.62,1.36,64752345,58301000,6031000,85927324,12
328521933,979980,204471622,646636,200656519,642099,189595,935275,427398432,78040,318518890,3,9352,950316140,909,3.12,2.6,129241432,123861000,4994000,149983360,12
313874707,694454,200628950,637737,200180999,632709,144142,770476,420746338,46954,321496418,0,9066,930709003,519,3.03,2.52,127347475,123948000,2998000,148693142,12
328033067,893960,203856794,636132,200502714,636660,185778,955180,427832275,77785,318143798,133,9928,948534787,909,3.12,2.59,129877344,126540000,3012000,150462242,12
91217063,852258,63854758,140303,63045506,118052,137653,447542,136867316,40963,94110842,60,5236,327778150,914,0.99,0.83,39973207,34695000,4956000,60706718,12
326540104,1036078,204957465,649709,208607297,664687,203028,1027003,450504571,61430,323420591,202,15491,969989264,1937,3.25,2.7,135842109,131470000,4014000,155866907,12
98560385,917992,67818372,136091,62697373,99773,136854,505684,131450542,53548,94756233,33,4344,328603985,914,0.97,0.81,38881292,35514000,3044000,59757288,12
324450695,1181740,210982281,671189,213678613,692224,150200,914124,451372358,66413,328986372,132,20521,958822491,1938,3.33,2.79,132813241,129447000,3010000,153833528,12
89646065,553291,63826536,152158,63891685,128609,100934,419231,129722213,31862,95686539,1,3461,326254217,525,0.93,0.76,41687937,38273000,3021000,61701543,12
326391682,1096389,206274084,659914,210900067,678806,211410,1032410,449831863,58539,324089638,84,15579,964643155,1940,3.23,2.68,134874530,129517000,5020000,154449384,12
91975926,600511,64708737,151517,62690325,114363,89906,378311,123602733,25628,95580001,3,5399,314303012,525,0.9,0.74,39563022,38279000,1007000,59742930,12
91223282,618985,65961774,159787,64190091,126247,89637,405704,124762543,25704,96229347,0,4677,316669058,524,0.88,0.71,41147600,36961000,3890000,61831827,12
395563017,14833168,260141820,1066094,263238599,1080932,593450,1820105,789466132,1401925,405902990,245,41756,1193838390,4816,5.55,4.6,235960973,220700000,14912000,256909499,12
401684533,11150324,298846203,1407898,301213678,1430537,861438,2254201,840202899,3175612,407031823,249,49540,1385187949,6378,5.92,4.9,252543204,236178000,16012000,273385747,12
99818597,818330,75180293,171384,72170967,170778,170325,644482,171471740,72754,93897639,105,10894,338806589,1945,1.21,0.99,53886365,49525000,4042000,73492788,12
323765377,1146011,207755626,655784,211479292,674107,191610,976263,449874361,62077,325061388,58,16830,958808415,1938,3.25,2.71,134775804,130505000,3984000,154268488,12
98847049,1149951,78563860,211093,81224859,239772,150746,617502,153712830,46732,104035440,62,10225,339356609,1943,1.09,0.89,48613253,41362000,6893000,68172276,12
361241082,1871144,231237446,718478,228334228,699462,330183,1210423,514532519,106688,359965726,29,14889,1058137743,1691,3.74,3.11,153973192,150567000,2991000,174790579,12
177883235,17411865,133613607,625042,134974806,632883,664557,1630236,487503430,1111416,171519265,161,45098,577958834,4822,3.35,2.76,146486142,137112000,9007000,166869840,12
405834076,17060311,266434571,1024018,266677314,1011827,981708,2413261,869652281,3045564,406779942,161,56329,1219301068,6376,6.09,5.04,259604393,242139000,17009000,279213098,12
94895384,526680,67260304,172924,63684069,136865,105054,414946,126636493,35254,95062152,0,3596,320582041,522,0.92,0.75,40801278,37423000,3034000,60816753,12
326108631,1016595,205500923,649064,206196240,651038,194788,1015060,455553140,59483,321689214,88,15473,968438317,1939,3.3,2.75,137108034,130724000,6033000,158804370,12
324560757,1147669,207713670,656278,211838671,675337,191273,951342,451089888,62253,325765936,104,18220,962695906,1938,3.32,2.77,134519255,128147000,6006000,154627878,12
102093310,614979,78230242,125334,77171528,107843,84844,464518,151807730,44149,102193962,5,8693,349402599,1042,1.12,0.93,44940082,42684000,2032000,65040454,12
148695594,2614669,115225629,1563584,115128802,1736754,763254,1651821,387108602,404247,148500025,24,58944,573280531,11195,2.75,2.27,116604965,97218000,19042000,136304723,12
164067495,16258986,144730244,949058,140722923,914120,767740,1668458,494186891,1540725,162040804,23,36731,605165785,4823,3.38,2.79,144387292,135064000,9004000,165060897,12
101302426,1025831,78392228,196022,80647957,224569,145819,601074,151779135,62836,102823853,62,11468,347833544,1944,1.1,0.9,48606061,37142000,11042000,69165039,12
106418850,1496403,75020344,183997,72978953,184331,345704,1363953,175709859,134930,101200031,0,16059,362359530,3748,1.26,1.04,54568956,46116000,8020000,75721606,12
324950174,1100940,205609634,656058,209107692,666966,196239,1008688,451690726,58217,323403467,111,15545,967072654,1938,3.31,2.76,135865971,130538000,5020000,156340793,12
320076460,577087,198549801,637999,197545664,640741,138977,796293,432157177,49637,324129050,23,9438,945736182,519,3.12,2.61,129213196,126928000,1998000,150475460,12
469958806,17225167,328193587,2795666,335813106,2681540,2075397,11609954,919082416,409575,471267048,83,41230,1635002036,5597,6.78,5.57,271197003,255869000,14992000,291607244,12
326511400,32777401,236457204,1283506,240168715,1277938,1813232,3945306,1066127248,2465139,333261765,38523,124077,1145748673,15926,7.38,6.08,316082576,294660000,21047000,336748803,12
144219417,15367090,105253534,476821,107046002,483323,437189,1252879,444837980,2201258,142610969,106,23895,450232252,3260,3.06,2.52,129876300,119537000,9961000,150867942,12
323166997,1151429,207601594,658886,212461021,682449,197516,992921,449703215,53738,324225378,85,16903,958953829,1937,3.25,2.71,134935725,129719000,4989000,154728717,12
324113356,1682916,201676876,635727,197033759,606654,298166,1421697,457729373,114511,317999834,32,22591,939326442,1689,3.35,2.79,137961144,134667000,3014000,158107840,12
90484183,543200,64414899,158149,63788725,131843,100618,426212,129244716,30381,94978131,0,3543,328506765,526,0.93,0.76,41681824,39322000,2016000,63127817,12
143037102,15183135,103199902,465800,105511461,483146,434586,1268309,442368452,2682717,145198271,44,20756,442082371,3259,2.99,2.46,132339632,125133000,7007000,152194470,12
318651880,775794,201659540,640329,200749332,642731,142073,850246,431580389,43217,321871856,77,14209,935792228,1034,3.12,2.6,130519383,127187000,3004000,150591497,12
115050543,2316124,93516818,224171,86890373,201094,300564,1241031,189595842,152245,109578369,107,25708,375383498,3750,1.36,1.14,59131108,47962000,10991000,79543944,12
172664276,16137552,141499919,913400,144552346,935958,583006,1529124,506269195,1083170,176713531,46,35643,575892293,4820,3.42,2.81,149876439,137648000,11969000,169424731,12
174120853,15828539,144809002,477886,146408749,478299,546565,1640575,535398693,1340280,176935213,23,37722,672985908,4809,3.69,3.04,160049829,148831000,10914000,180212045,12
346815078,4965189,198665366,439524,201421595,434354,851078,2689105,476687114,260373,337323233,3,36998,1015618863,8016,3.52,2.93,142939969,125657000,16953000,163524137,12
140069535,1917274,91131551,254512,92201195,253937,289338,864328,203755422,114449,128842668,16,20658,416404161,2478,1.48,1.23,59446823,55229000,3944000,79529579,12
145220292,13779020,105768936,663954,106449402,627062,336509,1038132,366164114,176649,144604432,101462,21485,455259637,2476,2.58,2.12,111528310,104176000,7011000,131888742,12
110656558,1176098,81140387,1947185,80855563,1923381,179048,723255,221752101,53421,116324876,1,10559,453139133,1944,1.6,1.33,68142906,63885000,3992000,88495998,12
323192293,1144196,209898945,660941,212707575,681305,158262,908357,455162501,61569,327265205,106,20385,961112706,1938,3.35,2.8,134004025,128653000,4986000,155230773,12
327894533,2422210,210645864,687298,207646738,664703,384134,1590304,482745973,129008,333234455,57,20520,984445969,3743,3.55,2.96,141694074,133266000,8016000,162506237,12
98078142,1187917,79129529,202680,80668527,230510,143564,582636,154799835,50161,105281849,93,12868,340964559,1944,1.1,0.9,48400553,43104000,5012000,69558997,12
95502438,1315211,81028323,242064,77194221,210350,119543,562041,156496100,58798,102476145,150,14299,339522407,1945,1.14,0.95,45251516,38774000,6122000,65917030,12
332020369,2736764,220241333,728350,221282853,733983,539600,1899354,502713994,176069,335201861,374,40406,992936739,6300,3.67,3.07,146477898,138009000,8000000,167161506,12
88177178,933115,89453450,184122,90180807,182586,177533,667995,186664886,57305,88797455,0,11748,401614803,1941,1.34,1.12,54864584,52493000,2018000,75441832,12
88409953,1146706,67693206,157992,62963300,125061,141702,537110,129033475,44958,90024075,1,3317,305704930,915,0.93,0.77,40974636,36765000,3974000,61175866,12
407761828,8865957,301198242,1409107,297139178,1378365,738232,1931767,772193352,1389666,405492942,675,62513,1406230878,4816,5.62,4.68,226988860,215630000,10981000,247716614,12
405858509,14814878,263668410,1027479,260679312,998558,730340,1935077,777753425,1310373,407455335,270,41799,1222818164,4816,5.59,4.66,227607553,220346000,7011000,247648157,12
179767613,17569424,129760608,1027927,129525198,1039426,920793,2002052,584705619,2962809,182220665,198901,49168,594107847,6384,4.03,3.31,175235029,166981000,7999000,195776594,12
328727692,1049914,206722876,650023,206946761,652896,231159,1043937,457475048,67135,324181572,73,14891,970220428,2328,3.31,2.76,137514311,130171000,7009000,157766726,12
96801136,1351667,72873742,743793,72987933,734527,110809,577119,171190513,51160,98635097,56,14129,354144381,1904,1.23,1.01,53387764,50158000,3009000,73609496,12
95888614,2050969,74352787,195848,79831372,214056,301833,1247177,175775198,85294,107012206,82,18973,343372441,3748,1.31,1.09,51522629,43180000,8033000,72228247,12
460416058,7668211,312884593,1216121,301731811,1206599,1024750,4548553,744512838,292893,446091177,265,259107,1506829629,8629,5.54,4.62,221553048,207326000,13954000,241871318,12
97653347,2007769,73703498,202514,78817497,226674,309243,1290527,175101877,78269,106222178,71,18762,346486972,3749,1.27,1.06,51399719,44057000,7009000,70518638,12
107276880,1573307,73306830,182571,73659007,181337,337458,1423372,175035028,104977,103815633,99,16016,359058563,3750,1.26,1.04,54826006,44343000,10078000,76284552,12
98591862,1995453,73688425,187793,79973121,214606,311263,1324548,174408200,79755,105383434,65,19621,343153237,3748,1.31,1.09,51008941,44630000,6085000,71820204,12
324839494,1125921,206902746,657789,210398184,667954,199813,1028054,451571611,56600,322816224,78,14757,964020514,1938,3.29,2.74,135809090,127658000,7916000,158675039,12
406143854,17721623,265808089,1224824,266441885,1224489,950030,2447680,883904377,3366733,407119526,1765,54781,1218916361,6380,6.33,5.26,259521652,249174000,10006000,277706431,12
99557078,1150323,78737553,207881,80718444,254243,143190,607726,153218675,51972,104607782,58,10845,345898914,1943,1.11,0.91,48393697,43947000,4088000,69234123,12
90658409,518998,64430346,152834,63955140,125371,99143,427055,128422017,30849,93918552,1,2963,325745633,525,0.93,0.77,40844166,37583000,2967000,62056177,12
98618902,1157045,78081699,203860,80432166,227076,140613,632861,157759637,55556,105284146,109,11082,346990405,1944,1.11,0.91,48983346,43609000,4955000,69479832,12
327438316,1076210,206640005,660985,209596495,674611,190217,1014101,446721960,61025,322691473,80,15181,966972023,1938,3.28,2.73,135260179,130901000,3997000,156318665,12
75323493,152237,46052747,74930,46438633,72928,43500,274888,106612397,9372,78022851,161,3719,224565483,127,0.76,0.62,34217980,31930000,1995000,54311827,13
81807045,260292,47780790,83187,48812539,78057,54004,283602,112065030,18948,83060003,168,3831,260143573,325,0.81,0.66,36182698,34845000,995000,57124689,13
27482007,142639,16754728,66731,16745037,67085,33059,176134,42349781,2751,31049165,0,1695,95135078,133,0.32,0.27,12335077,9315000,2794000,32328834,13
28627689,119858,17101562,67343,17072516,66979,34756,206392,41590171,6314,31122011,0,919,99641203,134,0.29,0.23,13887072,12610000,970000,34300966,13
78048149,109577,46380020,83094,46748893,80251,37710,265443,103278257,12870,78266534,180,3586,226030772,128,0.73,0.6,33996238,32766000,1023000,55051054,13
82780998,520394,49970940,96498,47332062,86774,83009,344887,118187174,26157,83349325,286,4423,262248629,518,0.83,0.68,37657413,33410000,3930000,57305977,13
84129677,159897,49015967,82836,51646439,90097,58679,302625,112895491,18281,82913623,45,3265,243567381,322,0.81,0.68,33221004,30949000,1934000,54506491,13
80629524,278079,47727248,89275,48747777,80448,54736,278554,112756528,14581,83571562,148,3716,261220798,324,0.8,0.65,36455212,36205000,0,55841356,13
30814404,91328,17184462,65391,16290917,66251,30831,186033,42537028,7251,30914920,0,1071,99299896,133,0.34,0.29,12693818,12479000,0,33348301,13
32116451,108648,17766125,64950,17186288,65190,48870,222246,41672172,15602,31175661,0,946,103012260,328,0.31,0.25,14508026,13213000,1016000,35010815,13
81427390,244180,47971135,84821,48978488,80265,57749,304638,113188834,15643,83550482,33,3301,260443305,324,0.8,0.66,35857970,34565000,1016000,56745299,13
29915440,109165,17412033,67329,17162602,68235,31885,192292,42249034,6563,29793766,161,1328,96896577,133,0.31,0.25,15216526,13976000,998000,36124894,13
82075727,254428,48428270,93814,48342541,87345,62056,311613,115304593,18534,84242121,206,3889,264847707,323,0.82,0.67,36340323,33106000,2921000,57681116,13
86310299,102719,49852207,84030,50957857,100880,58542,315202,113588164,25433,82116529,32,3146,256236647,322,0.83,0.7,33550836,30339000,2936000,54765938,13
82148583,257440,50500634,89695,48575620,80823,55185,281683,116809868,21612,83835482,61,3317,258427838,323,0.82,0.67,36856623,34557000,2032000,57323947,13
83509631,270266,52839918,105623,48868044,84612,59352,297676,113519505,24356,82142999,32,3381,257823277,322,0.83,0.67,37596652,35278000,1959000,58716924,13
78465755,90401,45964710,77066,46475202,75920,38575,268495,103684159,16451,79013447,24,3235,227198965,129,0.73,0.6,33250634,31019000,2001000,53399250,13
30180942,84697,16554104,71187,16427277,70563,34172,187968,40824688,9599,31636054,0,1230,98376625,134,0.29,0.24,12151808,10922000,992000,32119162,13
1028532,96413,2308118,36013,2680699,35953,22561,108706,11229483,8872,4219961,?,?,?,227,0.1,0.09,3028337,1882000,941000,23112298,13
82099047,312376,50074656,89677,47934744,77894,56682,277732,116151691,19853,84102570,61,3269,261276794,324,0.83,0.68,37285388,36087000,1002000,57546307,13
30239882,85554,17311155,67790,17025190,67389,31083,199725,42221163,10853,30142046,0,952,97757060,134,0.29,0.23,15098678,14875000,0,34641428,13
79573995,159519,45961947,80868,45831719,76783,52828,293162,106822352,24601,79667777,25,3222,234661647,323,0.77,0.63,34760818,33492000,1014000,54719523,13
79035412,162576,45450478,73905,45411934,80133,71271,307786,111675818,26053,81643780,44,2278,236919901,520,0.81,0.68,32345239,31100000,1003000,52654684,13
36041521,95084,26224545,61714,26552301,64377,30146,200473,61456996,10921,37085520,36,1608,144606356,132,0.45,0.37,18064448,17813000,0,38949972,13
35466125,285692,22768747,72582,21980340,72136,63236,286971,50215865,25407,33914680,0,1163,117348045,525,0.37,0.3,17053142,15902000,993000,36989557,13
31821700,82163,18078091,71365,17615297,71038,36171,206616,39270436,14322,30693151,0,1272,101927523,133,0.28,0.22,14376995,12107000,2017000,35726291,13
34740029,226890,23153617,73046,23249008,75017,42687,258862,51006451,19947,34469202,8,4826,116032946,591,0.36,0.29,17475887,15160000,2021000,37376031,13
77521411,128335,46019009,80119,45677905,79554,38448,263732,106007059,10763,79913317,0,1928,232676131,128,0.78,0.65,30782823,28553000,1969000,51068787,13
77509807,114347,45743311,80129,46219215,75683,38353,264621,105034572,12272,79389200,38,3251,228440395,127,0.73,0.59,34017396,33795000,0,53935354,13
77591398,162425,45669586,82101,46307462,77417,51731,291798,107040106,20634,80125771,38,3335,231913342,323,0.76,0.62,35337919,34099000,1002000,55484814,13
80944107,123005,46770469,84814,46884657,80494,55365,286312,108755700,24901,80927774,56,3321,237234094,325,0.75,0.61,35507788,34120000,1003000,56578376,13
28087931,121444,16157650,66801,16156146,66516,31597,175659,42569779,5898,31398749,0,1708,98095609,134,0.33,0.27,12177660,10003000,2000000,31991578,13
76507488,128311,46092415,78103,46499917,74448,37827,275079,105898971,11761,78999586,24,3134,228338818,127,0.74,0.61,33950666,32677000,990000,54153880,13
32888513,62404,19388969,69996,18365906,70100,33940,216971,40861322,15415,30391531,0,1030,104345453,133,0.31,0.24,15603134,14204000,1014000,36088848,13
28158494,116582,15972894,67763,15813136,68529,33065,163865,42609625,6662,31886361,28,1983,99431554,133,0.3,0.25,12003258,10791000,981000,32124349,13
30240957,80497,16171532,68979,16062005,68755,32556,195783,40516602,11732,31412760,20,1341,96279140,133,0.29,0.24,12252266,11002000,1000000,32369638,13
84584341,275425,51876661,110546,48215799,94746,61669,301172,111910019,26502,82829333,81,3624,263373158,323,0.78,0.63,37603624,36415000,1011000,57698223,13
76129773,156364,45951297,77586,46284112,72857,38219,265460,110484696,10138,78985705,32,3278,226860153,128,0.79,0.65,34856636,32673000,1980000,55027742,13
78410065,110233,45385766,80449,45814024,76774,36656,269498,106611995,15182,79700672,40,3117,228896890,128,0.76,0.62,34665387,34501000,0,55159692,13
79710083,86287,45979240,79486,45725587,78932,38071,259764,103892031,15838,79644850,0,1948,232526150,130,0.77,0.64,30643101,29483000,1016000,50878062,13
78053975,117355,45927146,79758,46471147,74980,38227,269217,104200540,12744,78775553,26,3257,226820302,129,0.75,0.61,34307502,32098000,2006000,53863972,13
77556968,126710,45928936,81125,45633412,80770,38222,257575,107293442,11474,80001271,1,1888,232823463,128,0.77,0.64,31100346,29843000,994000,51432397,13
33011311,149820,19061224,68080,17480002,68652,65115,256933,42788923,30576,29402085,1,1009,104742795,525,0.32,0.26,15146191,10930000,3974000,35641270,13
35392077,286152,23806189,82542,24498379,86900,52800,272230,52735030,17930,34084168,30,3494,115633188,524,0.37,0.29,17695440,17382000,0,37515540,13
81429214,534394,50978509,100241,48519475,92179,79013,359066,119553682,23569,82656736,97,4005,256597673,518,0.83,0.68,38209884,35889000,1993000,58881369,13
83708492,276011,50635565,96181,47764944,83708,55915,294598,112325740,22012,82509288,37,3361,264644655,323,0.82,0.67,36877647,35599000,1017000,57939762,13
40296960,181713,25472528,63673,26578910,64714,61457,255925,55975498,24806,39058571,44,2417,128755187,523,0.39,0.31,19134970,16111000,2843000,39572719,13
77100915,115600,46190963,78331,46756324,74163,38888,269256,104534860,11301,78568271,21,3431,226213879,128,0.75,0.62,33618660,32360000,980000,54653111,13
92112384,310011,54803788,104936,54567247,104250,61634,324074,130521254,22228,91924828,43,3971,278511605,419,0.94,0.79,38119701,36791000,1021000,57338348,13
85032696,127311,48808087,79919,51052935,88791,55466,303645,111603882,18288,82970364,27,3318,246756953,325,0.82,0.69,33037477,29676000,3069000,53740435,13
77881568,94034,45411450,78175,46139180,76014,37562,261698,105193615,14148,79707438,52,3240,229513383,127,0.76,0.62,33754553,32507000,1015000,53445385,13
79066079,128928,46663299,71939,45948048,78527,38482,262737,107174029,10714,78284737,10,1965,231464777,128,0.8,0.67,31724226,29493000,1966000,52444993,13
75797171,156046,45697829,76903,46150246,73568,38769,272026,107224745,9734,78463799,30,3252,224563408,128,0.75,0.61,34851881,32552000,1972000,54849756,13
76770632,155772,46100398,79954,46598067,75002,37965,264211,108051787,10718,78582968,27,3220,226092594,129,0.78,0.64,35257906,33927000,969000,55879950,13
76435475,136572,46379116,80508,46883123,76078,39204,275660,105159335,10908,78170572,52,3453,225271056,128,0.77,0.63,33912743,31717000,1922000,54894959,13
82326211,307165,51335774,93789,48786183,80665,56934,287060,114945595,17406,82515782,40,3290,257100224,324,0.81,0.66,37173349,34962000,1997000,57193736,13
78480118,110290,45421457,83781,45889221,78648,40466,276673,104969750,15733,78790735,24,3249,225905314,129,0.76,0.62,34263565,32089000,2005000,55058382,13
77730615,123416,44793442,81136,45853403,77546,38438,246313,108444878,13265,79654359,20,3205,227308283,126,0.74,0.6,35616366,34315000,980000,56361391,13
80574959,156100,46076837,90298,45807299,83585,71570,306703,111180338,28431,78329467,30,3437,232529699,518,0.77,0.63,36395256,34106000,2006000,56731331,13
78285862,113800,45647326,84412,46037673,79319,37250,271490,105322967,14296,78289177,55,3271,226023693,128,0.75,0.61,34725404,33500000,1015000,54618155,13
75307409,153903,45926405,79031,46262649,75140,37772,266847,107985582,7939,78246620,48,3148,224811580,127,0.77,0.63,34622258,33346000,1010000,55130344,13
80583085,80694,46086478,76243,45786235,79542,38365,262686,105953637,17503,79499723,39,2047,232055927,128,0.8,0.67,31625717,29415000,1961000,51903700,13
36651026,127877,27931385,44227,28840597,49146,34434,191633,63165139,5878,36241176,21,2302,143050260,259,0.47,0.39,18556759,17298000,1017000,37408858,13
29088395,107187,16617255,68507,16535872,68578,32326,183350,42149781,5969,31421891,46,1242,96946089,134,0.3,0.25,12274445,11931000,0,32424689,13
77533972,138648,45949786,82925,45646260,82669,38052,264728,105034712,8209,79932590,0,1841,231934878,128,0.76,0.63,30836818,29455000,1015000,51247160,13
78439823,96137,45383903,79123,45639228,77674,39040,278235,113106775,14644,79971328,33,3191,231600707,129,0.84,0.7,33273085,31965000,998000,54292534,13
29484054,88962,17075344,64484,17063866,63913,32808,192639,41288547,9430,31301612,0,872,100709154,133,0.31,0.25,13877412,12632000,1052000,34092949,13
77452826,121116,46344414,76652,46639525,74753,38980,276011,103999932,11009,78454967,24,3269,226982936,129,0.74,0.61,33933871,32738000,992000,54134984,13
81897242,224450,48365907,80507,49508686,88046,58341,342027,118257157,18832,83351372,21,4860,254513548,518,0.87,0.73,34624169,32331000,2020000,55249637,13
30968669,78532,17452089,66601,17108009,67934,33128,208446,40620320,11010,30687199,1,952,101697533,134,0.28,0.23,14331968,12094000,2015000,34436240,13
77089073,122587,46031948,79326,46359904,75249,38613,265802,105596523,11434,78223086,37,3326,226624845,129,0.78,0.64,34050253,32925000,997000,54172051,13
82010073,273436,48298729,87332,48354032,81176,55073,288880,113220336,17406,83943269,49,3318,263885273,325,0.81,0.66,36562535,34404000,2023000,56882550,13
85540247,177941,49028136,81923,48150955,84341,69487,361147,114663770,31372,82796314,40,3316,264004792,520,0.85,0.71,34234853,31937000,1935000,54833087,13
28033357,124655,17357905,62984,17319181,62200,30663,195961,41673740,4477,30472404,0,928,98821872,133,0.28,0.23,14400657,10407000,3784000,35062071,13
30332801,92314,17123342,62159,17147683,62449,32406,193513,40816749,8644,31209053,0,902,99685890,141,0.3,0.24,14436642,14150000,0,34735018,13
84970441,447256,52005403,108585,51416923,99075,85345,320757,120383266,25835,87411761,70,7398,266719556,778,0.89,0.73,38745873,35986000,1999000,59430333,13
79662935,79530,46009947,73343,45989603,72955,37297,271563,103109042,18290,78885660,26,3145,230209684,129,0.76,0.61,33538010,31370000,1960000,54015055,13
80169339,122345,45841215,82006,45806077,77890,53885,286310,107786028,26058,79448283,51,3203,233173347,323,0.78,0.63,35476148,33145000,2008000,55321855,13
77296675,107849,45327824,79654,45803971,76697,38824,276506,107074245,12789,79282327,44,3213,228131981,129,0.76,0.62,34139948,33803000,0,55170630,13
82159101,274939,48871614,88362,48368000,78983,56624,282513,113912009,19843,83612567,33,3301,261504022,324,0.8,0.66,36569759,34436000,1967000,56185011,13
225028632,22502252,289628476,6436302,291701723,6259025,1001332,3468886,752532177,288020,228282531,128,98530,1361981585,10350,5.24,4.32,223617267,202247000,21025000,244252753,14
99486096,11503955,184833836,15603823,188658488,15770574,624063,3091061,686746467,1148736,98088676,290,49785,799362731,8295,4.58,3.75,206094679,191780000,13984000,226448856,14
69791738,1607701,165213255,15074432,160417323,15437881,183869,892999,509380340,53349,70116108,205,13473,558416952,1602,3.35,2.75,150037661,148637000,1004000,170993560,14
141608463,16721279,230042150,15595989,229105483,15658439,692137,3516603,753783232,2248243,137368433,206,57449,925439449,8305,5.04,4.14,224042018,204761000,18977000,245109415,14
232311711,24048829,280073507,6600127,281087831,6356458,968780,3206875,754267369,308953,228738312,93,100665,1376194955,10350,5.27,4.36,221915651,201524000,20052000,242215377,14
103636926,18316621,250335114,15024762,249715963,15368001,468746,2983227,733508801,1379753,103144233,265,27681,951081725,4230,4.97,4.1,213547906,206270000,6975000,234922071,14
16734829,785930,22425277,73018,22354627,71558,151941,495776,49002884,90459,15362117,0,11088,110676210,2305,0.37,0.3,14414811,8095000,6071000,35255616,14
147657811,17540417,259244527,17876658,260314108,17735530,739405,2931396,825273798,2099812,151619571,254,51743,1044426927,8300,5.58,4.59,243687107,227344000,16024000,263925126,14
27268883,655997,15624154,158015,16221757,155416,250391,613130,137081908,104628,26878301,64,13181,101016798,2182,0.92,0.75,42727534,38448000,3943000,63659057,14
101769397,20781645,210009322,12728674,208617627,12920148,347133,2684135,691788266,2645016,104463002,346,16217,880803249,2181,4.68,3.85,205760541,202420000,2991000,225713511,14
116532496,1555996,220000409,15504910,218749128,15421637,280256,1410256,657784493,113034,117748195,26,30567,899524249,3627,4.37,3.58,196500693,189099000,7003000,217022847,14
74235920,1540133,128861447,2416473,126153650,2469605,194872,810967,266495052,97332,76448253,61,23841,504293063,3346,1.8,1.47,82224277,73843000,7983000,103625574,14
61858841,1169189,31722085,379425,31410646,377425,462170,1161415,206587837,233978,59683359,136,38549,202696170,8302,1.47,1.22,60950138,49693000,10932000,81032128,14
157571892,13191871,165916177,4581194,163802045,4583364,843335,2520044,468804358,827689,163958725,80,87268,852499234,8298,3.3,2.72,141153942,126872000,13985000,161539002,14
82327331,3787630,174706167,15027010,178943086,15559539,360699,1714462,594713620,166963,81370054,418,41209,646773775,7140,3.95,3.23,177815821,163516000,13958000,197922330,14
84679869,18382235,162257824,3800423,161366347,3841502,591299,2846826,391405030,1615381,83979369,260,20860,580777007,4228,2.72,2.25,114702909,107489000,6966000,135134928,14
111645322,22481773,215526794,16856085,215445042,16754945,485059,3419114,757218270,1707979,111083628,343,31396,975128569,4234,5.21,4.3,226489972,221246000,5005000,246537281,14
148196595,18801854,284016431,21646599,281070312,21814666,1009216,3429599,953951576,1936995,148255335,31,44081,1135905082,8301,6.6,5.43,282292858,270880000,10995000,303595586,14
78026582,1636769,166182937,15457870,163964785,15484417,195698,1077750,518821412,63220,77225594,47,12132,667569706,2028,3.48,2.86,156137713,147859000,8046000,176997930,14
599480580,18297915,523082156,9698774,524518016,9795542,809660,3304188,1279836823,1889666,615061599,1135497,1678759,2543390374,6281,9.22,7.66,379211471,367847000,10995000,399202418,14
86784057,272052,125221565,13430344,125393358,13477755,108684,902737,640475487,100124,86895578,20,9020,494274110,135,4.29,3.52,190762465,189436000,997000,211858663,14
154668047,16899019,258050898,17709853,256364439,17802782,759779,2833823,843658833,2208991,154669674,102,51651,1101991502,8297,5.72,4.71,247829839,229488000,18038000,268395509,14
87725240,3040197,209611241,15124892,214261921,15047500,477482,1799926,635080249,155670,84176751,90,36498,745695473,7145,4.32,3.53,190724685,177408000,12956000,211492025,14
132621756,12703488,154235142,5129635,158829273,4888251,554835,2030019,449662671,1138425,135464884,114,51813,730655127,8301,3.21,2.66,131730155,116314000,15040000,152901593,14
156994216,16805085,176403054,4977056,172573862,5022589,666717,2294299,509902946,2088466,165205196,91,85568,913479289,8296,3.61,2.98,151574726,140151000,11011000,172290314,14
65509458,2922019,94259681,2560118,94108579,2498252,425849,1058636,246663046,172086,66348000,83,37832,418696231,7170,1.74,1.42,76388324,59053000,17015000,97348411,14
153017127,1636304,212805871,3357243,214003587,3319756,253360,1139435,504494508,101236,154304022,81,35755,1010723755,3338,3.52,2.92,148218958,136944000,10995000,169197876,14
88112177,5080756,145336691,12967263,140389324,12655761,2375572,5429714,765759683,770183,88886811,218,125179,587706701,35215,5.21,4.23,235078078,169561000,65215000,257385512,14
196243302,17167890,258731157,17646081,258161874,17741477,814513,2987445,849775561,2001415,192975702,98,58725,1230054624,8297,5.94,4.89,251731884,238428000,12968000,272623523,14
118018673,17700424,226954189,15677281,228225157,15781200,640461,3019559,722396906,2158833,121326580,96,51899,911523261,8303,4.89,4.02,214885633,204609000,9980000,234481791,14
157636639,17317296,252036173,17655666,253140698,17767173,730732,2656511,889680136,2238753,150418096,138,51915,1201203543,8302,6.23,5.14,260517202,247129000,13006000,280003926,14
86400953,278700,125084826,13423429,124729944,13409531,115963,914307,628917221,84571,86351291,0,7965,494342246,134,4.2,3.46,184925621,182699000,1985000,204792832,14
195693949,17265880,257948679,17286218,256264831,18009240,751216,2761784,875743438,2192082,194126457,139,46100,1189319260,8298,6.09,5.0,261742773,252381000,9013000,283141341,14
86191758,233920,124530654,13452485,124689527,13476280,109130,893254,627585625,71374,86253653,27,10129,490627543,135,4.17,3.42,187296809,186025000,1000000,207377093,14
192483196,16870102,256554540,17548068,255823570,17459882,769798,2752720,839276764,2127881,190599954,163,52564,1163503704,8300,5.83,4.79,249263950,233897000,14993000,268943667,14
42497409,236422,98206527,12987229,98144710,12952360,95883,734974,470774565,19615,42079708,187,5865,389525150,135,3.15,2.58,140018266,139639000,0,159482294,14
176664037,17467813,259210663,17631552,261040128,17555678,751707,2824691,870604420,2152615,173030403,113,52286,1189551576,8297,6.02,4.94,258299541,245920000,11996000,278966427,14
77781236,100491,77692616,619989,77467560,641584,61533,462474,247822102,33447,77592206,38,3279,399482726,135,1.78,1.47,73395242,71114000,2003000,94269178,14
153408935,17187250,256844251,17886518,258581091,17787976,717596,2867703,820276839,2216139,151147243,101,53701,1088179039,8296,5.7,4.68,244597337,232322000,11965000,265457767,14
120745375,18966931,214233192,19726416,213095569,19814387,744460,3852409,791923454,1725538,114937992,62,44537,865509341,8299,5.53,4.54,237627214,219351000,18028000,258209170,14
196706539,17294693,259353440,17684954,258534790,17645336,848976,2969454,848541572,1972978,192120378,1,53270,1227252957,8295,5.88,4.84,252407662,238144000,14008000,270936694,14
152136454,17530710,177760782,5167466,175394557,5083566,573847,1981900,513731918,2256606,162247715,107,72889,878258502,8300,3.71,3.07,150004412,138696000,11055000,170687226,14
173062837,17342915,258070978,17898735,256633350,17819455,857238,2958266,846598609,1951086,167076387,35,56494,1151108285,8300,5.92,4.87,251575091,239344000,12017000,272584172,14
192635122,18040496,283271830,22687437,279152762,22752818,913356,3265141,905339475,1939698,191467186,142,55667,1121290346,8300,6.37,5.27,265014360,255722000,8955000,285871645,14
40794693,183374,119971885,13388913,120284455,13394791,91977,715971,474322107,150044,40544074,30,6257,396218019,134,3.19,2.61,142295787,141078000,1000000,161683847,14
110452880,14015640,134901842,3122230,132875087,3146843,507763,2617400,370106002,1666192,114113149,138,70168,628177247,8300,2.67,2.22,108357142,96068000,12008000,128807945,14
126131880,10972789,136338909,4785902,138030751,4830898,562717,1837821,403763085,879985,135022707,163,76073,659868081,8300,2.95,2.44,121249953,107802000,13097000,142219249,14
93990898,2340774,78287387,5290126,76741285,5151040,267842,1055019,261359263,111366,103332341,174,26721,430282965,4203,1.9,1.56,80224174,67015000,12811000,100710622,14
194902994,17797076,261620529,17289219,255448871,17324334,1035024,3431640,901663813,1879491,195769977,170,40237,1344266922,8297,6.34,5.23,266790847,255396000,11017000,287809844,14
150010337,18226111,260006835,17851852,257111199,17749307,729734,2709945,824462315,2100147,152855860,132,44749,1079207382,8300,5.73,4.72,242575698,230214000,12011000,263238152,14
66628438,803961,90892328,2068490,90600290,2057631,103634,547752,220255081,57187,70258534,54,21782,441837874,1736,1.53,1.25,67709939,66322000,1004000,88095257,14
140938091,16548728,229795077,15548669,229369978,15806924,653958,3556534,758222283,2291105,137690649,5,60425,1051161193,8306,5.37,4.45,223150780,211876000,10941000,243482724,14
89876782,965993,109222529,13451566,110467684,13714500,255427,1112300,544406151,139182,88909254,41,32083,553230326,4263,3.81,3.14,164769991,155404000,9023000,185563440,14
149357779,17135578,176756022,5036294,178188095,5133521,624846,2189520,507906753,2168801,158390978,62,81575,865370925,8304,3.61,2.98,151975628,136871000,14877000,174716664,14
143980094,17154834,174284433,5138121,175282852,4989400,571839,2010937,499619533,2179930,152916119,69,74900,844723515,8303,3.59,2.96,149593559,133210000,16025000,169729916,14
206085647,14316677,294509478,22780095,293816733,22957999,911785,3281200,985653491,292647,198836077,179,73186,1249119966,10349,6.9,5.68,289707248,274339000,15018000,310944662,14
38990231,202321,96013847,12386996,95901311,12374364,88897,703561,462899686,156827,38580618,26,6439,321607437,134,3.09,2.52,139000319,137747000,1005000,159211695,14
155610885,17141387,254702577,17383961,256070956,17832798,764742,2742002,878679730,2181208,150054801,90,48284,1184117086,8301,6.09,5.02,261351760,247023000,14001000,282142437,14
101605848,3094704,139132861,12547299,138666549,12431983,1369393,3513927,684776495,435215,105701223,179,90456,588416204,20356,4.71,3.87,203465357,170177000,33034000,224575592,14
174697780,19382473,296964467,17476408,297505157,17351124,773030,2768851,919707659,1658826,169228692,64,59896,1254296511,8302,6.31,5.19,273281821,261963000,10998000,293625324,14
160420111,5100518,222552157,18102420,223722803,17756576,929250,2986833,771882072,255036,162639516,79,57977,894179831,8304,5.31,4.36,231121052,217771000,12986000,251903003,14
81280337,1378128,92994814,2669747,95407900,2372541,206497,849567,249265810,98208,82378803,83,35365,463672315,3620,1.75,1.44,76552519,71170000,5011000,97962883,14
138216879,17964643,224218380,15760697,224321546,15861183,725773,3574109,767340416,1738509,138520524,88,57392,981464156,8300,5.29,4.35,230010834,216700000,13042000,250816405,14
156992627,16629674,265372367,17692445,267083058,17732422,631005,2593039,873244769,1894121,148504700,97,62934,1182829693,8300,6.08,5.01,260242534,244879000,14992000,280198841,14
116896994,17385969,150745506,3014111,150047983,3009077,561338,2797010,430838197,2326628,115642629,1,68459,705325115,8300,3.08,2.56,125881014,110478000,15065000,146074102,14
148990340,17589099,255797776,17346082,259128136,16971013,815722,3123982,824002806,2113214,151821412,135,46684,1055169928,8295,5.66,4.66,244762186,229375000,15024000,264471176,14
85917543,797114,117135329,1614766,117894125,1559069,114707,622556,241590261,58683,89059998,106,25343,506333388,1742,1.67,1.37,74781089,70429000,3967000,95582764,14
111089013,19939877,219376695,17035384,218897234,17060281,336326,3086453,743777586,1755309,107712459,90,37151,863987057,4235,5.15,4.25,218008277,210644000,7021000,238860857,14
133191346,3680506,122550666,3393729,116516151,3316658,873853,1995713,387075190,272583,129296854,94,87834,666680373,12136,2.76,2.27,116700420,96513000,19899000,137023158,14
60809192,813020,109093280,13238345,110352054,13158761,117357,948021,519117855,144353,63817428,4769,28541,361987905,548,3.35,2.78,139305862,137045000,2000000,157100249,14
44299953,502038,57542298,6274990,58526292,6316412,219877,610756,224762736,58181,45870962,44,9389,265024535,2303,1.57,1.31,64555426,62063000,2002000,84819973,14
81114564,3448434,63261973,3221205,60677899,3508613,446101,1290354,233015180,168313,85140008,3,44111,368295058,7144,1.72,1.43,69015417,57780000,10958000,89574917,14
118748182,17475206,225364349,15842265,226124689,15994673,570693,2886514,729030719,2354642,122672938,246,49896,912440686,8300,5.0,4.11,216683387,202413000,14028000,236492210,14
118029848,17218049,219724649,15181077,221436863,15527814,614803,2982145,749140192,2521022,112099937,131,51394,1022938507,8297,5.26,4.34,224783222,213446000,11023000,245909896,14
36099755,205749,79985614,14669436,80131102,14640669,79201,580834,385776349,16768,36208914,0,5081,291966042,137,2.64,2.18,112852375,110633000,1975000,132874944,14
252954266,861468,222723593,7724336,222145894,7700309,154802,1256353,643944493,72054,252874434,883,18303,1360854404,1193,4.65,3.87,192475225,189004000,3000000,212264240,14
151187126,16578304,256320788,17670391,258675994,17762949,750521,2806075,843685404,2223643,152739376,231,51378,1077352598,8301,5.89,4.85,247207776,235922000,10996000,268218008,14
74662235,1491370,184806005,14539486,185592166,14192996,328602,1418965,638442993,123850,80319842,254,22107,786846576,3346,4.41,3.62,190017476,180540000,8977000,211210173,14
85270527,2509847,101100989,2240870,101234220,2302802,391095,1360558,293822493,188424,89093853,0,70820,486348428,7145,2.09,1.74,85848068,76397000,9047000,105466295,14
113335954,5318574,178535320,17481368,179410037,17253536,765862,2815890,665422634,217062,111027833,20,55150,735259317,8296,4.67,3.84,195262295,174103000,20892000,216349541,14
116686049,588390,81455838,1542587,80029319,1544888,120427,599888,182524222,44897,112260373,29,8107,372913827,1039,1.3,1.07,56929019,50543000,6065000,77353366,15
92913035,576449,93391782,1879688,93424179,1770346,99859,533258,202375728,45577,95202623,147,10620,429786520,524,1.41,1.15,63111798,58759000,3983000,83977745,15
93535051,529536,102079510,1523058,102170480,1592267,105746,532578,214390137,34902,94519933,183,11859,425070935,523,1.49,1.24,62721254,59386000,3019000,83129950,15
427651130,594387,266433201,2145837,266026472,2051190,166753,1006941,591867579,67201,426493883,90,12978,1238696706,518,4.23,3.54,174693485,169424000,4983000,195449789,15
116947409,867647,80773749,1555566,78220294,1550966,160109,595676,181030875,49748,109981037,1,5195,372032066,916,1.26,1.03,57161927,53996000,2945000,77016671,15
455239047,7518266,290699948,1532502,290951291,1537491,988956,6137505,850729889,1200426,456460576,398,46262,1342769990,2472,5.86,4.84,252496519,245195000,7005000,272792915,15
423216974,674582,264457847,2156754,263825904,2079332,164291,973405,592630316,53301,421378066,385,13755,1229374192,519,4.16,3.45,178280396,175921000,1999000,199986604,15
112880129,530493,78943363,1588700,77825254,1590931,114795,515467,178138030,29236,112252205,121,5020,373826872,523,1.26,1.03,55654739,53353000,1976000,76427232,15
119453351,625197,79507191,1570120,79316065,1569308,124749,583590,183063140,39861,118306408,124,8077,393938492,1040,1.29,1.07,57186119,55883000,997000,76981253,15
118911090,596285,78109940,1509739,76993243,1495871,120155,586661,177528675,45543,112282888,132,8158,369844177,1040,1.25,1.03,56021996,51597000,4046000,76931220,15
116818732,861332,81431615,1611011,78379838,1609512,158980,587390,183890841,47067,110539796,71,5601,375345825,913,1.3,1.06,57485193,54187000,3010000,78477230,15
449719879,7562841,280431032,1499785,280642064,1500207,1003731,6040387,836228989,1263309,447381508,3249,39313,1319229633,2472,5.79,4.79,248195644,235832000,11940000,269344554,15
425202281,1188415,263806494,2115823,262663638,2130895,255287,1277371,606871907,76747,429818846,129,17404,1236084290,1938,4.28,3.55,181324726,175057000,6001000,201744668,15
117006732,675316,76134275,1522298,75834065,1531869,125048,602314,177183107,35307,111795897,125,7284,370164135,1040,1.26,1.03,55339476,52093000,3005000,75131998,15
425177921,1289825,268656556,2212923,270422881,1970870,202326,1336145,617398502,50156,433107454,3,14710,1279847467,909,4.39,3.67,182205816,178893000,2981000,202516842,15
110566105,719042,79162223,1641433,79177150,1681339,124321,569968,188187154,32086,119162513,127,8915,365461604,1041,1.32,1.1,54817025,51602000,2977000,74074866,15
113713113,557976,74011369,1726691,71464184,1868904,104322,460754,174030131,31147,118007412,168,6078,364665679,523,1.24,1.04,50937260,49690000,993000,71361760,15
117775534,852228,81035079,1515938,77563709,1518417,153983,654748,179320047,54520,107633999,1,4838,369817313,913,1.26,1.03,56038639,51715000,4056000,76025333,15
137369146,782170,86607061,1667010,81829165,1707919,152171,586103,194830847,51632,128458410,57,6646,422610828,914,1.39,1.15,60926885,58618000,2021000,81114313,15
115486226,517263,81337107,1544905,79117637,1541658,120615,519519,175504003,39456,109845804,0,5360,372187016,524,1.24,1.02,55837660,53564000,2021000,76373391,15
154198679,1791289,118148211,3960196,119758914,4018033,250715,927238,310312663,46457,160323095,63,11681,534299379,1698,2.18,1.8,93611274,87291000,6020000,113492300,15
135974105,1118895,83636539,1683832,82908899,1706820,166292,699799,205251139,57103,137729032,84,11594,429323294,1942,1.47,1.22,60708250,56352000,4025000,81668987,15
119785874,847859,77055333,1563839,73992974,1558863,156158,583032,178241144,55638,109838829,31,4864,367726038,915,1.28,1.05,56563735,52269000,4020000,77230633,15
455747817,953245,269167841,2258281,265263206,2307669,217908,1153371,633440543,75907,456813704,94,13854,1314860725,908,4.57,3.82,188665329,184398000,3965000,209229150,15
433611242,639048,270990395,1829609,270802020,1982444,163407,978629,607965820,53742,429512907,49,13842,1269142348,519,4.34,3.63,177822854,172466000,4984000,196961935,15
953223812,5739049,681488081,2397040,675460937,2373342,1181880,4725397,1387902171,1463639,939246225,685,74944,3120869808,4355,10.02,8.37,409834829,403299000,5989000,429784692,15
119680294,588576,77719544,1512201,76481769,1502017,117028,568533,176832889,42734,112701698,1,7173,370471449,1040,1.28,1.05,55653082,52367000,3021000,76263963,15
135838378,834225,90376847,1652830,86954992,1685090,152391,663002,199722215,49145,129814779,48,6580,420516450,913,1.41,1.16,61795129,57503000,4035000,81626275,15
131361353,930845,91653062,1493536,87764437,1636093,144596,640491,212782269,53016,121088110,54,6828,416601921,914,1.48,1.22,65867465,63600000,2019000,86111152,15
422691514,940001,262925516,2162466,262485699,2028119,207069,1027182,596801003,79055,425317687,76,12998,1234849789,911,4.36,3.65,174590149,171250000,2986000,195379213,15
126524804,646875,88248218,1737056,86473941,1763677,114172,580718,203645332,44799,131933778,70,9703,441563542,1041,1.49,1.25,60879549,57443000,3023000,81620295,15
152674632,1664777,115509451,4184145,114521244,4245021,235852,860008,311498514,53791,156865575,347,10814,523527094,1696,2.24,1.87,91954174,85601000,5972000,112937043,15
114108071,578246,80777137,1592242,80011900,1614627,121651,537562,188167532,35991,118296950,1,4545,381871000,524,1.3,1.06,58551578,56146000,2005000,78739418,15
104746795,605485,103540728,1589058,106002146,1440122,120107,598425,229380184,50604,104734556,80,13041,469412624,1039,1.64,1.36,67184759,63020000,4001000,87451525,15
113620444,877586,79585047,1594244,76767182,1697655,142226,517332,182666487,49581,114242333,34,5972,370548008,914,1.3,1.08,53448020,50104000,3006000,73440464,15
145127429,5620018,103645755,1700502,101723735,1677043,1014083,3522192,338342635,1478369,155217766,62,25569,514789841,2867,2.39,1.96,102785129,94513000,8043000,122507605,15
433910263,756295,268445553,2253926,267988629,2233213,181038,1109849,613002924,58562,443538035,8,16409,1274542346,1035,4.38,3.64,184342841,178100000,5969000,204926515,15
123997504,551510,90089197,1688711,88835162,1743234,100316,511675,200003946,31684,125816077,39,7167,415369022,525,1.41,1.16,61691606,58277000,3014000,82695608,15
423520038,851327,264665353,2201275,263575600,2185687,149333,1014265,591182299,56068,426941288,89,17211,1238542918,1035,4.23,3.52,177539550,169274000,8013000,197873077,15
444839091,1111056,274573473,1911346,274757979,1966411,237655,1265125,652462990,95576,445275609,107,17897,1284292696,1939,4.77,3.99,192094711,186675000,4991000,212712782,15
123460338,502920,83211942,1768090,82339454,1721793,110903,514625,195370008,31572,128786304,63,5321,411950828,524,1.39,1.15,60489679,56293000,3950000,80536363,15
114210897,557504,76468650,1504764,76223071,1531424,99886,485880,176032446,26234,113484285,0,7523,366273888,522,1.25,1.03,55094228,53790000,996000,75933360,15
112343023,523893,79338398,1624824,78089810,1624071,114218,517432,182390762,32907,114369221,0,5287,374976287,525,1.29,1.06,57099300,54783000,1992000,77202976,15
115029296,485782,81065028,1562504,79384997,1585311,115388,500846,176342683,39900,111234816,0,4459,371290741,526,1.24,1.02,54848845,51563000,3033000,74652779,15
112231387,570726,78145626,1513732,77822710,1548045,96931,447534,174650931,26973,111143730,0,7189,367832357,522,1.24,1.02,54192386,50953000,2997000,75130073,15
130079411,575882,86537354,1594817,84611355,1696548,117891,609666,202250278,47056,125807973,117,10058,416294739,1042,1.45,1.19,62476269,58055000,4003000,82742925,15
118159805,1150621,79329567,1623080,79521946,1610317,182309,727204,195048170,62960,120179068,0,10585,385696855,1947,1.41,1.17,57432255,51977000,4997000,77023666,15
131524982,699272,91214224,1610148,85420231,1774324,163526,844992,200284400,61791,118610312,64,6979,440953063,914,1.45,1.2,62457122,60120000,2004000,83447101,15
115869544,879977,79119893,1556051,75542734,1765332,141943,589355,180877254,51079,114638177,41,5119,378039760,915,1.31,1.1,52528291,48123000,4010000,73209909,15
102583988,612139,102545262,1805123,102243368,1777004,96293,624699,230776609,65913,104412716,10,14541,473319775,1040,1.65,1.36,71884657,65558000,6051000,92480847,15
119978264,751570,83707893,1747475,83701807,1725055,112564,529018,195233251,32230,122500491,58,8340,418164215,718,1.39,1.14,60994848,55855000,4899000,80809867,15
127308768,757143,84034695,1781060,81798558,1760536,147251,572677,200833590,58295,128018251,34,5557,415722029,915,1.47,1.23,59347852,54164000,4924000,79535200,15
432224711,802646,270406562,1968481,272501236,1883647,154157,1027068,602577920,63917,432645461,200,18879,1272406585,1034,4.44,3.72,177480896,171240000,5973000,197246361,15
438897778,700445,270109662,2174208,268468062,2193448,181235,1124908,618954992,62772,437955813,84,15533,1288840113,1034,4.55,3.8,186128869,181828000,4018000,206644342,15
119566266,506160,83784671,1733392,81807310,1720563,108743,503470,192990507,44204,128577083,0,4845,406123279,526,1.42,1.18,57377417,56107000,1001000,77644299,15
126074889,474423,85175633,1740959,83099658,1713010,112291,511554,192567823,46751,124404358,45,5734,420999125,526,1.39,1.15,59894507,53719000,5860000,80530588,15
424694341,1048691,264532541,2178621,262563768,2129908,199504,1042025,599006041,71265,424096763,171,14236,1235006744,911,4.31,3.59,179003298,172740000,5991000,199689069,15
132190268,521696,94897655,1584483,94342840,1552236,109811,515297,206037567,34840,133911654,49,5988,433557252,525,1.51,1.26,60418038,54106000,6011000,80425083,15
112897549,528502,79253357,1620260,77981339,1617257,113284,508688,182813636,36350,114907281,95,4902,373574290,524,1.29,1.06,56886506,52543000,3965000,78045962,15
422480110,681410,263657365,2153657,263668733,2073939,165211,1022976,594451748,53954,422718976,225,14260,1229565508,518,4.25,3.54,178313881,176054000,2000000,198875617,15
442720713,1122792,276735170,2104121,273857652,2273027,228605,1283722,630543415,85349,434510357,118,18648,1293818365,1939,4.52,3.76,188941871,183754000,4966000,209509069,15
120044331,690249,82073600,1712397,82411185,1712939,116861,594239,193697490,43768,129208692,1,8704,397270428,1040,1.4,1.17,57300336,51020000,6002000,77956201,15
423655686,655192,264420921,2171990,263916755,2061473,158766,956120,594030491,55648,422121918,47,12784,1229309650,520,4.28,3.56,178225182,174939000,3016000,198991438,15
149475601,5493520,104756512,1698727,99455136,1695755,1081644,3577318,336142251,1511338,151361273,39,17319,519404527,2869,2.4,1.97,102521256,95163000,7012000,123017844,15
128311591,843926,86352454,1651743,82608206,1688102,150105,649644,199335106,54763,124116880,39,6258,413139643,916,1.41,1.16,62109427,57683000,4047000,83145179,15
431201620,683575,272536351,2145630,273177153,1967686,170658,995218,601900801,52921,433254751,100,13455,1287777544,517,4.34,3.62,181227137,179963000,999000,201494617,15
424378997,673431,264894274,2086849,264165144,2059402,158237,959840,587083277,63939,420646124,64,12942,1228832803,518,4.19,3.48,176358694,173123000,3002000,196398560,15
115438177,690461,80329917,1593062,80000053,1590114,117609,581947,185570918,40676,115885316,0,7071,378310607,1040,1.31,1.08,58133653,52902000,4990000,78630986,15
118185669,581541,81495028,1608567,79939576,1620631,125103,594970,187567456,42777,114855858,193,8568,378584568,1039,1.33,1.1,58244088,54876000,3048000,78660061,15
421857401,857740,264744535,2090623,266110578,2047942,157976,1038764,591701755,64031,423441873,220,17954,1230724465,1034,4.22,3.52,176505117,173227000,3003000,196850863,15
428701721,1223218,269839705,2240814,270923143,2008481,212638,1353967,610997656,61016,433190636,0,12757,1282860118,910,4.38,3.65,182900555,178661000,3992000,203765572,15
314618026,17842486,236057878,12184490,236012891,12299227,2858085,12284744,991935394,1463368,317570150,52669,153859,1136354867,11164,6.96,5.74,293012343,271737000,20902000,313992509,15
423048071,668059,263514452,2113034,263454663,2051332,170175,958594,592647966,53733,422269260,48,13130,1227966465,520,4.27,3.55,177600560,174265000,2987000,197364462,15
120157106,693274,85742791,1766466,83487827,1763952,151942,834007,199795844,58765,128034443,0,4418,430050910,915,1.45,1.22,58768697,53582000,4961000,78699989,15
451412872,5723303,300725613,3206778,299923714,3194482,1200430,4722850,915335409,1656658,452658508,365,34357,1383941169,3254,6.39,5.3,269642431,262440000,7011000,290287775,15
114815753,1049210,79375263,1497046,78754911,1494853,203396,677385,188372376,38791,112540960,3,9289,368608527,1695,1.33,1.09,58317455,53971000,4073000,78847524,15
113965412,514623,79805086,1605726,78579459,1618344,115856,519294,183506674,34065,115556772,0,5360,374334695,524,1.31,1.08,56796736,54535000,2019000,77032599,15
111813196,593033,80860451,1758980,80682108,1630378,117440,543193,195292833,31887,123613128,60,4864,400947175,522,1.42,1.19,56785428,54480000,2017000,77280762,15
131662515,652831,91128517,1633124,88852483,1735973,121033,624011,204673966,41796,126307901,92,9483,425659847,1040,1.44,1.19,62979038,59715000,3036000,82508393,15
435353419,694970,269286612,2247317,268997003,2065911,175565,1031193,604615705,58905,438174744,24,13426,1272129981,519,4.44,3.68,182196750,179828000,2009000,203281403,15
306297083,419967,205316004,1286802,205045907,1282097,201368,1208219,819476020,60638,305420057,86,15688,1533845572,1108,5.4,4.43,244385106,238168000,6004000,264585001,16
307094224,398150,205898754,1290845,205703486,1288381,229880,1264473,817636795,73138,305279273,173,10720,1544522581,1109,5.37,4.41,242010966,239714000,1997000,262590026,16
207711516,634270,311705923,1225812,308811296,1209755,267640,1048550,513686630,122124,206380353,1,18320,1564558010,2082,3.52,2.9,153598096,148322000,4977000,175529375,16
309310024,483657,207695173,1286421,206902381,1276315,329634,1385100,832378645,140863,307919139,361,17535,1245949079,2086,5.41,4.45,243174010,237886000,4997000,263903450,16
312685463,414956,209737817,1214804,207967906,1200651,273491,1006539,549839012,101037,307313716,302,15570,1461855480,2088,3.75,3.1,164259569,158936000,5029000,184871180,16
919620040,1018678,610634139,1604781,607411070,1601431,457959,1881726,1129956637,238536,915026392,442,90416,3272006746,6426,8.53,7.18,333844553,319558000,14024000,354285916,16
488691522,51826901,415441109,734333,418672185,769649,5446895,37575028,2189011406,727767,492911323,708,50855,2002860329,5995,16.18,12.99,625011848,612781000,11995000,645639449,16
1614990122,1088005,610383654,1732729,611585134,1732663,422705,2429702,1696804086,182389,1602537095,534,44509,4563559189,2955,12.79,10.77,499682346,492381000,7005000,520584808,16
305051849,429326,204872089,1277054,204784918,1280328,200688,1226776,827117638,58543,305880698,122,15091,1534866951,1107,5.48,4.5,244771073,240440000,3990000,265465048,16
309215153,468217,207605112,1296278,207175512,1285196,328960,1384576,825189012,115388,305559111,201,14906,1443853066,2083,5.43,4.46,243026073,240705000,2005000,263432067,16
305328365,450207,204781180,1279924,204949867,1278321,200418,1197995,827639988,57868,305477580,292,16238,1532519135,1109,5.42,4.44,247112349,244851000,1998000,266287478,16
410019858,538900,207720366,1298635,207434799,1286456,328175,1389268,828173248,105692,405601335,74,16277,1344175839,2084,5.47,4.5,245417355,240144000,5003000,265372408,16
310897188,418999,208907672,1226446,207050274,1211899,279062,1036073,551808632,98970,306640449,67,13431,1452878329,2115,3.83,3.16,165072824,159837000,5026000,185503931,16
310425075,645252,208663004,1334402,208720260,1313111,320255,1430597,838107844,113812,307722768,567,19971,1249862993,2083,5.46,4.48,246634224,242370000,4006000,267366885,16
308434229,527779,207053395,1309508,206980217,1286249,316206,1366637,830038744,118282,306608004,252,16871,1446141896,2090,5.53,4.53,245820297,240483000,4989000,266422803,16
308949456,483216,411092725,1323481,408117181,1312675,326180,1460823,864426262,129194,305412729,277,19421,1744239983,2080,5.9,4.87,256833671,252441000,4007000,277121248,16
307910798,394762,206128210,1305187,206319555,1297426,227403,1274958,824989250,84928,304688286,231,14678,1338045901,1107,5.51,4.51,245841600,244537000,1002000,266292462,16
208079221,396710,311133470,1197880,308656940,1178064,271223,910763,448931015,104168,204479951,68,16942,1456306343,2083,3.03,2.49,135280433,129962000,4960000,156592284,16
210275532,13327311,207241467,221515,204085886,221386,2467699,7149045,582812788,225409,208041843,19,17181,1158514257,2086,4.24,3.42,168176140,160900000,6995000,188712330,16
308173394,516503,412181676,1234061,407092234,1216152,301993,1205282,615248677,104556,305590317,12,13815,1758779891,2082,4.22,3.49,179977615,174683000,4990000,200852227,16
308085449,393508,306841092,1280178,305772953,1273475,234069,1238682,820741470,83173,304710736,60,13105,1744097840,1111,5.53,4.55,244927277,240476000,3974000,265489348,16
309523136,773902,309989060,1319796,308213934,1309141,324349,1432525,840907060,124830,307375994,12,17089,1554409429,2085,5.66,4.65,250128678,243603000,6014000,270684385,16
308721748,705362,311032095,1304097,309628411,1290963,332098,1471755,843879025,133852,306885422,162,15942,1452545393,2080,5.67,4.67,247112331,242698000,4011000,269329385,16
307903438,450336,207216578,1284096,207312060,1273335,229569,1223192,823120080,77466,306031142,49,11531,1549856449,1108,5.44,4.46,245863042,242515000,2994000,265824745,16
307903842,391102,205483183,1272522,204921202,1275672,238729,1240400,821552997,74449,306166136,172,11873,1337770052,1107,5.41,4.44,243405732,241144000,2001000,263460564,16
1117177717,1012528,611840033,1624853,610503780,1625591,456865,2077953,1338664268,210094,1109276692,1052,45367,3563761712,4619,10.06,8.45,395046451,382735000,12023000,414984049,16
581650636,28627622,305872957,713100,306696559,699744,6798722,15557339,1464419191,2657320,583523420,218,525431,2254984951,98809,10.78,8.83,429511975,282067000,147035000,450807443,16
307326140,541704,206004087,1291755,205936246,1287452,254546,1234576,830948404,83511,307415832,155,18669,1543309930,2088,5.55,4.56,246967618,240756000,6018000,267805172,16
308659725,515762,208477646,1297842,208632000,1288651,347324,1398737,834600716,99510,306613861,180,17665,1245371841,2089,5.43,4.44,246535909,239206000,6976000,266933411,16
421008388,21709498,358227475,679300,355921435,687192,6273490,11927624,1367047282,2856130,421640114,283,323126,2310074143,98763,10.04,8.22,400749926,194157000,206167000,421684545,16
206645590,13044270,206074107,205496,206201467,214840,2252905,6685237,583685074,226211,203833877,50,15266,1229683206,2089,4.29,3.44,173241519,167899000,5026000,193181989,16
308196637,474111,309083740,1288951,308670385,1281600,308724,1309966,825120857,115801,305419802,114,17522,1441722487,2093,5.56,4.56,246203193,240810000,4996000,266593228,16
220639411,662466,513361589,1575156,511763650,1601698,384254,1741484,680801994,141245,219774395,592,24234,1680480742,2484,4.6,3.84,190208334,185836000,4018000,209878608,16
409953097,523623,207560586,1298674,207432335,1289955,307438,1370856,826966218,116717,404179232,154,17987,1442769652,2086,5.52,4.54,245906415,241508000,4008000,267558341,16
308411397,514324,207086506,1279672,206750405,1266437,305731,1291051,826525102,112076,306202889,124,15976,1243235301,2093,5.5,4.51,246468470,241174000,4982000,267709538,16
301526406,6546158,596151570,845128,594124156,672009,275682,1505487,661208578,170494,302556897,152,9881,1918667365,1107,4.49,3.69,195859742,193268000,2002000,215591981,16
306754178,473871,305972435,1356885,304282841,1353027,268968,1531627,1044553764,76003,306148401,134,12971,2048036186,1107,7.01,5.76,309029511,306628000,2004000,329994596,16
307462011,400132,205678016,1290812,205811153,1281883,241688,1255250,852447921,74570,305799053,150,11752,1336605329,1110,5.79,4.78,250267655,246868000,2998000,271114434,16
307126640,601242,206046697,1301375,206305186,1287285,257468,1318461,826424245,93288,307290686,417,20761,1440778185,2082,5.45,4.47,246170732,240706000,4993000,266654448,16
316577941,403071,309140244,1424747,307989398,1408578,252430,1141998,700485900,87461,312003190,65,14320,1560806097,1538,4.82,3.99,205381953,199891000,4997000,226062970,16
307295495,389026,205961258,1273400,205153714,1264693,217122,1224868,821240296,84470,305820831,127,12179,1340512668,1104,5.56,4.56,244546680,241293000,3003000,264952329,16
308843998,466493,207506448,1299279,206916485,1291443,322255,1399498,855828208,97110,305410836,87,19529,1242441140,2084,5.66,4.64,254741780,250498000,4007000,275132136,16
449810305,15763692,303955372,576957,303353715,575031,5776125,9153674,1227625656,2367215,446421648,61,316498,2303491392,98765,8.95,7.37,365079446,211825000,152874000,385201289,16
308248736,357134,205819214,1287372,204736074,1281418,226845,1249873,818436512,78053,305797917,79,13845,1337392280,1110,5.42,4.44,244009009,239693000,4011000,264171804,16
349370400,16407151,403219842,642770,401347225,665120,5890025,9323216,1002919854,2140524,346490852,66,336593,1912946807,98761,7.27,5.97,297768614,150180000,147176000,317961203,16
306777246,399103,305990374,1283119,304901641,1276070,231226,1228156,850281797,75980,305435543,0,10537,1540960680,1109,5.71,4.69,253013314,249601000,3007000,272910277,16
311028315,634157,209202241,1351270,208025492,1321139,317689,1505481,830637851,110339,306078298,300,17320,1245859397,2088,5.73,4.75,244780567,239416000,5008000,265773559,16
308267776,729671,208903342,1303269,207734860,1292065,271818,1330334,831647942,134768,306473929,46,17897,1246991444,2082,5.63,4.62,248050564,245720000,2005000,271505500,16
307587974,358768,206836171,1279212,206008248,1270162,220190,1216646,826390012,82727,305890553,107,12123,1544547865,1103,5.66,4.67,243876224,240580000,3007000,264296651,16
1215792728,932125,711009508,1730344,708966322,1717140,463713,2539398,1753524557,175194,1209714171,237,33902,4164300224,2806,13.01,10.92,512011736,506757000,4987000,532953228,16
206734695,306518,205786779,1157832,205308593,1156758,143739,700648,414502212,57515,207613928,1,22502,1043218871,2086,2.82,2.32,125324168,122091000,2977000,145485488,16
311363467,417037,208023805,1188440,206990085,1170830,272119,909139,495942416,90051,306200756,58,10894,1355566108,2084,3.49,2.89,148567986,144291000,4008000,169488454,16
310005111,289007,306849210,2458801,304341363,2432233,173473,780852,445701979,66329,303204061,78,7057,1161876791,1107,3.22,2.68,133526396,129246000,4007000,153060094,16
1021289238,532187,607872579,1578966,605314340,1571275,332588,1786502,1178438952,97999,1009383135,0,19782,3156659833,1544,8.81,7.41,351536216,349243000,2001000,370747076,16
1114544999,580893,507544918,1435849,506417310,1426722,321519,1929222,1336566787,100625,1112384701,125,22241,3871065953,1305,10.08,8.52,391815532,388549000,2996000,413096124,16
307266182,365799,206225679,1287210,206342446,1286691,232393,1250896,815960799,77200,304233083,61,12737,1538000324,1107,5.46,4.49,243278161,243016000,0,263326285,16
408297264,430371,204675149,1297997,203694136,1292493,234708,1305514,848913433,74778,406156979,28,10609,1335379883,1109,5.78,4.75,253134850,250872000,1998000,273531444,16
305812547,421117,205142024,1283612,204950561,1281283,205054,1234558,819000108,60507,305789374,28,14716,1333761540,1110,5.55,4.56,244316764,241030000,3000000,264521410,16
318771959,517032,514542122,1388897,507082056,1364688,359381,1237265,625080887,143768,313325517,80,14738,1777008848,2518,4.28,3.55,183481394,176293000,6972000,202118466,16
308529104,337866,405513884,1377685,401900973,1364810,179580,840485,499710141,67134,304670999,320,7735,1555495050,1107,3.46,2.86,149783399,145460000,3985000,170952550,16
1216268495,1008386,711149533,1720315,710906396,1711492,450292,2443254,1626663331,169224,1205663086,398,39455,3854477052,2805,11.96,10.02,483008718,475681000,6995000,504332053,16
308433211,522057,207489651,1306900,207224406,1289323,295657,1401371,867011507,115057,305421591,137,19855,1441676864,2087,5.87,4.82,259541236,253226000,6005000,280664568,16
308472454,470258,207257332,1295753,206630435,1287291,330485,1399419,860288831,109277,306007634,119,18784,1344751675,2083,5.78,4.75,254824741,249483000,4989000,275506906,16
1012184370,598209,604454464,1409490,602679113,1413286,318866,1856828,1323976876,94402,1012378251,143,22450,3550481267,1264,9.8,8.23,391672913,389298000,2001000,412131078,16
2245080194,3518042,1327037381,2865977,1324829873,2857924,1583692,4936645,2784907532,478727,2246578480,206,108619,8990282229,16732,21.17,17.9,815433450,779205000,36009000,836355650,16
307249620,412624,204817039,1276214,204497531,1277472,248703,1229799,821755745,75191,305228526,73,11497,1335978059,1108,5.47,4.49,245564255,241908000,2998000,266400479,16
1218813556,748042,912045418,1727520,907163182,1723503,439257,2458565,1725302300,130437,1208015731,30,28867,4465601118,1829,12.66,10.63,507078552,502631000,4005000,526850707,16
306404713,413157,305445553,1282270,305351676,1274215,223710,1243543,829704630,78547,305354835,87,12329,1541642265,1112,5.55,4.56,247088594,243757000,2997000,267845407,16
309581607,446300,207497514,1283878,207055960,1274630,338603,1341167,825953679,115918,305730998,158,16073,1241418361,2087,5.48,4.51,242347285,239143000,3001000,262741541,16
208401889,663129,310896660,1248060,309577234,1220728,241920,1042211,595480866,128671,206169973,101,15484,1549606575,2085,4.13,3.41,177908301,172556000,5016000,198482079,16
309414663,474610,309838986,1282374,308420245,1274866,371533,1444205,841999820,110490,306809934,286,15934,1446761505,2084,5.58,4.6,243594751,239126000,4002000,263459709,16
410799461,413641,205953422,1274158,206460004,1265704,228704,1192205,822351793,72642,406128919,164,13144,1540195426,1107,5.58,4.59,245537278,241056000,4000000,266037488,16
1215459153,761872,708284156,1695124,705545344,1692086,436186,2231965,1561777346,124731,1213355072,72,26623,4666721566,1829,11.65,9.81,459867831,455133000,4001000,480543323,16
1204193556,6565819,778002062,4412158,775736588,4421147,876996,6586024,1824321566,571177,1194299277,78099,169831,3985634409,6023,12.32,10.49,453448304,447114000,6001000,473906888,16
1114169419,814527,608188615,1829837,607866900,1820490,429695,2482800,1801824034,133236,1108439102,183,36816,3550886364,2167,13.16,11.04,527736708,526513000,999000,548613093,16
309355138,435786,207178951,1291740,205769431,1276096,326277,1366259,825939366,131034,306054966,102,15997,1242747824,2088,5.59,4.6,241905539,238559000,3007000,262913642,16
310833271,302776,408149994,1360893,401254753,1355288,179634,864152,494134702,70956,307133724,37,5938,1676311127,1108,3.48,2.89,144135528,141796000,1997000,165226585,16
219896278,522940,415424243,1389523,409827558,1370627,276751,1051606,553209407,1053553,217053545,34,59903,1477795834,4613,3.8,3.13,166484028,157139000,9007000,187420053,16
309143829,453382,208928638,1295692,208284933,1286545,309101,1383861,827718680,129500,307319848,31,16454,1447516244,2087,5.65,4.66,243807938,237518000,6013000,264453311,16
310022518,740086,210935451,1298316,210882094,1297998,330460,1387134,839141909,160237,307905926,34,31264,1255811996,4041,5.55,4.56,249581087,241269000,8008000,270684631,16
208288942,945202,209023476,1488862,209442048,1483532,406519,2345592,1518279288,123289,209127502,264,25733,2049711463,2080,9.56,7.78,447693304,443389000,4003000,467878671,17
308001684,817810,207499165,1618236,208193424,1616652,489572,2758425,1965833629,142713,309197134,422,27977,2043820099,2093,12.38,10.09,577690481,573443000,3996000,597952447,17
306529632,450930,205840616,1309563,205632400,1314664,246463,1416146,952683330,70140,307407780,293,12544,2148364782,1109,6.42,5.3,279644323,275268000,3989000,300083504,17
1049146493,3554881,633442573,1694916,631510549,1681112,1518409,4061982,2077116616,496476,1044444178,546,94425,4294661505,17711,14.57,12.12,612024708,573681000,38045000,632181883,17
307819982,582288,207217186,1312542,207387864,1315173,290873,1419170,917133911,113152,308521899,508,47036,2044791234,4033,6.18,5.09,271827612,265364000,5985000,292118954,17
612504982,1117086,412442843,2559795,412394736,2563392,486422,2606807,1810954218,184031,609413026,392,45366,4063654882,4037,12.18,10.04,534231085,523827000,9996000,554513855,17
223976182,1155636,412347701,1656482,412476116,1654408,533631,2534675,1724897118,183264,225981559,547,50248,3582104978,4760,11.46,9.43,508820876,498418000,10008000,529256611,17
307247560,718255,207856015,1558447,207974914,1555269,370319,2353961,1754112088,87881,306843973,221,21887,1839435095,1110,11.06,9.01,517928717,515550000,2002000,537751599,17
307492518,756857,207251863,1568459,207351972,1561616,396492,2433321,1811187974,101828,307412736,435,24088,1837150830,1110,11.37,9.26,531895379,527206000,3993000,552439021,17
248371788,3378781,333446883,2550516,333261872,2531942,1504338,3638126,1643640451,436414,251892316,581,1016027,2409424098,17703,10.52,8.58,483914126,445751000,37893000,504252363,17
1215050681,906869,609147445,1676270,608662493,1668512,429708,2138755,1377742035,158124,1207241573,438,29456,4077058405,2952,10.27,8.66,406597847,399363000,6988000,427611398,17
308319701,701073,310702592,1569877,310552718,1552705,373763,2470931,1776437216,110360,308408729,293,23810,2857581015,1110,11.67,9.58,524697218,520341000,3994000,545739085,17
308826610,829444,207644931,1606015,207991328,1605356,521440,2725321,1972516679,139203,309812571,408,30643,1845464131,2088,12.43,10.12,580146196,573736000,5997000,600635302,17
210096384,772527,209235004,1484804,208979793,1484522,347686,2084804,1488549796,122313,209615923,236,53198,1957094659,4039,9.53,7.77,442904777,439623000,2997000,464014324,17
710033355,541066,205773252,1393520,205676966,1384319,272866,1662810,1164373034,80075,707576125,657,18013,2543862975,1107,7.98,6.61,345345451,342093000,2992000,365896707,17
307005690,680689,206484242,1525220,206487545,1528537,359359,2264744,1750372913,93984,306950009,152,23315,1836482231,1105,11.07,9.01,516291847,511917000,3999000,536385089,17
210693686,1281871,209146127,1802569,210175209,1811424,584090,3762765,2709058869,171223,211999566,321,38740,3857906366,2082,17.53,14.36,797726360,790442000,7003000,818643342,17
313075626,1078727,211615553,1642216,211251644,1626120,414927,2660400,1979890165,156605,310976850,660,63953,2058587212,4037,12.53,10.2,585747928,579379000,5993000,605791973,17
310483794,927759,209067124,1611173,208878613,1609338,436136,2660940,1976736096,157133,310360759,208,59415,2047505437,4038,12.48,10.16,583562250,575314000,8004000,604735759,17
310324739,927511,208545194,1607302,208636226,1613071,430342,2717713,1984638939,166670,310915233,289,59414,1947747172,4036,12.44,10.14,580653128,571002000,9000000,601303026,17
308741497,791350,207408321,1607465,208108854,1605632,493153,2742893,1964370542,149891,309653073,357,32627,2042531981,2088,12.37,10.06,578325752,571885000,5998000,598603523,17
309095299,852162,207226779,1624494,207497220,1616301,461922,2803294,2012658504,151496,309544729,290,34156,1842411613,2088,12.67,10.3,594831140,590484000,4003000,614772956,17
307158069,740532,206738685,1564932,206824862,1556314,367855,2373101,1798946587,96476,307455387,178,23836,2037531182,1110,11.39,9.28,527748840,523188000,3993000,548518370,17
308164959,728100,207071937,1558750,207155190,1562963,363671,2416035,1769582776,105924,307958038,164,40147,1839719816,2085,11.15,9.08,522507833,517815000,3998000,543659322,17
1117484292,652297,810122981,1677961,806120810,1683717,410250,2254204,1540023314,121619,1109669376,108,26550,4263262061,1835,11.52,9.68,452634217,447299000,4992000,473178032,17
311863488,1437730,210654470,1957632,211525132,1947468,640291,4280466,3238200660,205540,313579204,104,49939,3961200135,2083,20.83,17.03,952984684,946596000,5997000,974088749,17
307165767,727245,207146115,1535136,207336523,1527408,340905,2292577,1753132077,92622,307167703,159,22847,2038073634,1108,11.51,9.46,513839550,512669000,1001000,534308862,17
310377254,1073420,209305737,1613869,209738647,1599097,470453,2817797,1971035585,162593,311274348,201,32166,2052385981,2088,12.47,10.15,581023032,574638000,5996000,602803232,17
308568238,720582,206900763,1567498,206895695,1554353,366253,2355965,1759084615,105168,308688285,280,23358,1841133699,1107,11.1,9.04,518177962,514531000,2997000,538672726,17
306748332,675987,206566954,1546922,206854758,1555704,355610,2346120,1754514583,97842,307284887,176,22605,1835153532,1106,11.13,9.08,514485174,512206000,2000000,534816594,17
307919263,781240,207249525,1575170,207955848,1571927,480461,2599639,1963749885,144804,309220347,235,30758,1840875389,2086,12.38,10.07,578563899,574180000,3994000,598723864,17
1015814449,901886,707685130,1728453,704970688,1730716,508528,2503940,1770603366,142212,1011016828,166,53316,4369177456,3152,12.79,10.71,521038131,511723000,9012000,541756889,17
309673385,1080060,209406940,1608195,209898029,1607234,450863,2859250,1983404368,174741,311181084,468,32235,1951559472,2081,12.69,10.33,583017287,574670000,7981000,603879638,17
310100803,933251,208855444,1603749,208874622,1593132,412914,2538936,1978874404,158323,310398295,318,61563,1945060102,4035,12.53,10.19,584397981,579140000,5001000,605402869,17
309395331,1070955,207202841,1661265,208644912,1658260,482390,2885233,1980927936,170955,311855600,60,36104,2047289719,2087,12.49,10.17,579273697,572099000,6989000,599336960,17
314949835,512274,409158896,1560083,406906207,1557659,362034,1842271,1192312943,126780,313950438,11,20202,2059750485,1541,7.88,6.46,352436320,346928000,4998000,374961468,17
207617574,608159,207870985,1510473,207975350,1497144,349777,2215784,1582949898,107063,208540986,44,20445,2049803033,1109,10.3,8.42,464278158,459889000,3999000,485050771,17
307354705,663759,207749522,1550675,208453144,1560255,362276,2521010,1771778471,106470,307915507,235,23108,1840964571,1104,11.21,9.14,522393296,521145000,1000000,542768629,17
409451468,685849,206520001,1542622,206650065,1539583,355532,2384285,1752804847,93888,409129668,136,22015,1838799971,1105,11.2,9.14,518108218,514791000,2998000,538867539,17
310405936,915840,208638922,1617042,208437398,1610850,432696,2669269,1979196935,155975,310499003,264,59681,1949227871,4035,12.7,10.36,580387965,576066000,4000000,600482385,17
307907552,786926,207246599,1557182,207300817,1558702,341855,2362152,1760526542,100206,307282016,7,37624,2038280430,2086,11.24,9.17,518646565,516290000,2001000,537980052,17
212038069,928647,209471032,1464880,208826641,1458650,365298,2022555,1390261333,183767,212325136,107,36159,1951876356,4039,9.13,7.46,414215889,405885000,7997000,434692369,17
307724448,782295,207633753,1602202,208047891,1593125,476928,2669572,1965003127,136835,308439818,122,28744,2041830528,2088,12.49,10.19,576186744,573964000,2003000,597097246,17
307681089,770811,207210553,1562652,206947597,1555206,326395,2348276,1803798364,111077,308051456,299,40819,2039739979,2083,11.65,9.51,528805415,524537000,3988000,548698233,17
310389237,531331,207807665,1316119,206818495,1302948,355399,1483596,907756491,107080,307904123,173,15319,2057461089,2083,6.17,5.1,266468921,262054000,4000000,286228431,17
308048786,805790,208361549,1600106,208738189,1602993,516337,2750002,1971394670,134974,309462417,194,27859,1845265196,2086,12.55,10.24,579604227,576261000,3001000,601501593,17
310396305,924355,208881804,1606130,208338876,1597281,412253,2572860,1975372462,144141,310382999,364,60079,1846903060,4038,12.53,10.2,583578223,580189000,3000000,604182291,17
1019190942,1434040,512730460,1783467,513436216,1790864,489724,2889086,1943674504,164306,1021067740,190,46235,4276914814,4714,13.87,11.59,572320633,564082000,7987000,592563293,17
309435627,942566,208057159,1603077,207935002,1607757,423254,2668407,1968076311,108172,309355301,301,33421,1844035479,2086,12.54,10.22,581937245,576538000,4996000,603203296,17
307315367,701970,208820850,1587003,212111755,1598092,402192,2496902,1773494983,116608,311942989,474,23931,2044072916,1109,11.24,9.18,514225938,510964000,2999000,535057768,17
310030177,974847,208409392,1605676,208450902,1606128,409766,2653927,1979148203,141217,310027465,84,59409,1945637895,4034,12.57,10.25,581443711,574147000,7001000,601944597,17
404127390,693905,435096164,1442664,433672668,1429263,368400,1701309,1040645714,136323,399802308,73,26293,2665075052,2520,7.27,6.03,309661476,305313000,4004000,329589268,17
215383001,623913,410359643,1632710,409170500,1623223,360543,1942879,1391480317,125277,215447103,56,26799,2968272000,1688,9.3,7.65,413783385,410453000,3003000,434832670,17
410044886,642634,207012257,1536181,207277518,1549917,399363,2383980,1767265175,96813,409420197,182,22688,2042409432,1112,11.41,9.32,522207485,518323000,2996000,543559598,17
308305910,853118,206308651,1636837,206367213,1635525,362800,2718872,2072153791,110001,308122256,54,43813,2237679391,2084,13.17,10.74,609750819,601557000,7980000,630371019,17
211085221,385081,208787860,1160120,204410421,1134498,263618,811646,360263256,94637,205947382,73,11167,859459671,2085,2.52,2.1,105274843,99068000,5944000,125341503,17
306825869,432808,305581679,1303023,304895525,1302988,213629,1255883,859397205,74890,306157157,30,27773,2243332858,2083,5.86,4.84,255835256,255654000,0,276258171,17
307973572,826812,207389914,1591525,207939655,1589049,489780,2671498,1965561980,137534,308930051,191,29832,2041654188,2088,12.58,10.26,580071777,574807000,4998000,599819608,17
207397880,498762,205721108,1368263,205744539,1358611,279693,1564917,1175971587,77896,207908288,101,15798,1839702117,1106,7.65,6.28,344443523,342071000,2000000,364979277,17
310433660,978566,208573400,1605613,208591655,1611158,430518,2660757,1981071107,156754,310370116,151,59270,1948637210,4036,12.58,10.26,581402428,575094000,6000000,601862766,17
310206608,894851,208853593,1589088,208372729,1593206,416643,2605980,1974415608,158523,310127154,442,59936,2046630409,4034,12.64,10.31,582263813,576071000,6000000,603695119,17
207757047,255183,206513128,1146753,202873545,1140881,163292,684359,342423556,44728,203913982,83,5381,1162583969,1110,2.39,1.97,104642018,101430000,2983000,124322547,17
306249677,434125,205598668,1345787,205181027,1350025,261809,1507826,1053626252,74866,305654331,56,13306,1334858246,1111,7.02,5.76,311849264,309553000,2003000,332098046,17
409228936,692935,206649017,1537530,206793556,1541925,354579,2334464,1754770020,89885,409015440,104,22754,1836812592,1107,11.33,9.27,516424253,513153000,3000000,536772292,17
310783888,909266,208957560,1615253,208858276,1609028,434122,2626698,1973244968,157908,310616535,49,59505,1849188757,4038,12.81,10.44,583437674,577111000,6001000,604503001,17
310366903,930131,208591916,1596590,208760282,1607111,425528,2683400,1976817417,146739,310442964,280,59515,1847010748,4040,12.67,10.35,581754776,577306000,3995000,602213678,17
308086748,798347,207289090,1581085,207639863,1574609,478432,2619736,1970235088,143764,309254268,153,30099,1943854621,2087,12.79,10.44,580065211,574755000,4989000,600729293,17
310395945,926660,208962741,1587343,208656023,1585934,411030,2542818,1977577120,170976,310426522,221,60296,2047655195,4034,12.83,10.47,582250311,572859000,8997000,602199838,17
1115862404,769121,608303637,1749631,606157028,1749099,444034,2553997,1831592143,125086,1111240602,960,31965,4362366831,1687,13.4,11.2,540409933,537049000,3000000,561054944,17
308176244,790959,132028708,617285,133209896,622170,480985,2705138,1955834407,151427,308853550,27,29944,1644191758,2087,12.7,10.38,577301222,573053000,4000000,598032109,17
309353667,539179,208100297,1297000,208086288,1299879,272744,1358809,912956160,112058,309027819,97,46063,2046179140,4037,6.21,5.13,271489223,264125000,7003000,292142253,17
317504714,922450,511416297,1653694,511549224,1642584,413853,2231453,1502319079,169106,317675260,59,32916,2664590826,2662,9.87,8.09,444177553,438840000,4998000,465027057,17
410018889,631408,206587126,1533517,208160321,1535933,361711,2353929,1762803354,108807,409241131,215,22460,2042839409,1106,11.55,9.43,521396964,517925000,2999000,542081982,17
307023073,700844,206526085,1549054,206572102,1540425,353647,2362075,1752149776,91303,307030802,55,21947,2037889347,1112,11.35,9.29,517173839,511885000,4989000,537684557,17
306819193,677246,206533714,1531296,206427376,1514962,343254,2218775,1750359465,96761,307334601,187,24165,1837528470,1106,11.39,9.31,513424433,510195000,2995000,534006622,17
1218321403,1276669,911674241,1818037,910802523,1793748,488253,2880643,1915847212,214841,1212141897,3334,58443,5864105686,2926,14.34,12.06,557543711,548370000,9006000,578358052,17
307986213,719876,308352998,37202949,308089096,37025481,445134,2376982,1731437801,135033,308766344,93,27996,1541643753,2087,12.49,10.4,510175115,505889000,3999000,529530255,17
309318611,757798,207260105,1609359,208722588,1606940,480947,2714113,1968168329,139006,310301092,21,31617,1844716749,2083,12.78,10.44,576457003,573184000,3000000,597394618,17
308462488,783986,207541832,1605249,208322308,1604240,510066,2716130,1972634038,138494,309501231,204,29470,1943621005,2086,12.84,10.49,577606648,573167000,4001000,598385842,17
1215109106,988003,608663759,1720541,608282737,1708731,445453,2413207,1656360609,159951,1210139655,214,40067,4559738771,2811,12.38,10.41,489653921,482423000,6991000,509844525,17
206845385,6573949,203836506,191796,201639011,193908,242117,1273593,487999234,199411,207141590,172,24028,1442333536,2086,3.44,2.85,144798605,142499000,2007000,164603017,18
425038283,27547993,360497569,834798,356500448,825183,6684854,15959876,1846928919,3156711,428222506,575,374301,2778716236,98767,13.45,10.98,541509034,324075000,217050000,562215264,18
205906060,12879717,205138228,286333,207245727,279403,1091654,3971762,827041199,357692,206096253,155,57797,1819650996,4038,5.81,4.68,244494808,240142000,4002000,265381046,18
593742141,28054834,306879588,795507,304862993,795316,6870140,14431428,1704086139,2683977,593162101,494,626965,2914060699,99788,12.39,10.14,502975415,336433000,166214000,523778333,18
207719467,13062506,207435139,280296,207798655,290224,1102941,3971126,831803646,361550,205347818,273,55233,1822887825,4039,5.89,4.76,242361340,234069000,7968000,262688165,18
588674497,29581748,306033796,813317,307593318,804819,6895685,14505577,1711629518,2724247,586881806,376,427760,2671020192,99783,12.22,10.01,499341883,335998000,162999000,519350457,18
414222275,21597141,355947686,839274,358664480,852879,6283948,10236696,1883837277,2984159,419022135,795,519569,3682172031,98763,13.2,10.82,551395208,337074000,214047000,571948733,18
105587031,6303022,29972889,107452,31561797,108465,257093,1898173,198846441,167403,105898828,1,2616,356180656,1107,1.48,1.24,58321651,53999000,3999000,79345891,18
405252502,6802863,203175358,460736,203909829,466253,365061,2506572,1446348362,209665,407584187,261,19663,1423286765,1108,9.93,8.2,428281147,425934000,2004000,448419778,18
351317509,15417073,303609629,574274,301831212,578279,5771043,9047020,1130055192,2677726,349252663,377,466641,2002937073,98765,8.21,6.77,333533316,185086000,148068000,354051242,18
445781043,17189257,503711105,909598,504266710,907769,5934390,10363868,2340709296,2600186,439825116,594,354949,4969115061,97789,16.29,13.45,688885079,532467000,156137000,709164507,18
594226658,29864840,313536206,752919,312848232,755633,6918990,14852531,1575226205,2618417,577005144,546,522189,2578890176,99783,11.4,9.35,465425932,310045000,155022000,486058630,18
206831868,6624877,205840200,178550,203977358,182506,197510,1127368,419223355,155903,202351125,210,6078,1240314435,1109,2.93,2.43,125930730,123474000,1991000,146271323,18
209017414,13443589,105987594,254114,106201893,255921,1412501,4802618,732320355,328497,203409746,337,16473,1536943063,2079,5.16,4.14,216112972,210919000,4998000,236345518,18
205405972,12930959,205018001,302943,206833544,306492,1146488,4076907,867186501,282152,206427673,205,57304,1808725895,4041,6.0,4.82,257068187,249754000,7021000,276981685,18
205555509,13078267,104310412,356370,105437687,351221,1083253,3545976,1058795444,332703,206428012,441,18598,2027253225,2092,7.23,5.84,311080816,306725000,3996000,331538284,18
208267668,6725551,202998809,276885,200098183,271759,254073,1584947,763949183,165907,208159506,326,10845,1976422568,1110,5.15,4.26,224311242,219679000,3994000,244910447,18
206901871,13283862,206428010,298725,208133551,305809,1126120,3930236,860745869,261561,206413078,189,18463,1824540382,2085,6.04,4.86,256098539,251272000,4004000,276202768,18
206591800,6598184,103722700,160268,102703374,164829,182924,1086269,374639240,187457,206964431,30,22595,927914679,2083,2.64,2.18,113877867,110593000,3016000,135306170,18
206456374,6631140,103340054,160693,102216742,157192,203328,1095947,376954183,190278,207287274,27,17385,923320721,2085,2.67,2.21,114398773,110055000,3965000,134773060,18
516996492,22039778,561549044,815339,557824510,827038,6236946,10184023,1784467710,3073814,515150392,159,423093,3604669006,98760,12.8,10.53,522698024,319674000,202793000,543108204,18
206929758,13236180,204914603,260269,205179964,268087,1193363,4285421,774126263,282850,207975717,96,17543,1737048506,2086,5.54,4.47,229107624,222827000,5995000,249018490,18
346621528,16781746,301925293,634481,303238917,637619,5759531,9099669,1481656870,2494314,349424672,46,323656,2707014440,98765,10.4,8.55,439360166,294427000,144718000,459731541,18
211477570,13139618,107714610,278935,108271207,266613,1313247,4761239,754516602,345914,214042084,111,31699,1537414827,4136,5.24,4.22,219598778,214395000,4985000,240320600,18
588339052,29045726,305431770,1083809,308563983,1084665,6907444,13703524,2834770306,3007591,594020846,236,622727,5288595017,99787,19.95,16.43,834047225,664758000,168938000,855492093,18
412926271,13653355,310611698,47145092,310683438,47062850,1039880,3913051,1938047034,411984,407050594,303,38664,1487943387,3065,13.88,11.45,571011700,565597000,5005000,591245005,18
206574767,12924627,205045192,273213,207857655,267114,1095750,3915961,827638699,360244,205320702,111,56549,1816968588,4034,5.79,4.65,246085446,238715000,7021000,267381597,18
206868889,12921542,205575546,278341,207568802,281101,1079022,3895140,830194218,339790,205481619,108,51783,1824321663,4036,5.79,4.65,245914891,237596000,8020000,266265289,18
209052651,6692064,204820923,228305,200438487,229141,218412,1449259,620689560,176650,205871574,123,8818,1767122111,1104,4.24,3.5,185156992,182813000,2008000,204728374,18
211320532,13253079,206438019,268135,201914952,271102,1087078,3772659,763454552,263419,206101234,166,14040,1768400763,2088,5.42,4.41,222114063,217770000,3995000,240503643,18
209258872,13266088,208891202,276755,206268438,282370,1297214,4307893,763998111,273469,203256463,113,15106,1646238794,2088,5.41,4.35,225847663,219542000,6014000,246251983,18
586168633,28113527,304522602,797440,304343498,776975,6805238,14276159,1696570490,2411607,592187821,338,527586,2663417885,99783,12.21,10.0,500121754,346806000,152914000,520190313,18
209843636,13202233,207108419,444208,205880411,450294,1004598,3323656,1379324634,337582,208213656,259,59731,2746612843,4040,9.27,7.51,404823966,394497000,9987000,425781629,18
516804876,22083454,556053665,815162,558859349,812149,6200762,10266557,1788236149,2874504,521642916,84,418709,3570499658,98760,12.73,10.43,526363443,320024000,206015000,546631064,18
552879089,16542481,405142259,815366,405029568,821349,5865453,10031162,2138068093,2251343,546607588,229,336490,4402117041,98765,15.06,12.44,630220039,491755000,138212000,651828208,18
243968126,19513876,209046747,353281,210041801,357957,1073699,6741947,907378574,354520,240455052,71,20417,1896986363,2084,6.57,5.33,268130953,265839000,2006000,289487155,18
207762430,13219617,208434631,265576,206881549,267389,1240234,4188600,765827511,269920,202285431,0,15023,1736299096,2086,5.5,4.44,226669478,221379000,5008000,246283508,18
287056783,38801549,215482730,896065,216032962,899053,3049959,16732589,2581788191,699522,286136658,39,46326,4076971685,4039,18.45,14.87,754887875,744642000,9981000,775368846,18
691784086,29005037,408837967,806212,407560974,798031,6861476,14193899,1809139232,2655967,696926945,255,558302,3397692804,99788,13.12,10.75,529779710,364611000,164824000,550406399,18
303546023,13169389,303603689,449413,302845215,460489,1117132,3420946,1478409568,309464,303151289,165,23321,3183883947,2085,10.61,8.69,433040429,427699000,4996000,453473578,18
206490901,12905883,205359014,281344,207508707,276916,1098193,3972538,827928074,348565,205707953,126,55162,1820134882,4035,5.8,4.66,245322868,239016000,6000000,265643549,18
208934584,6716336,206152629,228485,202272246,237018,212898,1403083,624630714,208079,205121278,46,24811,1755946693,2080,4.27,3.51,186563007,179273000,6971000,207314973,18
208019387,13274425,205596814,546925,205304210,542462,1069002,3475297,1765102636,344331,208488422,128,31223,3859532084,2083,12.58,10.33,517349410,514889000,1999000,538405084,18
212202548,7652051,207930373,1184939,208720850,1190931,735539,5845155,3926574643,283869,212725554,339,56768,1743391799,1109,26.88,22.18,1153294740,1147806000,4994000,1173028133,18
308619116,13128779,206614517,306340,206065694,300442,1072968,3760849,871827937,302760,302258613,165,19392,1833215620,2087,6.21,5.03,259875391,255499000,4007000,280945225,18
207673196,13207805,207952308,263235,206166713,274803,1214849,4151848,768504488,253516,202972921,81,16818,1739304596,2088,5.43,4.37,228653207,224311000,4005000,249415107,18
205620848,13003422,204413603,257440,204546336,262783,1189531,4074104,776184431,286369,205936361,106,16068,1827572544,2087,5.52,4.47,229147930,224873000,3997000,248728400,18
204074187,6556843,203038060,226646,203050778,236145,190481,1355401,624156803,184995,204763727,63,31925,1716959757,2083,4.27,3.52,186640006,182237000,4005000,208275993,18
206355378,13257453,206498724,266604,209132071,275504,1183560,4238135,773839143,288207,203505334,220,19163,1711560209,2086,5.49,4.43,228640971,222287000,6007000,250512826,18
307723391,13266414,205375861,553858,205938008,557828,1085109,3520631,1805858580,334223,308085946,11,25366,3942997790,2090,12.72,10.45,530707665,526429000,3995000,550757750,18
521581299,27977442,461550636,1057943,461403693,1059671,7143195,16003676,2645600222,2788036,527129650,469,433028,2448310112,98760,18.89,15.5,778190837,560923000,216970000,797980484,18
211036959,13286572,207872743,274038,203354412,278009,1191868,4065883,767552786,261170,204554802,4,15701,1763959210,2087,5.5,4.45,223785973,218520000,5011000,243994340,18
204051177,6541365,102618130,203319,103128918,194405,225249,1256524,498373401,143729,203435872,46,7477,1223772229,1109,3.53,2.92,149566734,146238000,3004000,169490166,18
406270800,6648930,203897699,262765,204087820,252586,253314,1510986,750446023,171237,402568074,170,10810,1927064157,1112,5.29,4.39,219061048,215801000,2997000,239479219,18
208469881,6699040,206049315,229503,202798553,233746,242582,1421738,627092418,197191,205364801,61,26134,1749599486,2085,4.3,3.54,187546545,182260000,5007000,208088609,18
210846756,13242676,206498111,276349,201951057,277595,1198531,4102876,770865040,253725,206168930,0,11288,1771683477,2087,5.53,4.48,223792764,217520000,5986000,243862727,18
203115474,6512168,200283662,181094,202092585,179918,243943,1243867,452810294,140370,204380732,84,7137,1323776981,1111,3.26,2.72,133096809,132859000,0,153881106,18
209091108,13263317,208668695,272365,205387491,272530,1247419,4217547,754966203,274833,202937622,7,13394,1645777385,2085,5.41,4.35,224106524,218920000,4998000,244339300,18
208805607,6707685,103737587,254481,102551244,253926,244469,1509243,709303534,175243,205623041,95,10203,1662814759,1104,4.84,3.99,211855557,208521000,3007000,233346497,18
209703226,13144591,105973219,254419,105145338,258241,1249510,4366716,727315110,376756,206232469,31,46832,1552768860,4040,5.25,4.25,211985903,203668000,7986000,232514375,18
588350900,28862397,305309874,947046,306628048,940043,6819470,13333897,2322587344,2874662,591441612,196,508691,4293110697,98807,16.85,13.87,680663206,521144000,159044000,701281399,18
204327331,6467886,100753719,207694,101251302,205711,184319,1273667,559439241,172873,209163048,73,8056,1437335790,1109,3.95,3.28,164658566,161354000,3006000,184851684,18
310860311,6714667,205757045,271920,202700700,273995,242562,1582589,759367990,177859,303353612,1,9712,1852919697,1107,5.29,4.36,226533148,222152000,4002000,247139556,18
208093414,13129371,208229055,274004,207307642,286696,1070175,3919539,829693095,359702,204817833,224,52544,1831345588,4035,5.91,4.78,241932871,234642000,7019000,262537217,18
206791020,6593477,103821974,182228,103576859,183603,188315,1171391,419920922,200619,202996524,0,24539,1032760783,2083,2.98,2.46,126893628,120515000,6025000,147688671,18
588779943,28198326,306084382,792516,308570411,786872,6856563,14366707,1685942391,2355934,584181653,196,433291,2676910750,99788,12.31,10.1,498256032,332988000,164994000,519479084,18
206495553,13288331,105096948,261406,106990231,267893,1208054,4295821,766096726,290973,202563427,1,26845,1621531350,2080,5.48,4.43,227104543,220801000,6021000,247946010,18
206336173,12982851,206623192,282077,208096048,278959,1044430,3839439,822599515,348614,204864003,203,55213,1815918986,4036,5.81,4.7,244279605,236988000,6999000,265450187,18
587172272,28675976,304422764,958889,305451673,951167,6891737,13360715,2368633043,2791912,592247215,226,612854,4462233992,98806,17.08,14.09,695463783,531153000,164047000,716875850,18
208288949,13204646,207652544,259523,205576298,270086,1250251,4189015,772057441,252061,203843439,115,13669,1743988262,2082,5.52,4.44,229332546,225944000,2999000,249032452,18
208521006,12990515,105473362,244944,104983707,246599,1242192,4320181,723954459,320064,206538931,161,46707,1534734049,4041,5.19,4.19,215077105,210776000,4014000,234941513,18
208798391,13244577,207980471,276565,205856798,277741,1195032,4078431,766208441,264262,203484007,1,13887,1748496426,2088,5.48,4.43,226241907,220012000,5973000,246822231,18
207826540,13077262,106070204,257719,106257614,264551,1274068,4405111,728104298,356849,203187672,238,57014,1517835981,4034,5.2,4.19,215139542,208857000,6024000,235647824,18
206336811,13054444,104259227,266804,104701418,267083,1355952,4459622,723207506,305686,206373073,42,13907,1537675855,2087,5.16,4.16,212706031,207385000,5009000,232824276,18
208656927,13271343,208710912,269574,206448765,278632,1237271,4147846,770048585,263351,203293910,12,16351,1744607955,2083,5.54,4.47,227860895,221198000,5978000,248326041,18
209224411,13287061,209116417,277955,206856708,284495,1250260,4161966,768139808,249338,202403745,143,13542,1745426649,2087,5.49,4.43,226862009,220581000,5988000,247514122,18
208204164,13256923,208142557,278702,206629867,277860,1215830,4114924,765694478,259756,202896007,31,16508,1742318369,2089,5.5,4.44,226612884,222371000,4006000,247632698,18
586134260,28486522,305188357,783007,305135295,795228,6896775,14471405,1713517954,2737166,593016435,88,533282,2666023747,99788,12.56,10.3,503042038,338772000,163890000,523645531,18
592909248,28585672,307542661,748196,306724694,748792,6791765,14423906,1648037840,2593438,586639907,139,452988,2791115237,99783,12.08,9.9,486484536,320103000,166053000,507348350,18
207099214,13175916,208197190,263202,207248099,274584,1203942,4155660,769570157,266105,201959745,42,16100,1731543488,2087,5.6,4.53,227297571,219959000,6998000,248028134,18
801347845,14315476,424430229,15890868,424179092,15815966,1762908,4856189,1550958508,715079,794286701,746,176190,2927237438,24771,11.11,9.27,457455254,416174000,41017000,477422099,19
940842753,32247237,380978158,8995368,379435562,8973946,4162452,11858373,1658877677,2754622,938708625,721,268378,2869782243,41094,12.1,10.09,487468776,412088000,75016000,508526482,19
234925372,9394325,149652481,1170457,150196026,1205473,2671806,4249961,632432861,1241633,233414846,250,195495,839655751,40942,4.47,3.7,183008476,91878000,90879000,203645686,19
191465960,4962509,117394897,1120327,118374556,1101861,1315388,2231257,445733120,631237,186480026,378,90018,662519754,20540,3.13,2.58,133836210,95398000,38159000,154765418,19
141171480,6847676,65249489,1054125,67163991,1031966,1357688,2390980,450359806,703805,144144538,220,98206,517897039,20594,3.13,2.58,131685793,92275000,39116000,151560382,19
171740353,9709999,86084219,345755,88168819,347105,2726795,4365090,630948175,1257163,173538131,55,134150,710459453,40944,4.38,3.59,187943764,92789000,94785000,208645073,19
270024086,6733044,167321192,3368999,166605674,3361058,1377134,2439693,469773439,540056,275490418,202,89464,895168801,20591,3.41,2.83,141233023,102896000,37961000,162365380,19
142717539,6655798,66786483,1018780,66137052,1048232,1403600,2379125,423796057,556317,142466904,183,91583,506150357,20591,2.89,2.37,124319474,81087000,43046000,145359738,19
805372671,22682419,442128374,15405479,441903436,15518377,2951838,7134747,1578021104,1088495,805742097,794,225739,2865382387,41170,11.65,9.76,464662041,392336000,72061000,485171080,19
238861940,9609830,151008585,1154044,148449446,1117310,2763323,4598165,559095541,1258366,235174595,350,138356,826797059,40959,4.03,3.3,172540986,74109000,98144000,194568426,19
132006559,4969364,73856712,1099050,72289185,1099499,1289063,2261184,454521103,724260,132164767,580,83497,574070604,20546,3.14,2.58,135114255,84459000,50273000,155750873,19
144439409,6729267,64190963,1020655,64659711,995392,1352218,2337590,345613105,506277,141965910,227,91111,528891380,20591,2.5,2.06,104537827,61180000,43127000,124635718,19
746719799,15418632,371401708,3785861,370833819,3781676,3126200,6497500,1283961683,1584105,735763676,327,253293,2681757075,50083,9.58,8.01,375854159,293448000,82125000,396079101,19
142766931,4738920,73734084,241098,70398658,229585,1504918,2414338,454401051,598149,144047819,145,85704,655977493,24559,3.15,2.57,137075623,97528000,39212000,157357214,19
160157868,6577590,87660580,1057774,86320163,1090234,1275069,2224249,420807843,526691,163255376,204,98524,580911249,20591,2.99,2.47,122575562,91438000,30810000,142905004,19
214231921,7651971,132299488,1108527,132986539,1120945,2636127,4213559,580686018,1417634,213081330,93,242183,723030566,45688,4.07,3.38,172507457,111139000,61076000,194811475,19
142880968,6691931,66267435,1004976,65265321,1041021,1368851,2289435,367095087,520460,144368316,12,106339,548610568,20591,2.63,2.16,110899188,74348000,36169000,132097373,19
176098014,3009303,126251527,3137154,125598494,3118156,70063,532160,321233124,14885,177444193,97,4707,705171409,147,2.29,1.89,97410856,95198000,2004000,118119190,19
162330549,6877872,67998285,1035118,68152638,1055995,1351584,2324003,434732126,571267,163199867,15,117546,626311532,20589,3.06,2.52,127041214,89550000,37228000,146635902,19
140679559,4075517,47159721,197919,45197761,196846,1400796,2227027,364004060,666201,138621525,78,86170,559606373,23383,2.53,2.08,109748263,74636000,34830000,130989152,19
136372461,4284875,66126490,1077178,67842082,1064494,1385895,2463614,484538135,638661,137852777,40,84170,587497629,23387,3.28,2.69,145421039,110143000,35045000,165700546,19
225370994,6683016,105473769,983953,104910055,1002072,1387745,2348308,373117823,475460,234041151,12,93907,692280472,20590,2.71,2.23,113055336,71910000,40949000,132872725,19
301792942,13147765,130130339,315636,131044468,315898,2629040,4318608,622117661,1016286,307007271,80,183017,1055488829,40999,4.57,3.78,186045575,112898000,72934000,206283995,19
143635119,6701301,46953003,228770,46979545,225161,1419852,2444475,423324059,481759,143552382,36,90361,525817677,20592,2.92,2.38,127711540,86584000,40803000,147748869,19
141238539,4333796,67764516,1043667,67788231,1046727,1398008,2370663,425307782,583542,137106491,38,90131,578797098,23389,2.95,2.43,128271095,87993000,39997000,149204648,19
162891940,6828714,66988652,1009142,66791972,1003406,1400254,2416397,423418670,538719,164291169,113,99970,667923993,20592,3.01,2.47,128233949,88011000,40005000,148876307,19
126577049,6637080,51769354,238621,53149571,235658,1475488,3212011,446887293,755781,133638594,437,98989,546327256,20539,3.17,2.6,133819893,88620000,44808000,153599781,19
171949190,7693495,88470717,1117987,90204157,1102051,2708859,4445482,585252886,1366869,171874693,44,213997,789377040,45679,4.14,3.43,175422581,103106000,72074000,197106819,19
236578374,13015749,129352598,1094795,130680791,1112233,2708841,4485573,578603430,1037458,239380984,92,189633,766803448,40998,4.13,3.39,173632582,100198000,73145000,193785700,19
216968432,12870148,87891658,1084802,89448969,1080606,2606353,4475059,539311364,965103,223525338,108,185969,757774407,41197,3.89,3.21,160273546,89427000,70548000,181458801,19
156016719,6704798,62574069,278855,63016770,282168,1819181,3845676,572806429,743553,160043712,82,112656,642396974,24600,3.97,3.25,167562015,112130000,55064000,188978510,19
635510107,14061694,344911427,15256054,343894123,15015533,1905555,4970153,1360144991,778711,630248794,225,148367,2544620770,24775,10.14,8.5,398307751,359899000,38095000,418743698,19
193013899,14287173,77626393,317433,78959296,327065,3233837,5517119,583467958,1117301,192564388,96,255356,699446655,49219,4.21,3.45,173848797,90714000,82739000,194835320,19
192641650,14323429,75035209,347355,75329402,340136,3357155,5374006,646997544,1220186,196672554,210,232555,699246540,49113,4.54,3.71,192691335,99684000,92706000,212891853,19
159351303,4477795,87690869,3131831,86940401,3115319,1383760,2352869,420790048,663334,157075080,38,90780,588668364,23368,2.98,2.49,128625789,86202000,42098000,148542114,19
222202134,12694479,130284522,283392,130081147,278608,2788761,4684101,518065208,925532,216637232,97,227463,806096174,40998,3.76,3.11,150534738,78136000,72125000,170043283,19
145996943,6389283,95346626,4453462,94891226,4565292,1428221,3226438,556212795,698925,151879789,38,101459,543774918,20538,4.05,3.34,165743366,113586000,51811000,186410863,19
198000637,12944367,88657305,1138279,90553716,1125809,2631265,4431386,677553563,1119630,201147001,72,210142,701070849,40996,4.81,3.95,202204034,127910000,73948000,222523194,19
269058755,6581501,107930648,234607,106317464,235855,1361895,2382234,454890076,529504,270171764,217,97871,913446747,20591,3.31,2.74,137516100,97405000,39757000,159742825,19
892456506,102565241,432779916,17751054,430659590,17670456,2565395,45226448,2088128688,21151611,887734502,231,168100,3089504278,24693,15.9,13.38,612185514,571712000,40049000,632283212,19
879280230,45223965,383404006,15282754,383084047,15380060,6672073,19470605,2094487195,3992041,879700084,116,216119,2600505819,41138,15.11,12.52,619079369,540546000,78078000,639425088,19
171759221,9350622,104327391,1168075,104233205,1169069,2730516,4558364,552495659,1067681,175401916,13,144547,715634570,40943,4.07,3.35,164870222,70775000,93703000,185158413,19
271448287,6688038,108016935,234056,107190714,232424,1378510,2420129,453787825,583953,269943495,15,89120,913090482,20589,3.39,2.81,138139611,93879000,43943000,158419036,19
185107490,6714112,67395109,1008357,67113825,1016785,1399543,2455543,424428988,605590,186507174,1,87521,544786827,20589,3.0,2.46,127824319,89357000,38152000,148652542,19
267918654,6835377,107752694,235677,106710467,234103,1380980,2419066,456514829,652792,269706592,57,95613,908179575,20591,3.39,2.81,137390687,99025000,38009000,158311273,19
503286894,67791272,302326308,1378731,300169123,1369171,1689959,23447135,947678676,1408441,499556982,167,336227,2024714342,24805,7.67,6.49,281824326,234551000,46910000,303254450,19
253347373,12557594,129792087,1111558,131013443,1150218,2700448,4687327,530321469,1243241,259722518,13,206171,785889824,41005,4.02,3.33,155535060,78573000,76583000,176480012,19
162958859,6648152,66833034,999186,66782151,1001678,1405461,2462769,429631400,699987,164964435,98,90327,669039829,20592,3.07,2.53,128008317,90754000,36900000,148704058,19
162049845,4887494,87282652,1107058,85848778,1123796,1520362,2452459,455499900,609214,158474827,242,128984,710427564,23387,3.22,2.64,136483494,96160000,40066000,157179910,19
186581872,6769335,46835172,231380,46444795,221232,1359498,2310418,409224573,538212,187131132,138,89616,659221672,20589,2.93,2.41,124400037,88006000,36002000,145855931,19
1205163612,46162042,342394587,15477028,343011451,15432777,2838454,14331033,2193926053,3582652,1206546851,274,182597,3428374936,20871,16.22,13.56,647278535,603893000,43063000,668305069,19
196483433,12830564,128129869,1086405,128584885,1076470,2727945,4586327,580916455,1192192,200957831,41,222578,761511440,40998,4.2,3.45,174200669,101440000,72313000,194426945,19
145378333,6931964,64515578,1043969,64996651,1001463,1400203,2393068,348320554,552957,142183766,62,128959,509480483,20586,2.52,2.07,104834464,66251000,38144000,125068531,19
149957187,5009991,95496498,3281693,95592597,3147576,1389818,2382921,448111969,620382,147722421,108,88729,575792960,20538,3.23,2.68,131737919,77668000,53770000,152451568,19
143077419,6750501,67166692,1001183,66863452,1018128,1447173,2452895,420223845,485200,140789593,112,96240,527104766,20592,2.94,2.41,126661357,88544000,37805000,146718536,19
216680948,12820269,130282872,1097549,131297805,1107529,2737260,4529429,583572893,937350,220230644,251,184070,770677764,40995,4.2,3.46,173624310,100625000,72729000,194068912,19
140414229,4143365,66254917,1085344,64478987,1087292,1397905,2312139,405820613,717418,138600878,72,115530,516769689,23384,2.84,2.34,121662554,76184000,45109000,141645592,19
630254820,23658659,371941978,9291040,373508456,9315073,4590709,10726458,1623200833,2982105,625666476,374,242435,2581930712,49176,11.78,9.8,480881431,391672000,88925000,502017296,19
216095812,7730918,111342881,295579,111474480,292479,2575521,4413488,581955358,1251625,216935553,271,154489,783943913,45686,4.16,3.43,174651343,92583000,81632000,194755989,19
1002484187,57350267,443103105,15683624,442486845,15672374,6736413,21995800,2332681009,4769000,1000832673,183,238360,3306502264,41240,17.13,14.28,683857845,614536000,69060000,704354901,19
440255409,67893627,197132923,1336246,195898978,1345073,1709869,27345092,855762738,1293182,438732167,139,280521,1702342365,23573,6.96,5.9,253587580,219236000,34036000,273775249,19
142028285,6693004,67186796,1003074,66887932,1032829,1367119,2385068,418430061,579596,141615855,3,70488,527640058,20590,2.97,2.43,125988660,85738000,39878000,146351078,19
84630805,8352385,45809478,950581,45774224,948860,61370,448594,258650567,17614,84769639,32,4106,377031816,157,1.82,1.51,76228053,75046000,1000000,96372687,19
265900169,6801338,107461907,233868,107146208,218194,1330774,2384189,469578436,571675,265351013,84,95020,914583943,20591,3.48,2.9,135170957,99621000,35219000,155265745,19
1152891479,41876613,438404313,8941234,439466814,8925375,4194153,13596610,1925152024,3005407,1159878102,369,211976,3350693237,41146,14.22,11.89,568701217,497444000,71063000,588587557,19
160000961,4093191,98283890,4741973,97552183,4838861,1401664,2401011,471339594,767376,156873154,209,83268,600652420,23389,3.37,2.8,138126062,94870000,42941000,158408133,19
84957192,2996500,45193720,953620,45225078,956175,69047,445107,257909724,15487,85190816,65,4552,372107314,142,1.7,1.39,78223163,74775000,2951000,98284905,19
148551155,5058946,95055652,4655730,94371344,4766200,1265436,2223031,498279404,769340,148924452,43,136286,576889264,20541,3.65,3.01,150629765,100244000,50122000,171556735,19
241271827,13082908,150540861,322314,150652877,321204,2680210,4436596,609122914,1323103,242908597,12,181390,939794236,40994,4.55,3.75,182017290,108791000,72860000,203165295,19
175397890,12636892,90115066,1103985,90100439,1149405,2640158,4512320,579792503,1164750,175552169,140,168966,626590102,40995,4.2,3.45,171689588,94644000,76711000,191633169,19
819401303,21815102,340372372,9712383,341158906,9730713,2191997,7506291,1434029848,2273545,827007657,456,149767,2640814810,20663,10.71,8.98,417561110,383298000,33937000,438630454,19
229993699,6712840,107826372,1029478,107885232,1023165,1385236,2447532,432737450,664917,228964753,75,97253,675913843,20588,3.15,2.6,130597224,93264000,37105000,151778936,19
162133412,3957652,108087743,224324,108033251,221571,1417716,2348295,429897776,627009,161321123,33,77427,882322752,23390,3.14,2.62,125831653,89425000,36172000,146310320,19
216751703,12112731,153451949,431503,154006777,424020,2943418,6727060,765381287,1173659,209613708,83,133657,901467787,40942,5.63,4.63,224081682,130509000,93364000,244984077,19
969273944,27479470,419553001,10068916,419671690,9892106,2315978,8649574,1632403716,7645348,967553987,207,115085,3167896683,20698,12.21,10.22,482447573,439038000,43003000,502412572,19
156045217,12762692,68286887,296779,70574436,304981,2677508,4521796,586312180,1189323,156813693,118,260055,608697907,40997,4.22,3.47,172393164,104009000,68006000,193266880,19
711822146,10605496,344486891,3660085,342416569,3595365,1731072,4266820,1016792913,814201,699055699,51,100769,2449419355,24733,7.77,6.51,302804613,254459000,47898000,323801725,19
851844765,110345021,369403575,12056892,369138474,12057274,4603601,43387659,2137594679,20554876,848709737,69,245884,2925235921,49270,16.3,13.68,629794070,545388000,84059000,650457210,19
214169429,11797852,170305479,1225505,171430453,1229062,2777136,6330573,772469695,1231308,210094921,288,203622,1045451214,40942,5.76,4.74,229390265,137016000,92010000,250570545,19
149984775,5077374,95106895,3293843,95430715,3183192,1352096,2326152,446544803,736188,147175891,14,98148,571503363,20536,3.29,2.73,130857743,84427000,46234000,151901637,19
94715687,482811,70223574,161668,64279631,141209,82269,368748,126557456,32599,92377379,1,2643,283600615,520,0.91,0.74,41720034,41445000,0,62031454,20
46042397,320075,36002154,105836,38263981,122403,61328,259694,64663397,26589,43892589,49,2616,150686896,524,0.48,0.4,19152692,16851000,1982000,39658425,20
43930656,414607,32049649,118149,31080468,101579,70605,297133,69246812,25894,45858684,152,8789,148387105,1039,0.47,0.37,24211409,18992000,4998000,44097756,20
93740270,195967,56184653,102710,56024641,101046,70162,400622,128149801,22117,95115484,5,3952,281841567,582,0.94,0.77,41081238,38681000,2035000,62176176,20
76398571,148001,45020098,80195,45631137,75569,54937,289882,106412522,19340,78830818,46,3213,227593245,323,0.73,0.6,34284089,33055000,1001000,54102293,20
1457559,78082,1027841,35699,1027791,35639,16525,92650,6823645,5026,495073,?,?,?,134,0.08,0.06,1985670,1743000,0,21680212,20
44575610,478069,30672372,109229,32277985,105638,105384,336907,70466573,33024,43021688,52,2491,148063762,914,0.48,0.38,23320443,20255000,2893000,43136921,20
43064722,588631,30260704,100738,34837592,108165,80046,367871,76328157,46530,47088138,71,13645,148557309,1943,0.56,0.46,22535888,15160000,7074000,42781528,20
31882119,235907,19250013,71732,18910566,73346,68619,280984,47701026,31908,31006494,4,7386,101193951,1042,0.33,0.27,16945257,14625000,2089000,36599298,20
46388162,396886,37291114,110663,39237101,122424,62363,258443,64667823,22863,44214911,57,2520,148294344,526,0.48,0.4,18963256,16808000,1977000,39563068,20
1264452,70386,1032643,35033,1014791,34973,16188,92824,7270502,10697,29163,?,?,?,128,0.06,0.05,2240976,665000,1330000,22124659,20
43550673,853343,32796307,116531,30327819,105189,119280,420354,76641516,38055,48499839,56,11489,149368146,1944,0.53,0.43,24880994,19671000,4917000,45068221,20
406384,51638,1002015,35621,1007281,35561,16197,95147,7869415,13247,1109186,?,?,?,135,0.07,0.06,2090498,1797000,0,22793608,20
38869927,273852,28522707,87645,32715054,95585,54390,250828,59907196,16161,43194841,36,4176,131660853,524,0.43,0.34,20182181,16000000,4000000,40061353,20
84033948,293746,50056053,95362,48184865,82880,71797,313783,116207539,30518,83397218,167,3904,263856209,520,0.82,0.68,36662786,36360000,0,56877702,20
92775730,518406,68270467,156762,62985773,139089,84165,390572,128347396,24400,94344804,0,2467,282804666,519,0.9,0.73,41858038,38635000,2971000,62449493,20
52653879,494914,43928199,150013,39295183,130542,64744,287246,78728630,20185,51598049,0,3648,180964395,521,0.55,0.44,26704727,26465000,0,47260100,20
77518676,133077,45229654,83727,45641492,83233,63545,307888,106357764,18649,78839136,34,3441,227254968,324,0.74,0.6,33344871,33067000,0,53195076,20
32324654,103390,18585633,71036,17513506,67343,48204,231090,42489157,20291,30598680,173,1305,105454971,329,0.29,0.23,15127548,12946000,1991000,35875370,20
32175798,83504,18486885,64261,18505157,63746,30761,194126,41675357,9039,32834830,0,907,104640932,132,0.3,0.24,14669099,14406000,0,35510706,20
45807615,574619,35100003,106186,36851913,129347,93022,327038,67878227,44280,43104675,57,2654,153822529,917,0.49,0.41,19946377,16507000,3095000,40802442,20
77406051,118523,45070716,80683,45390302,78334,58527,303248,106245405,21039,78867563,212,3626,228942914,325,0.77,0.63,33464868,30175000,3017000,53749838,20
44415095,906496,34527541,120255,30392632,105600,122961,444688,76440713,43897,49163745,47,9201,153728926,1943,0.54,0.43,25626042,20447000,4868000,46454461,20
988900,70073,1015122,35728,1003706,35666,16216,97314,7382128,8902,628535,?,?,?,136,0.06,0.05,2511403,723000,1447000,22390249,20
28919908,148470,16732900,68985,16689157,67167,50140,207984,43275622,11726,32800372,0,1369,100929826,329,0.32,0.27,12643391,11346000,1031000,32752989,20
93201853,505200,68503562,153993,63775522,134880,81617,375534,126811494,24579,94468306,0,2442,281727909,522,0.91,0.73,42321463,40939000,1023000,63433161,20
42763797,442074,34575114,112954,33675388,115166,48781,238953,59191368,18558,39524965,8,4419,137167348,523,0.43,0.36,17590954,15328000,2043000,37910586,20
38131954,184226,25175337,88888,24593770,90096,65538,259965,52239943,28570,33896622,8,1097,123585933,525,0.39,0.31,17300684,14017000,3003000,37151326,20
82130028,238874,50403246,80939,51878615,88782,59182,307493,118830124,19911,81872140,35,4590,250475398,520,0.86,0.72,35125504,33892000,996000,55132924,20
93300908,641527,69714641,160982,66511679,143107,72701,404008,134221084,22847,96868687,3,7698,286047433,1034,0.97,0.79,43433417,40140000,3010000,63815834,20
486365,73743,1005041,34191,1004343,34131,15472,87040,6476331,10909,?,?,?,?,137,0.05,0.04,1930062,1731000,0,21446573,20
96226571,1087706,70281772,160459,69687540,164401,133754,564008,141343427,51770,96883976,26,9279,288885126,1939,1.01,0.83,45611389,43216000,2010000,66847645,20
35565572,151716,26603771,68973,27472559,62085,41688,218665,63303139,13214,36425350,57,3440,140133163,318,0.46,0.37,21274105,18022000,3003000,40444912,20
92698078,586398,64043694,152810,58571396,138064,70743,341874,126067340,17823,94178133,0,4994,271359188,519,0.88,0.72,40977769,35805000,4972000,61233942,20
80241835,113630,45820740,78869,45037936,81808,55166,289022,105856885,20093,77633587,24,1981,230606859,325,0.79,0.66,31577616,31306000,0,52150871,20
1580511,79689,998853,34658,996158,34599,15859,89752,6270449,9476,33007,?,?,?,136,0.07,0.05,2363610,1064000,1064000,22528405,20
46489620,526225,35265017,106079,37195854,112885,97214,331131,67262496,41189,42431444,54,2623,149199286,915,0.48,0.4,20147021,17748000,2088000,39791474,20
45079600,1095855,33949886,119916,31003388,108739,188023,512821,83188370,48885,52905613,10,16489,153844688,2816,0.58,0.47,27250124,24813000,2067000,47575575,20
44443861,324295,31053032,108155,35215017,113725,63202,245817,65558338,23563,42634874,134,3059,145148314,524,0.46,0.37,21781934,19436000,2045000,42122756,20
93513939,530932,64836235,137270,60833530,116845,63826,359019,132197894,40050,95287356,28,7231,280453336,1034,0.97,0.82,39386158,35170000,3907000,60564400,20
82673941,348201,47605278,101497,46827087,93624,115226,425196,117957277,37771,83764395,62,7861,244250314,1425,0.87,0.71,38027150,32741000,4960000,58678021,20
93972212,665133,69707303,171469,66668198,154185,91408,428471,134515223,26158,97616670,3,7135,286470071,1036,0.98,0.8,43312289,40879000,1994000,63632855,20
92712609,521438,68385760,149731,62864920,132000,80417,383036,130541454,24995,94829158,1,2527,283265236,519,0.95,0.77,42071487,39904000,1946000,62174962,20
70199052,7390304,65330186,388642,65057984,392048,262251,721092,190949077,101025,68433820,16,15565,257734931,2674,1.32,1.08,60066772,47859000,11964000,79586834,20
92218241,541132,64505894,137956,60519894,116281,66918,372936,134363802,35836,95147729,31,8201,276212319,1036,0.98,0.82,39643767,35330000,4037000,60076210,20
37255178,258779,24764977,70021,24711112,75422,62799,291397,55224480,26259,37457493,35,1134,126978467,526,0.39,0.31,17731214,14513000,2902000,38130474,20
93163823,519317,63361848,136686,59440074,114535,63751,364100,131746331,41788,95614639,51,9331,280066867,1036,0.97,0.81,39062406,36750000,1986000,59696181,20
92800224,619784,59352814,122541,58419917,104527,79064,418953,127923478,40748,95958025,0,6053,304047292,778,0.91,0.74,41086249,38918000,1995000,60798890,20
71261807,8532080,46687300,315062,47594152,328657,344313,958440,250753103,951440,72051591,75,34747,233236998,4138,1.68,1.37,76953854,70604000,6051000,96449727,20
42525043,397911,31402383,106213,33711723,102447,58350,288407,71254378,22810,45011848,38,8503,144027112,1041,0.49,0.39,23701091,20317000,3047000,43811892,20
82865940,422606,52039373,101771,49316586,88114,53492,352697,117369061,24245,84151299,66,7671,261683030,780,0.83,0.68,37822597,34522000,2959000,57688708,20
35442514,326015,24268528,83666,25688329,86726,75430,304223,54696606,25970,33574435,32,5263,114909330,914,0.39,0.32,18688304,14599000,3893000,39240443,20
92131693,401646,55730711,130034,52394452,88252,73605,320910,125038845,21636,95106887,21,3189,272964469,519,0.91,0.76,38008988,34738000,2977000,57538790,20
1551312,77462,974651,34483,972368,34423,15210,92750,6268278,9431,33430,?,?,?,130,0.04,0.03,2310278,1004000,1004000,22652481,20
44508281,934238,34869095,124403,30384568,107581,125935,459617,78009870,39728,48788727,63,9206,149570030,1945,0.55,0.44,25773147,20393000,5098000,46396086,20
43212667,883157,33406339,116347,30511758,104475,124482,430408,76946126,42291,48761300,57,9902,148703010,1944,0.54,0.44,25479543,21086000,4016000,45990999,20
93055877,285375,53502535,91233,56073879,95717,70420,314308,123936029,26387,93286168,43,3142,270453460,521,0.94,0.79,36243963,34996000,1029000,56387741,20
78907039,133060,45523161,92106,44756006,94687,65479,316827,108359926,21842,79133437,77,3302,229990338,322,0.73,0.57,39738842,38505000,1013000,62127843,20
32572292,122049,19353528,67081,19095472,67008,43287,218592,43064280,15001,32296462,0,1697,106163171,327,0.32,0.25,15357052,12893000,2148000,35679107,20
45425203,1148209,35250681,122595,31380038,111745,193528,574408,84882903,52536,54296590,1,12121,160193641,2815,0.56,0.45,28423741,23033000,5007000,48487678,20
37200463,195193,22959534,73937,23227922,82642,92678,313724,59802992,43891,32603216,32,2322,128266995,914,0.41,0.33,19869778,16578000,2925000,41211793,20
473106,67126,1068755,36585,1010834,36520,16658,96928,6824699,10003,1172764,?,?,?,137,0.06,0.05,2374496,2163000,0,22798214,20
632698,68950,1001115,35173,1000417,35111,16116,93388,7832839,11920,?,?,?,?,128,0.07,0.06,2005756,601000,1202000,22807865,20
94753925,989167,69044410,156290,62174067,135574,117653,440089,131396467,49963,93573635,35,2745,288117146,911,0.97,0.8,41559306,38183000,3014000,62091658,20
49176513,340078,35156019,101946,34859976,82528,57951,242214,80162832,14278,52556831,52,3863,179124352,523,0.57,0.47,23312692,19096000,4020000,43733139,20
411366,53379,986409,35786,1002766,35725,16147,96075,7126753,12225,1369918,?,?,?,128,0.06,0.05,2478214,1084000,1084000,23334131,20
94444637,305418,55924597,117994,53211443,86303,70606,314802,123662500,30589,93813819,22,3050,276331959,520,0.94,0.78,36898240,34578000,2034000,57332553,20
83230042,145505,47970575,91878,46889709,85038,75731,319571,110915765,35107,80718932,18,3240,241417239,517,0.79,0.65,36034246,32636000,2966000,56122472,20
98812459,754322,74550137,163959,69671868,153153,117127,436997,147639215,49200,99171649,1,2588,367193957,910,1.08,0.9,43429743,40113000,3008000,63992753,20
92251658,637578,68856958,154494,64200304,138413,65353,403723,132781210,28567,97724590,36,7849,286239314,1035,0.97,0.8,41892797,38560000,2966000,62372898,20
38367455,215156,26528153,89081,26029660,74290,83956,311046,69356199,34804,39641955,60,5250,155368762,977,0.46,0.37,23447531,21085000,2008000,43552470,20
30378203,278427,19046467,74234,18837545,73767,77548,314994,52572245,29753,32540645,0,5908,108027888,1042,0.38,0.32,14428296,10985000,2995000,34918078,20
92537905,625429,69512320,162269,65424411,142455,67559,405310,132362336,28197,97453869,5,6917,286965681,1035,0.96,0.79,42456671,38123000,4012000,62975500,20
84749093,756753,51479261,119205,51711084,114708,105939,493828,127635566,42737,90224630,5,10267,270117216,1899,0.91,0.75,40218615,33893000,5981000,60761665,20
74877459,2522294,48401785,180474,46811683,176097,1816545,2642417,255069962,724124,73308151,72,107844,290199015,31044,1.83,1.51,77846843,25793000,51586000,98384151,20
41687085,390559,27479305,91705,28817738,85669,48012,291681,69228046,26271,43809046,46,8313,153840256,1041,0.48,0.39,22745991,20428000,1945000,43125411,20
43039757,401038,30560405,104332,32368015,98629,62853,291408,71281518,27050,46262934,45,8742,148039627,1041,0.49,0.4,23473408,22216000,1009000,44571202,20
527861,65742,1121401,39872,1092796,39811,20010,108454,8844005,10412,519593,?,?,?,129,0.07,0.06,2369673,1974000,0,22799537,20
94740965,457267,70115514,157992,68847120,159346,79028,380130,141906884,27402,91682845,0,2454,280643315,520,1.01,0.83,45089789,42834000,1992000,64873895,20
126321793,2493705,89698702,1193250,87603732,1148279,250301,2219580,251185882,144678,134563334,31744,51556,414460349,1668,1.47,1.29,42982841,37903000,2992000,60851265,20
35887011,1984609,21599079,124114,21417815,124676,727781,1540608,126927356,339404,32928321,18,51745,125805502,12063,0.89,0.72,40428286,24491000,15674000,60728597,21
1191263,135354,2655768,48748,7144687,38123,17169,99965,13681388,6792,14355947,71,2574,28418041,135,0.1,0.08,4756923,3374000,1124000,24687857,21
335276632,339185,415527844,700277,416689175,708841,118955,943391,687561766,27198,336416012,323,10162,2268325920,138,4.59,3.78,204282379,203114000,1000000,224298715,21
503498064,319553,664442528,771238,662851577,773518,141295,1121308,815904635,33807,503933901,353,10599,3362677733,139,5.51,4.55,241470364,240231000,1000000,261737424,21
71673103,3847554,78655895,229145,68189517,211432,549476,1912631,145310880,186755,61064015,56,32032,227418654,6141,1.03,0.83,45900681,31036000,14548000,67236356,21
9570722,176287,3995861,60863,7386505,42625,18320,110662,18793869,6128,13704302,33,2304,47322236,136,0.15,0.12,6193788,5920000,0,25854210,21
13781948,158150,3215848,65809,8171967,44795,19549,112460,19724812,6683,16496670,31,1968,50328882,135,0.14,0.12,6619616,5253000,1050000,26345362,21
8655912,181131,3474996,62427,9022631,43226,18885,114623,18784015,6583,17203721,32,1989,41121197,138,0.15,0.12,6098516,5733000,0,26486123,21
901901,132969,3475275,45292,7030885,40391,17125,106239,14618890,6213,15523596,36,6959,11512851,138,0.1,0.08,4736041,3719000,743000,25506746,21
63116972,1866185,79857314,200684,85620175,214942,176052,642444,163248161,96345,67801371,57,25999,303330958,3334,1.1,0.89,51586334,46210000,5022000,71559793,21
337461129,222672,497113329,706914,496352452,703437,102188,832360,557832268,27882,339546375,249,7013,1862420746,129,3.87,3.2,167178758,164804000,1997000,187790850,21
21087611,109793,12711978,71782,12907768,64454,29047,188171,64811525,9235,21912645,28,1969,85480918,138,0.44,0.35,21341258,20120000,1006000,41572716,21
17489123,81079,5738620,86196,6970153,64216,24505,128640,23802815,9782,15033942,34,1386,60586919,138,0.16,0.13,8650012,7404000,1057000,28251677,21
70322315,1746954,92404609,249292,92335921,240507,141759,614253,162029561,119252,62799003,58,34342,305256632,3139,1.11,0.92,47739810,42271000,5032000,66724529,21
338143616,275992,499880285,760087,497520562,758710,122855,1011723,710749589,39316,336560026,358,9861,2360824092,137,4.92,4.06,213576469,211206000,1992000,235130605,21
164564082,40769111,105584259,972030,106533040,999775,777587,2350227,919413818,8243413,169625588,56549,54869,509767940,7939,6.07,4.95,275589737,264172000,11007000,295801385,21
842057490,813166,1670239297,2698011,1669037503,2699259,367299,2990302,2441843946,83906,842345431,435,32772,7527589617,136,16.82,13.9,719725347,719294000,0,739390728,21
25184588,838443,12766172,89694,12978344,92517,382592,886898,98701282,204038,26071696,19,20769,83575719,6207,0.71,0.59,28438421,16499000,11646000,49408625,21
6916213,126129,2168945,55882,7508100,40735,17024,104650,14872001,9521,16832738,63,3348,45087532,133,0.12,0.09,5392623,4162000,1040000,25255693,21
17207626,836108,11941438,85557,11112502,78650,325085,781698,65655217,163446,16496085,81,37027,65119431,6093,0.44,0.35,22243408,10978000,10978000,43173064,21
14452816,332087,9632792,73949,9854481,74068,85607,312569,36520250,59854,14897639,0,12844,50263445,2136,0.26,0.21,12156569,5911000,5911000,32683513,21
673591195,304417,500038265,782514,498644473,780232,136619,1141269,805461408,35109,671961672,35,10227,2692913489,138,5.57,4.61,241114297,239844000,999000,262215964,21
18225701,753535,11514176,85841,11244029,78316,333352,781066,64519530,161799,16726434,90,32263,64875904,6093,0.43,0.34,21488489,11073000,10067000,43108492,21
5259739,219355,5356616,53481,7858061,37719,17808,110723,18643897,3128,16353583,38,2328,47560930,137,0.14,0.11,6235065,4017000,2008000,26589082,21
336891335,300443,500304877,730472,500042310,749399,127005,1022186,724768603,30611,336415970,214,10607,2184393099,137,4.83,3.97,215803708,214483000,1002000,235783650,21
13579515,135071,3044433,70613,8201987,47830,18567,114769,19341290,6744,15594679,40,1722,48739960,132,0.16,0.12,7098930,5616000,1123000,28910131,21
337134593,310429,499116855,727597,498695467,719682,116902,905707,656423878,23080,337874821,1,8962,2025815893,137,4.42,3.63,197326778,194981000,1999000,217721204,21
336064102,382431,498136514,785355,498410652,777634,140350,1139016,842372907,28598,337936483,74,11317,2849919251,134,5.68,4.68,251659508,249362000,2002000,271927985,21
337233888,248256,497110401,683224,499232471,674573,100237,763837,556442908,23753,337543250,114,8938,2019816225,138,3.87,3.22,162841189,162729000,0,181861247,21
344919870,321006,502063917,726320,502311974,720911,120011,944872,662281426,23008,347280749,0,8653,2223409584,138,4.52,3.73,196177969,195875000,0,215703156,21
24798405,556875,14935750,83717,15530652,77853,156050,482591,53714138,135781,15537001,118,26639,61147362,4142,0.38,0.32,15717728,7230000,8262000,35394233,21
20651256,108104,9518794,78190,9343519,60956,24898,130170,27681520,4397,22638197,12,1735,75890842,135,0.2,0.16,9565711,7445000,1861000,29105908,21
340602045,333363,500976148,720488,500579078,729093,120260,989629,730463131,30413,340766735,155,10972,2359629534,133,4.93,4.07,216705308,214373000,1994000,237327397,21
14659820,96105,6679055,65322,6329869,65379,28269,186936,46317001,8418,10349557,0,722,41416589,131,0.32,0.25,16575736,15362000,1024000,36732082,21
22035467,632543,10906806,94884,11198095,95071,298964,638945,80385399,132545,22723995,32,24112,71644089,4199,0.58,0.46,27183658,19665000,7245000,48877168,21
336420041,306978,498285762,731974,497632963,713851,114011,941662,639622601,26333,338200741,238,8726,2197731230,138,4.37,3.58,196213108,194080000,1990000,218632472,21
42783964,85998,15364469,81137,15342742,85806,39440,261282,93934595,12773,41846013,10,1337,113475966,138,0.67,0.55,31308345,29141000,2009000,50533705,21
93989465,4352945,110381364,291147,108838261,282916,544164,1964379,229044649,224863,89566251,281,36045,397895056,8094,1.59,1.31,66607915,49190000,17066000,86536915,21
339709624,182095,498799206,669923,496840183,692887,94892,800660,539416631,34680,337986298,74,7612,1523859646,133,3.75,3.1,158365853,156159000,2002000,179240663,21
335955246,251416,499257488,670141,499134691,684390,98613,795948,539737616,24558,336557997,60,7759,1352107861,144,3.62,2.98,160641101,157415000,2988000,180207014,21
3142333,153998,4456131,40755,7224562,38549,17063,103117,13730456,5602,12851253,89,13689,5640251,137,0.11,0.09,4601195,3174000,1058000,24826960,21
12699711,285890,8554153,76988,9072235,70843,204611,518349,67980113,75376,14267186,78,10745,48646220,2197,0.49,0.39,22555685,17236000,5069000,42528374,21
675137664,314006,499420427,744930,499283426,740502,141713,1057327,759536062,27129,678348928,99,9711,2699041479,137,5.34,4.45,222756746,222377000,0,243457630,21
981609,123761,3394444,49242,7562386,44766,30322,127423,16553117,7716,12473724,72,5686,10798393,136,0.12,0.1,4662218,2612000,1741000,24730711,21
18269437,386925,12314001,73080,13881113,74621,84212,288557,43631261,61670,21992531,3,13417,64698444,2140,0.32,0.26,12542560,8143000,4071000,33008448,21
21504270,310409,12969705,72664,12968210,79311,84590,361811,41709047,79538,15528885,120,12723,63743782,2140,0.29,0.23,14518803,9146000,5081000,34463175,21
337683034,364955,664937221,797091,664377945,771610,146841,1228241,931439423,36433,337360078,129,13648,2850428427,142,6.25,5.14,276074737,273804000,2005000,296113336,21
1293329,138843,2690768,51232,5992936,37445,18329,110165,16973992,6416,11022981,49,2718,33488915,136,0.11,0.09,5695868,3561000,1780000,26008380,21
13989593,166056,4074403,66915,7640267,45894,18352,115361,19481396,6046,17491518,40,1815,50239166,136,0.16,0.13,7073641,5845000,974000,26135147,21
713972,71974,1263416,36484,1403965,36422,16650,93346,7465802,10364,2692586,?,?,?,143,0.07,0.06,2573894,2338000,0,22452834,21
11124359,202591,5598843,64334,8527528,44732,18316,116126,20167703,5122,17422933,36,2063,48044231,136,0.15,0.12,6858502,5674000,945000,27173180,21
21881853,627487,11085026,90983,11087551,91182,294207,597216,81309739,140317,22479288,13,14692,70056814,4199,0.58,0.47,26682302,17588000,8794000,47053557,21
12679655,196679,4778718,59078,8072487,42213,18144,116319,20892926,5568,18407623,16,2066,51888403,135,0.14,0.11,6963545,5774000,962000,27307227,21
676804269,50613293,502136828,748748,500533728,742506,131716,1040495,762188889,37050,675652623,17,9548,2541227824,149,5.54,4.63,226902951,225645000,998000,247313457,21
337733395,291022,334912545,724478,334483570,734376,120546,1022005,725518742,35935,337036622,144,10375,2355711811,133,4.92,4.05,216306277,215116000,1000000,236721702,21
63253455,1726992,40360559,114405,36401804,113891,271873,599632,83138520,93957,62082723,0,6856,183920085,2085,0.61,0.49,27154916,20923000,5978000,47302412,21
9539063,97345,5522516,66164,5257392,65621,28421,194608,43517469,5960,6469465,0,654,28528308,130,0.28,0.22,15489799,14266000,1019000,35216782,21
2062789,161544,3978907,52531,7687560,40311,19132,113774,16355927,7856,15720926,89,3536,36855062,154,0.14,0.11,5611800,4280000,1070000,25927274,21
336896583,350317,500371985,722267,500087189,725311,123457,1003574,732207414,31140,336651232,234,10422,2356498536,138,4.96,4.09,217630166,216242000,1001000,238243194,21
337455706,314536,499938327,771334,499378912,769909,158358,1156430,800214291,38157,338056895,192,10157,2524485469,138,5.48,4.52,236339700,234962000,999000,257546466,21
21508323,723968,10865302,89686,11554913,84889,269977,564768,82577718,96278,20975111,81,18761,70308548,4200,0.62,0.52,24254209,14940000,8964000,44429599,21
12789269,325441,6875139,78144,7012103,77458,82835,308384,32842667,72715,12844758,10,13128,42201123,2134,0.22,0.17,11954421,6351000,5293000,31667310,21
336126369,284032,497505182,707963,497638228,693040,110091,899805,658604510,26933,337590040,140,9328,2188681707,137,4.51,3.72,192595558,192423000,0,213025729,21
340075563,257436,500562172,706276,498014081,693855,100364,819192,562116564,24157,340862531,102,7459,1876878835,130,3.87,3.19,169604935,168461000,1002000,189520869,21
19244454,811480,11601166,85467,11259478,78635,337923,782489,65051405,152067,17333362,80,25925,66847948,6099,0.47,0.38,21340923,9023000,12030000,41377377,21
35230362,2086202,28667208,132615,25009362,111412,258932,857393,55741473,93044,20976238,66,9047,107605419,2083,0.43,0.35,18388641,12056000,6028000,38007464,21
346889019,1268462,506087647,894896,507267693,894153,429034,2197585,1266098270,164321,348955967,171,44724,3717520149,4035,8.56,7.05,373244529,361915000,11027000,393376184,21
181068659,9254410,162054500,345470,168402242,323766,1124895,3690951,356753407,288848,191628077,215,46400,729238395,9997,2.63,2.16,107422943,89175000,18035000,127697066,21
22036422,1351001,16025698,116153,17690428,119433,645334,1286923,133581879,239853,19229037,8,38842,82446554,8645,0.98,0.79,41942238,24442000,17313000,62527950,21
961595,123389,2904718,47043,7683838,40302,17792,101487,14984321,7201,11687715,46,4747,28696762,135,0.11,0.09,4776149,4481000,0,24340585,21
2916780,160159,5261396,42177,7367833,39303,16656,100862,14322330,4682,11611550,83,17478,6580006,130,0.11,0.09,4703367,3361000,1120000,24931158,21
337826149,285500,499738088,715033,499771796,716445,123415,961309,729343091,36444,336868339,28,10264,2357394981,141,5.09,4.21,218014900,215736000,1988000,238217159,21
3100088,160800,5225151,47074,7326171,41648,17388,111704,14064752,4023,12302533,63,5670,2055933,134,0.1,0.08,4936798,3527000,1175000,25196535,21
864709,158051,4150611,51209,7774782,39426,16402,97961,16290118,5716,14733908,98,2998,29063356,132,0.12,0.1,4788635,4638000,0,24378624,21
171909317,209486,496744427,695015,495858171,683509,99118,778855,550349567,28783,171882977,13,7683,2025051670,136,3.77,3.09,165191798,163924000,999000,185074998,21
336666295,223440,333073274,663038,332721610,676016,96687,777202,538436061,24549,337263862,14,7758,1858582652,138,3.77,3.12,160306726,158976000,1006000,180328138,21
418485368,2024370,444849889,1544195,451329104,1635818,199365,2320064,823161287,236694,425357966,145013,32796,2318447053,532,4.56,3.91,162349012,159865000,999000,182487142,21
59035650,1797098,71607684,211820,73216002,212621,154485,569096,111857371,109522,55810307,125,26946,189584091,3134,0.82,0.68,33379238,25385000,7810000,54781201,21
17393573,865395,10837278,73390,11209462,74192,340131,792242,67796520,163456,17518900,64,29841,68466294,6093,0.5,0.42,19633462,10136000,9123000,40629981,21
666211,96092,1831498,47235,6786052,39434,17133,102158,13513686,9655,15140500,108,1660,33554275,133,0.11,0.09,4466878,2120000,2120000,24897283,21
32694867,133873,17777651,66450,16423415,66284,63526,249293,44730126,44585,29485281,3,975,104042795,523,0.32,0.26,15767572,15556000,0,35642946,22
79284168,154426,45158870,78669,44593653,84965,75417,319912,109565528,37013,79284079,40,1979,234727181,519,0.8,0.67,31941778,28652000,2964000,52686661,22
30919337,228527,18161521,68047,17406809,68583,62902,284767,48255785,44839,30830900,0,8716,101315811,1040,0.34,0.28,16546547,12134000,4044000,37093837,22
29447874,148802,16594997,66019,16497721,66369,48182,231474,43246669,19661,31274914,0,989,102521344,327,0.29,0.23,15118769,13814000,986000,35778889,22
30889597,172016,16684291,68799,15491572,68768,68029,238944,43851176,38965,31242593,0,977,102435795,525,0.35,0.3,13012954,11717000,1065000,32713844,22
31524026,157609,16680004,69453,14924638,70007,66951,247265,41650566,30376,31161687,0,845,106062960,524,0.33,0.28,12878122,9678000,2903000,32895259,22
27694853,114507,16198191,66241,16044980,66932,31562,202789,40901405,6600,30378479,0,927,100494287,133,0.27,0.21,14107890,12795000,984000,36948884,22
27932084,110206,16071914,65931,15862208,66456,31956,205046,39805725,5849,29621211,0,907,97151490,134,0.28,0.23,13849032,11868000,1825000,34310345,22
77715134,165170,45857200,83209,45850267,79149,71068,328692,107664096,27557,78171836,28,3260,229540363,516,0.76,0.62,34538956,32205000,2012000,55186927,22
31442986,172549,16722626,66187,15971592,66282,64660,248572,44779886,22259,30857599,0,986,103001285,524,0.31,0.25,14983047,12558000,2093000,35126235,22
76205654,127965,45539362,78428,45799709,75180,39178,277548,106618189,11002,77248416,35,3224,224762049,129,0.76,0.62,33784292,30683000,2876000,53893431,22
49711183,960887,36083007,90528,35321750,90360,285929,678724,98683554,215079,50675697,0,17186,182213677,3261,0.72,0.59,30887333,25699000,4942000,50895776,22
80448195,135803,45321304,78533,45669568,81588,62427,307034,107247107,29781,78888416,67,3838,229932734,519,0.8,0.68,32068550,28878000,2887000,52554608,22
79635869,154268,45615445,80787,45155773,86681,73172,328838,112059247,27259,79099063,45,2913,232994647,521,0.82,0.69,32648390,29420000,2942000,52219025,22
79776621,190856,45319896,86012,44976919,81803,73208,316199,110358014,37398,78297169,25,3114,234491720,518,0.8,0.65,35386738,33074000,2004000,55650273,22
30232302,156440,16820896,67399,16580649,67554,47701,231981,42411667,18915,30982971,0,970,102066904,328,0.31,0.25,15312744,14092000,1006000,36905392,22
136696352,3507273,88006559,229377,86090888,232132,2363976,3374531,375214172,954175,132227500,62,180668,472102771,39194,2.67,2.22,113174385,45963000,66947000,133424753,22
29942148,181701,16260583,68945,15558008,69089,66334,238872,44581845,24826,31763019,0,1023,101110433,522,0.32,0.27,13127163,11835000,1075000,33530509,22
78368446,161181,45126181,85241,44708559,79244,66684,324671,109201386,30085,78279214,46,3548,231880951,518,0.78,0.64,34770917,32479000,2029000,54720981,22
79810752,191698,45403086,85582,45203106,80498,68913,303603,109506149,35284,77159058,60,3178,231905123,518,0.76,0.62,35701001,31520000,4067000,55952954,22
27781985,166085,15758464,69600,15713196,72762,59681,244660,45044683,13098,32176798,204,1417,100329713,329,0.32,0.27,12730226,10549000,1918000,32842887,22
30483608,348227,16505018,73510,15841825,73849,103399,378482,47199403,27800,35073553,145,1329,107154004,915,0.35,0.29,14098041,11760000,2138000,35246553,22
28645702,94309,16389611,67486,16167945,67105,31153,200367,40838355,7702,30157224,0,964,99591495,132,0.27,0.21,14341637,12078000,2013000,35161109,22
77460926,7337508,44782651,257664,41029966,238639,273546,741524,214530621,321152,74740626,67,41210,254299675,3258,1.47,1.2,66391333,59051000,7006000,87118382,22
29985069,127605,16607950,66609,16234921,66685,48917,225043,42867078,20041,31191774,0,969,103529983,329,0.31,0.24,14614190,13283000,1021000,35764150,22
78844225,167473,45872605,86005,45258895,80279,71435,324469,107220477,26897,77372129,38,3226,230183835,520,0.77,0.63,34689352,32442000,2027000,55013962,22
78607655,210965,45752789,83774,45509115,78262,69153,316459,109696531,37665,78345714,40,3269,231066653,519,0.78,0.64,34980630,32774000,1986000,55397124,22
77803580,211685,46218965,86788,46185252,79094,68577,348524,113373726,51616,78702681,41,3209,231469101,517,0.79,0.65,35047279,32691000,1981000,56155251,22
28128782,208383,15973848,61465,16005593,62823,64470,237234,44188228,27478,32350674,0,868,102715848,523,0.32,0.26,14656382,12406000,2067000,34788099,22
78500941,148610,46159342,84523,46204303,79539,67012,313450,108639035,26449,78070478,29,3241,230525768,322,0.77,0.63,34311798,30878000,2988000,54778095,22
31975841,155856,17544485,67371,16073333,67428,64050,258476,42992676,31749,29531512,0,977,105322324,524,0.29,0.23,15343374,14073000,1005000,36162266,22
35988418,123166,19431069,64940,16482927,67312,97272,307534,48684562,55644,29350742,2,1004,114592000,913,0.36,0.29,16342454,12070000,4023000,36804215,22
77989156,204333,45822624,82214,45535475,78395,67662,314915,108611728,27700,77693497,65,3384,231918619,518,0.77,0.63,34920618,33657000,1019000,54807758,22
77658727,2359658,58746661,271776,57611179,279161,265706,645155,153036101,375789,73913719,345,18746,263942201,2868,1.08,0.88,48412769,42167000,6023000,68230692,22
77133917,144269,45288016,79003,45654660,74445,54168,292556,106125764,23152,78907533,29,3182,229311070,323,0.78,0.64,34132831,32886000,967000,54757897,22
78371260,155028,45734637,78547,45422258,76147,54635,301418,107185278,22149,78184005,34,3396,231335095,325,0.75,0.61,34954310,33580000,1017000,54986189,22
29553319,189629,16411035,68346,16444148,68765,58317,237756,43295465,26962,30945104,0,3354,98634740,523,0.31,0.25,14293379,13048000,1003000,33661040,22
28882866,193591,15676450,68970,15374353,68099,67595,254562,45006168,32318,32576353,0,845,100142112,522,0.33,0.27,13106402,11829000,985000,32957651,22
77363863,115627,44652484,80897,45113647,77934,38778,268298,106430304,14635,77474163,25,3195,222424473,129,0.76,0.62,34861471,34503000,0,55788928,22
27941237,102918,15901548,64506,15937705,64032,31955,191345,40661092,6191,29631672,0,936,95382296,133,0.29,0.23,13878339,11667000,1944000,34727978,22
27195094,142849,15209911,74124,15234319,74333,42796,188109,41808922,5428,30627714,0,1609,94377691,132,0.29,0.24,12053729,9920000,1803000,31461178,22
29145693,210469,15567453,67493,15569813,69034,69222,254631,44279938,21429,33103244,0,838,98997575,523,0.32,0.27,13073453,10823000,1967000,32197831,22
32530161,176392,17200257,65559,16199149,67215,69633,253743,45404937,40369,31053944,126,971,104238239,525,0.31,0.25,15153793,13769000,1059000,34764797,22
76621709,189337,45235453,82837,45892823,77935,71920,326127,108892854,25523,79367291,28,3201,229193130,519,0.8,0.66,34321525,32090000,2005000,54869175,22
29282252,202181,16030996,68768,15939603,69559,66498,256474,44266210,29714,32373727,0,989,103324338,523,0.34,0.28,14861046,12597000,1938000,34766537,22
76293706,230713,45384088,80028,46001606,77595,60692,304253,108281668,25797,77522226,24,4830,225246712,518,0.75,0.61,35246713,32954000,1997000,56173184,22
30435902,180542,16558438,64453,16561377,64331,53607,229568,42902630,16203,30512118,0,3163,97678891,524,0.31,0.27,14948741,13543000,1041000,34950750,22
28590978,273885,17485081,69934,17211138,73120,78155,311896,51405050,34960,31457500,0,6293,105597972,1041,0.38,0.32,14420955,11873000,1978000,35428348,22
27673892,112799,16156237,63570,16161469,65915,32131,198092,41151851,5700,30134176,0,886,96979278,133,0.29,0.24,13769498,10828000,2707000,34207624,22
29046106,193814,15695604,67356,15436110,69508,69563,257462,44690816,29135,32225154,0,960,98542556,525,0.36,0.3,13062064,10865000,1975000,33053008,22
78450067,211613,45690672,83433,45738004,77781,73367,325844,110441976,25376,77270257,154,4083,228681406,517,0.8,0.66,35281866,33068000,2004000,56010957,22
76811945,184795,45158951,80495,45686767,77722,60370,300840,107937555,24343,77923688,39,5539,224448868,517,0.77,0.63,34608098,33385000,981000,53671765,22
41169874,515675,24304652,80918,24128617,74160,217632,504476,69248879,149319,35450673,101,11962,151724517,2996,0.5,0.41,22500247,13518000,8690000,43368432,22
28269709,95903,15705905,67121,15733754,66503,32510,200937,40410629,7488,29779153,0,904,95300370,133,0.3,0.24,13425221,12159000,1013000,33564778,22
31157815,191136,16635492,69068,16057961,67632,65797,245543,44554184,35735,31806902,0,981,104778486,522,0.33,0.27,15169334,12865000,1979000,35097340,22
31508321,190347,17077113,67367,16434721,68184,65896,254127,43455494,31285,31097146,0,966,104159747,525,0.3,0.24,15413939,12380000,2857000,35716506,22
29680178,200134,16708012,65310,16423600,65982,66865,251257,44968763,28824,32314833,0,1008,104658082,523,0.32,0.25,14993533,10777000,3919000,35422267,22
37925392,163386,21233298,64898,20191786,68321,67349,251940,53806736,27320,35177013,50,1636,116629420,523,0.37,0.3,18388792,16161000,2020000,38897029,22
30857928,183558,16598117,67537,15979682,67263,67218,250534,44267694,34526,31179444,0,957,103110453,525,0.32,0.26,14888790,11637000,2909000,34497930,22
77083811,189401,45621774,84714,45755849,81457,71585,349126,112201641,24593,77997794,42,3417,228321386,518,0.81,0.67,34810923,31579000,2960000,55506406,22
77395156,119507,44680783,85963,45131711,81407,39740,280058,105752967,14819,77640954,38,3158,223630048,127,0.76,0.62,34690605,33426000,1012000,56228866,22
80988303,304335,46388019,97142,45619551,87024,109759,362667,114950421,53676,78096356,135,3937,238842560,909,0.78,0.66,36599584,33360000,3032000,56506879,22
29628097,159181,16791933,66452,16707205,68645,49185,231200,42836827,13829,31795926,0,940,102783715,329,0.31,0.25,14480905,11319000,2829000,35983523,22
82937570,363872,50007365,98512,48302627,93030,167109,465807,121275730,85760,78716387,36,3307,246887323,1300,0.89,0.74,35611044,31232000,3904000,55919588,22
35085526,114196,20142689,59831,19652962,65552,31636,207128,50545207,9093,34548536,8,1285,109503870,133,0.35,0.28,17948093,15669000,1958000,39014885,22
76763977,121757,43712910,82288,44511465,77502,37260,248457,109304216,13814,78459417,29,3083,226968506,128,0.79,0.65,35551611,34241000,1007000,56104256,22
32634359,163255,17503722,66981,16150082,66863,63993,256220,42354002,34884,29422738,1,1040,103725058,526,0.32,0.26,15549741,12167000,3041000,36718657,22
37340935,336724,23150103,84888,23426106,81965,65654,293110,67140380,32973,36909392,41,7925,138923970,1042,0.47,0.37,22350625,17025000,5007000,43373390,22
29627524,180571,16384379,67465,15690418,68775,66091,255616,45237580,21079,31790692,0,957,105825300,525,0.31,0.25,14844328,9614000,4807000,35162097,22
79129063,176587,45492783,75119,44869704,81778,71098,317588,109101161,34136,79990451,28,1906,237266919,518,0.81,0.68,32140497,29793000,1986000,52067088,22
78823994,212710,45083570,92113,45622270,86456,74576,313681,111902311,28026,77929376,41,3447,230404995,517,0.83,0.68,35842247,33563000,1974000,56651856,22
30764227,265998,17875283,68893,17421890,73152,56213,298283,47176544,36204,32625561,41,7737,103442120,1038,0.34,0.27,16476753,13143000,3033000,36848102,22
75622552,219553,45267266,81086,45770798,75779,69016,323924,109752922,36898,78727000,126,4253,227994584,519,0.77,0.62,35316044,33004000,2000000,55573462,22
32296831,177660,17085100,66706,16166575,67590,66730,250795,45657867,24773,31216727,0,979,106035179,522,0.31,0.25,15326043,13011000,2001000,35436556,22
29009736,193234,16056489,70295,15598723,69637,67899,255798,44462556,31841,32106612,0,790,102161678,522,0.33,0.28,12838147,9713000,2913000,31932766,22
77589193,231950,44799344,83049,45638326,78174,69314,301593,109920394,26872,78880878,30,3397,230064640,518,0.79,0.64,35909370,31744000,3847000,56071447,22
80088421,76727,45128176,73740,44748355,76757,36919,261748,104659694,18687,78644880,25,1900,230516568,128,0.78,0.66,31458705,28304000,2928000,52068123,22
28964335,204425,16102907,63993,15931414,64705,65260,246258,45207815,27789,32549037,0,990,104684940,523,0.32,0.26,14361712,11100000,3027000,34455448,22
31676115,124154,17226345,68287,15915695,68699,65401,252709,42617445,40193,29580492,1,927,103533307,525,0.31,0.24,14797972,12390000,2065000,35656196,22
30555746,186525,16792870,64907,16214713,64445,65119,250558,43279449,25660,30775986,0,1008,103317371,525,0.33,0.26,15181780,12171000,2808000,35374531,22
114401513,4060171,84435282,668435,83155852,678420,958705,3490613,289546069,997764,113603975,8470,37605,401207960,7151,2.04,1.67,88429117,77029000,11004000,108963659,23
316000580,3156244,198853301,1070304,196207670,1145519,596130,3664836,517620543,872350,309699236,117,16731,940765081,1865,3.69,3.06,155646298,148268000,7012000,175972687,23
318479563,3504852,198773083,1106311,195886187,1091106,783175,3613378,535973261,951741,309955683,365,17914,943802060,3044,3.85,3.22,157419060,148979000,7998000,178594349,23
314573033,3284337,197701390,1163303,195870886,1161405,564727,3516918,521266362,934960,307753166,66259,71135,932843291,1869,3.69,3.06,156571342,148361000,8019000,176556311,23
107102848,3639548,74494300,729611,72747516,739241,759916,3052107,277308267,859488,112900954,45,17421,378029479,2471,1.91,1.56,85157784,79883000,4992000,105635724,23
317174924,3274228,197832826,1116488,195665750,1113584,587184,3603001,518557329,906206,308554329,34,15063,938094669,1863,3.71,3.08,155756800,150386000,5012000,175823783,23
319022014,3068629,198290053,1129120,195905896,1124101,604010,3284079,531013113,895951,309057770,402,19213,952348201,1955,3.76,3.12,159398885,147983000,10998000,179881730,23
79895436,921788,53479240,371419,53192400,345950,87831,835873,130626937,24331,87537277,143,4165,266621155,379,0.93,0.76,41347864,39023000,2001000,62175515,23
108608009,3421465,73183647,731552,71587760,766051,513904,2738301,249383174,801621,109272568,68,15147,381290239,2025,1.71,1.38,80391651,76047000,4002000,101205517,23
108568884,3454002,78371814,895716,76979001,812500,640942,2877156,267296711,913969,103640370,85450,140322,365958440,2602,1.85,1.53,77442491,71180000,6015000,97747132,23
110933173,3605585,76011516,760218,74175116,746822,837906,3181181,293691029,975471,111449463,186,37743,388998645,2564,2.01,1.64,89757967,79317000,10040000,109482082,23
127973294,3514540,85204842,786999,83135623,747045,778378,3102692,303707674,1006932,120765879,182,36678,422106787,2444,2.12,1.74,91817020,85415000,6029000,111978228,23
117265790,8499489,81211582,1661648,81117661,1669183,919945,6546358,339622098,1787799,122037845,54,18622,395969165,2657,2.37,1.96,98137746,92806000,5043000,118475014,23
104924364,3664005,72426190,924704,73721132,939701,731406,2983569,286711781,895004,110302051,241,107845,371027649,2472,2.02,1.67,83576004,76308000,6937000,103640328,23
109768994,3546893,75110325,737895,73766244,743423,838014,3209805,287313294,928724,112922363,31,43800,385014123,2496,1.98,1.62,87557240,76321000,10903000,107789995,23
102731600,4032034,72007966,862965,74776768,774251,730103,3113122,270066874,956865,109062311,161,19903,356980811,2373,1.91,1.58,79387137,73109000,6008000,99828237,23
114602285,3795687,78857404,778310,75827883,698934,943226,3631412,289998968,1164815,107263749,312,35286,390893466,3121,1.99,1.62,91060154,77805000,12967000,111444205,23
105256377,3415580,75287490,839802,76456875,811195,524428,2649734,265734848,950684,107731541,6788,31468,367431293,2107,1.82,1.49,81685370,74348000,7032000,101977622,23
312643401,3407222,194316094,1165434,192560153,1249834,615858,3475608,525936924,895033,317459418,199,33205,940222767,1889,3.86,3.22,153375432,146078000,7003000,174400652,23
108991949,3354124,76422694,674917,75714618,672316,552990,3058476,251351581,943218,104449389,11212,21951,368906303,1985,1.79,1.48,75380144,67043000,8005000,95280684,23
315209449,3656476,196836860,1104059,196322372,1113879,628904,3676040,524389745,883910,309459423,7318,20767,940992871,2049,3.77,3.13,156660769,148336000,7964000,177052552,23
109585148,3314037,76385260,691552,75473720,629261,546690,3100356,238056196,874228,104789179,10222,13400,369476539,2082,1.69,1.4,70183346,63736000,6070000,91766786,23
107434742,3161311,76374319,729124,75496837,752113,540564,2794212,250110705,763612,103665022,15665,45155,370887662,1960,1.78,1.48,73677242,68370000,4954000,94561729,23
117530108,4162236,79940975,918942,81728887,863648,566718,2954408,284560653,849245,127278771,2580,52684,407042612,2209,2.04,1.69,83208273,77014000,5924000,104031221,23
286642355,878695,177378190,836265,180409197,835634,107977,1044680,409014255,33169,286932618,63,10089,828717811,284,2.96,2.47,122828630,120580000,1993000,142547103,23
151409627,14241966,105761895,5238641,105343389,5051237,1223598,9363702,636809798,4041230,151419925,120,38581,502906789,3600,4.31,3.53,190609507,181263000,9013000,211372732,23
107534135,3750220,72691667,936235,70798619,1007055,745055,3156754,272266766,919612,111188298,33179,117651,369679119,2407,1.9,1.56,83175249,73896000,8987000,103797970,23
106930686,3898465,72948297,766226,71401245,829705,721950,3133579,266130067,912720,109456574,8217,19531,371776551,2384,1.87,1.53,81655278,75318000,6025000,102629713,23
312598386,3567131,197496744,1114917,195749842,1115778,595298,3445260,520343537,883664,305580785,76,16381,926903485,2038,3.72,3.09,157737749,152351000,5011000,178097685,23
103439468,3697065,73883591,769914,75123693,690269,494580,2848857,251427490,882989,107203190,298,14653,354296009,1888,1.76,1.45,76999287,67776000,8970000,97675707,23
315047765,3283873,200548876,1173747,198188872,1136148,674477,3383106,541320470,955221,306663378,13524,17313,944964999,2556,3.86,3.2,162329087,154128000,7955000,182723647,23
117059275,4047570,84918474,683255,84094266,661790,1025249,3917957,299749759,1068238,112570259,246,55214,409977617,7125,2.11,1.73,91957075,77628000,13933000,112389020,23
319584397,3403149,197501707,1151424,195333938,1103124,651269,3805252,530030094,945622,312532881,2910,20455,954049017,2056,3.82,3.18,157989519,151717000,5988000,177224886,23
149423725,13080289,109232169,6024698,108555878,6135449,1042864,8549586,588865689,2919225,151370585,136,55126,494684698,3119,4.06,3.34,171888857,161528000,9970000,192530554,23
315471226,3227259,200033349,1185455,197155081,1174503,650399,3353101,540043711,932846,307912844,286,17814,944363113,1955,3.88,3.23,161325905,152548000,7976000,181688765,23
322468900,3695073,199921860,1219527,194805033,1301683,727539,4540163,539210151,999524,316926177,29780,37243,966120683,2047,3.91,3.26,158777597,151418000,7019000,180273849,23
104578570,3746962,73451389,798244,75103102,723126,605709,3016557,252220112,842702,108608221,91,17842,362032629,2258,1.78,1.46,78085336,73808000,3989000,98764059,23
316500214,4069631,195192484,1169650,191754254,1199418,897242,3944037,563157666,947622,320646518,71,20693,943705056,2541,4.05,3.36,169484047,163292000,6010000,189958401,23
311873962,3512311,194546439,1154635,194269937,1162066,669885,3281627,527123778,776925,318236985,6705,16992,943640310,2034,3.83,3.2,155188078,151918000,2998000,174193364,23
309725954,3447225,193058509,1264160,194329690,1215500,550459,3257803,540351905,810962,311589057,27391,17897,933350800,1952,3.89,3.24,162592524,155303000,7013000,183138127,23
110685241,3591427,75876568,732223,75065555,736908,831056,3177252,292756152,921127,112194484,613,49338,389487462,2538,2.05,1.68,89227529,78949000,9993000,109451808,23
320402322,3388970,197877000,1141758,195119126,1091417,651432,3766343,523800136,929010,311045444,56,16282,951106368,2047,3.83,3.18,157376134,149101000,8005000,177047026,23
312157482,4443458,198242666,1205199,198366272,1194700,800009,3778167,565398283,1142359,309073667,111,26107,926966666,2659,4.09,3.42,165639530,156320000,9018000,186832705,23
103559974,3645713,75781493,853974,76637884,791447,544136,2963161,249476579,797754,105411469,88141,14803,355542922,1994,1.75,1.44,76213687,67784000,8093000,96556217,23
107666017,3686775,74866990,736859,73266336,742922,787998,3054933,279816846,848994,112277481,17,25026,380293382,2537,1.95,1.6,85819029,82506000,2982000,107215061,23
108902384,3256648,76262951,654104,75105077,663478,548804,2806357,245698673,766085,103096490,177,12298,372321263,1960,1.78,1.48,72431718,64153000,8019000,93406590,23
102865362,3797028,75014205,724284,75706085,681949,580466,3045861,245897239,845869,104555773,49,14646,353224109,2065,1.75,1.44,75735270,68461000,7047000,96519074,23
104324289,3475822,75717296,666798,76225157,642914,494254,2880716,236896187,792138,100568695,14,11356,350374990,1876,1.68,1.38,72494200,70177000,2005000,92736501,23
107128727,3369802,73950438,780067,73283535,732180,506811,2824991,259482570,782713,109848405,160,111218,376989918,2027,1.85,1.53,78880472,75566000,3022000,99069559,23
317572250,3915050,195880402,1454422,191956471,1465000,945009,4149234,570380838,955491,321139173,189704,173239,952337371,2561,4.11,3.42,170871295,162502000,8024000,191041232,23
103809936,3729729,74614376,783659,76253468,709500,536951,3033979,241805829,834026,103376146,25782,41878,343608991,2058,1.73,1.42,74780817,68534000,6047000,95194910,23
113654670,3580152,77893799,792018,78556864,770056,764387,3068302,287086307,910631,116256694,18,16663,399280205,2404,2.0,1.64,87441837,81109000,6008000,109132913,23
105975718,3178545,76357885,729553,76209914,670594,552246,2826705,246622742,841316,104338442,60,13654,364121630,2024,1.79,1.47,75550835,67248000,8029000,95775212,23
104399575,3742367,73368282,793542,76179362,743798,625269,3078055,251715323,839868,108907881,152,19651,357102284,2142,1.76,1.44,78238303,75000000,3000000,98355217,23
111542785,3880498,75989530,740201,73476508,749858,952136,3735488,293127134,1024505,113400510,154,19241,381126071,2861,2.13,1.76,86333627,76017000,10002000,106113320,23
317472749,3631727,196205529,1119082,193852518,1165862,691120,3682818,528404848,818647,320214383,147,38260,948724155,2132,3.89,3.25,156120113,146789000,9048000,177260465,23
137840911,10324711,99444769,2137719,100564904,2119086,1089915,5792607,462406903,1358396,142104801,1966,24715,481336625,3515,3.23,2.65,140009827,128821000,10984000,160978401,23
109962439,3143053,76858276,691192,74931861,693392,573297,2823167,249984383,814673,104085148,117,12590,369615480,2027,1.82,1.51,73901647,66579000,6956000,94318375,23
111077386,3610297,75894334,749623,74575149,745479,841906,3211086,290341530,929112,112164439,185,22416,389179008,2605,2.02,1.65,88367662,74058000,14011000,108846045,23
323913435,3041133,200325990,1148654,196952386,1111125,656425,3422303,538511872,921530,308732833,1174,24296,959308765,2556,3.98,3.32,159355765,148981000,9998000,180148804,23
318685168,4223918,202709428,1226366,200830813,1252278,952557,3825366,569870871,928707,331009043,130,54621,984880407,7058,4.17,3.46,169943500,151502000,18059000,190769550,23
102165727,3749624,73648616,762444,75338379,711074,533038,2964710,244866421,812666,105832754,19634,14177,353286790,1987,1.76,1.45,75355104,67948000,6994000,95600224,23
323267958,3055779,201083942,1160830,197411859,1151790,684998,3417091,539612629,935095,307598520,11120,19207,956289020,2555,4.02,3.35,159577805,149154000,10010000,180056333,23
106665766,3537782,73834400,753430,71826515,776920,750391,2969177,277003213,876098,111787864,22618,26096,376270567,2376,1.93,1.58,84194732,78771000,4985000,104970003,23
107119164,3284008,77167025,588625,76957434,607345,467881,2820454,224632332,816973,103517573,45,10999,359709032,1806,1.65,1.36,69938014,63452000,6043000,89784690,23
309590751,4114638,194710588,1373651,195101416,1305002,576044,3416312,544891818,930287,310336530,57161,134919,926526549,2061,3.93,3.27,163384541,159113000,4002000,184090623,23
104920707,3282180,73778064,749443,75932452,705399,567081,2833462,249283867,792028,106979359,103,22472,362115560,2094,1.77,1.45,77361828,69999000,6999000,98755543,23
284306303,1043949,175775939,752375,178364189,741154,136860,1253624,405444746,135446,284230227,97,12216,827451484,338,2.95,2.46,121702292,118329000,2983000,142120457,23
110849158,3212172,76469595,669851,75277681,639349,552068,3223705,246795850,971807,104990265,12,30696,370184491,2039,1.84,1.54,73197649,67920000,5068000,93574623,23
313757341,3564867,196644238,1103539,194668621,1134624,636527,3634038,519023453,864408,313045464,8302,25214,944477682,2049,3.77,3.14,154649735,148317000,5972000,175007398,23
104293329,3747175,74700537,742007,76780769,657758,521881,2988927,252389597,933494,106053276,1045,14866,352804502,2093,1.78,1.46,77849052,70497000,6950000,98658525,23
105290010,3608847,75261512,709097,75881173,637567,514579,2863114,236922690,803989,102667253,43,12247,346427124,1936,1.74,1.43,73278667,65074000,7887000,94284635,23
107504641,3402580,75956754,751070,76697404,700591,481909,2727022,257490891,896921,108382092,2674,17623,372697514,1958,1.82,1.5,79076381,67801000,10967000,99440467,23
107840630,4169120,74785616,1000580,72895517,969891,784094,3466557,275166367,948632,109919973,93,17397,377398255,2508,1.99,1.65,81356487,78088000,2965000,102014201,23
299494087,1587412,178896072,1073216,174793381,1116123,121856,1470970,430179423,66356,295215637,29461,10174,868255117,477,3.17,2.65,131227339,128869000,1997000,151937968,23
309476818,3669028,196055008,1252014,197182071,1161460,539935,3312619,523370335,893533,308292850,62015,80709,919825319,1848,3.78,3.13,160949092,145804000,14877000,181319934,23
318304309,3500809,200735483,1108798,196931203,1118522,699337,3625627,538363850,1021737,304976860,233,17612,943879434,2605,3.92,3.26,160030766,148781000,10983000,181041586,23
315165982,3151171,198693112,1093817,195890822,1154507,596684,3252002,521798359,731310,307615737,48,14848,942544563,1776,3.82,3.18,154005087,147576000,6023000,174801329,23
111665438,3925653,77399246,895056,74910579,868360,974357,3548399,289726398,1071266,109407629,46,199532,383047046,3317,2.07,1.7,87615458,79319000,8032000,107427774,23
91744690,1032102,55135566,385804,53083183,386063,99456,968957,142859187,42531,94391720,11460,3866,294586261,583,1.05,0.86,46011303,42752000,3053000,66620121,23
315792591,2692597,198352313,1224777,195111768,1356513,540441,3079799,503127001,696551,305759152,71117,146257,942236882,1856,3.57,2.96,150555907,142416000,7967000,171258156,24
107310575,2879048,76972692,752171,78187386,675370,526951,2581056,231472211,562835,106169180,38761,11207,364655319,2058,1.63,1.34,72317673,65052000,7005000,92586335,24
120120789,3699886,89125752,606968,88219095,586015,1121920,3475728,298075419,767218,115283080,125,48805,431068508,9017,2.12,1.74,90230001,69721000,20209000,110101856,24
108959047,3250406,75311022,923051,75910855,886536,740541,2919122,259543439,758887,113483811,28576,17399,379716906,2487,1.83,1.5,79540070,71231000,8026000,100343304,24
105535921,2820109,76771825,589588,77695623,538839,494949,2504669,229264005,525585,103772766,52,12008,369194934,1867,1.63,1.34,70940930,62446000,8057000,91097878,24
110366156,2913470,77761589,699688,77765631,586831,508959,2628132,237693459,573995,110278161,202,18406,378830153,2819,1.7,1.4,72536379,63186000,9026000,93240494,24
317103732,2815069,196297559,1314473,192836921,1386343,567827,3160714,503041620,676226,312042884,232,15339,951831370,2002,3.73,3.11,148421108,134051000,14005000,169284741,24
107934631,2773909,78048958,501320,77701245,584431,478826,2475657,224916344,581753,105821916,251,11638,364905845,1887,1.59,1.31,68562216,60273000,8036000,89254279,24
317014299,2647285,197560444,1307503,194604724,1415989,553166,3135764,498725571,670798,306113143,180845,16984,945419315,1882,3.58,2.98,149583198,147254000,2003000,170502592,24
113526040,3297186,79140182,831503,76214211,886299,893118,3056908,268133319,761464,110405622,5784,22193,393090684,2879,1.86,1.53,82113668,77753000,4039000,101953682,24
107599449,2869390,78083222,560841,78354032,513395,492597,2527228,227944256,560760,105995092,174,11342,367111705,1959,1.61,1.32,70061814,63771000,5978000,90744598,24
104602523,2861878,75612178,866220,77565621,752513,489961,2509412,233068475,555572,105629417,103027,15072,361420480,1959,1.65,1.36,71009057,62782000,7972000,91189326,24
109788967,2777380,78275945,742538,77902971,738683,512275,2488947,238353146,528740,106854392,86015,80426,376451468,1962,1.75,1.46,70527460,65212000,5016000,90939227,24
155410363,10546707,115021686,5791975,115652561,5798265,2062526,8361205,713872160,3507849,158050440,39302,49866,524238587,3398,4.78,3.91,212021161,202688000,8986000,232213627,24
315770132,2687685,195078229,1312608,192662660,1285105,602472,3138939,501294596,644117,313791833,24810,45629,948793148,1858,3.61,3.02,147236045,140862000,6036000,167913582,24
202242669,11803117,166848784,770862,165660918,885820,4856355,11165820,743732979,1687576,198903509,549,196066,829149357,60165,5.32,4.37,221605728,126614000,94711000,241245979,24
117293855,3905959,80766785,872977,76664017,934823,823647,3711620,287873646,840396,115248715,298,24309,412154137,2523,2.02,1.66,87953719,81609000,6045000,108448117,24
315733773,3512526,196255849,1685314,196297272,1577097,880534,3375756,550225248,844805,316144636,209,19628,948717241,2866,4.09,3.42,162919142,157634000,5020000,182750421,24
111554779,3287094,77759623,876186,76332239,849361,808078,3019000,260816153,798229,112439778,63,17280,388457241,2682,1.83,1.5,79811184,72559000,6957000,100197811,24
106410031,2860305,76965969,605538,77572611,493872,507680,2521008,229672389,554832,105144609,94,11880,368992399,2057,1.62,1.33,70955183,62576000,8074000,91284800,24
311491198,2741874,193168777,1231629,192243473,1203823,563101,3042741,503525508,621073,319044553,2274,27023,943005666,1953,3.65,3.05,147617261,143316000,4008000,168458084,24
105174042,2943694,75405258,846905,77380766,714135,489756,2534168,236584829,544528,107244270,185139,11523,367519908,1959,1.64,1.34,72051139,66112000,5008000,93679151,24
112789989,3299241,78346648,1101596,76366723,1222614,737271,3009711,267054760,766077,110909753,62287,27908,387808105,2683,1.89,1.55,82141828,73749000,8082000,102813140,24
129362349,4812395,93027665,1480618,93575329,1450137,1318919,3759148,368400406,1203570,129683529,3878,28127,444617704,3721,2.55,2.08,111636499,98380000,12918000,132016728,24
110797171,3331209,77415199,873938,76312819,863222,848614,3021673,261746854,784356,111505587,53,18434,387379256,2685,1.86,1.52,80973332,67891000,12791000,102219318,24
106825446,2907452,77281455,559317,78116393,545997,512208,2540736,226333622,627131,104651106,459,20216,362089835,2347,1.6,1.32,70510725,65164000,5012000,91140567,24
306813797,3029942,196773677,969354,198247731,995614,545394,2941296,506119953,636126,307172422,1187,20467,918859580,2069,3.56,2.94,153517628,143096000,9937000,175503186,24
380852624,7897337,249598391,1230667,253894344,1223682,2735611,6648211,986732177,1602841,388108554,30412,55153,1227010955,8569,7.0,5.76,292119468,271770000,19983000,313327391,24
324972001,3230848,209471892,1350289,207536065,1321915,721567,3267893,544062046,774721,315635745,1118,26741,977817700,3321,3.96,3.28,163594019,152177000,11012000,184314591,24
314338635,2773496,195307407,1239282,193972455,1288634,596551,3131994,507900635,665554,311559734,146,45950,947762492,1957,3.67,3.07,149626209,141359000,8020000,169854717,24
114721378,2808180,82111382,690467,81038075,666399,567127,2772360,251659721,649954,112626423,80,18237,403309512,2429,1.77,1.46,76254051,69924000,5993000,96624484,24
111223858,3295974,77706887,799908,75856141,860384,802069,2939971,273900380,687703,114522170,46261,18259,388766255,2688,1.94,1.59,84334895,78056000,6004000,104466839,24
109856882,2744788,78174075,572175,76196699,659394,486501,2479267,233138575,553704,106138788,36,11253,375343523,1868,1.66,1.38,68623985,61404000,6932000,89483700,24
112907833,2856255,77689431,825038,77813639,829927,527933,2573822,242443102,536125,112339218,333,11124,383931002,1958,1.74,1.45,71290947,65972000,4997000,91341847,24
317274513,2723570,198442292,1138976,194940918,1260553,561312,3126446,497734724,739562,303921568,139,17604,939127115,2151,3.63,3.02,149987769,144696000,5024000,170254158,24
315765213,3493047,197465925,1338065,195338215,1316801,862927,3457375,540644075,803620,314133744,84,23072,948829032,2672,3.97,3.29,163169682,149821000,12984000,184089553,24
109958552,2846807,77968369,714527,77394568,729554,503569,2527160,239905843,516449,106094180,24,10897,377870333,1963,1.71,1.42,70364747,62071000,8009000,91192891,24
107914978,2825864,75171253,749460,76175684,659151,462763,2565545,236132209,554714,109830263,41930,40494,372301182,1959,1.68,1.38,73395918,63060000,10009000,94529473,24
310183006,3191430,191136778,1297087,192065072,1247479,682565,3105740,526440768,585750,316281174,33,25862,947097946,2672,3.81,3.17,158244285,150065000,7950000,178085048,24
107629924,2809440,77297085,576729,77705813,574309,478235,2484847,231343111,567451,106160455,7044,11220,363486037,1862,1.72,1.43,68812848,63368000,5029000,89516987,24
111353028,3476296,78257216,865938,77455723,728056,781251,2860497,264183259,754153,112228773,57235,15676,390722129,2991,1.87,1.55,77470393,68090000,9011000,98763600,24
316941016,2706580,197844389,1103914,194159165,1235735,553464,3021631,501082505,692415,306478627,238,17373,940782334,1858,3.66,3.05,149990047,144090000,5003000,170875504,24
111634754,2611957,77451525,635283,74018170,778643,503583,2589066,222908307,663214,104493754,2571,12343,377600781,1861,1.63,1.36,65702225,58182000,7022000,86102784,24
320075668,3317714,201361926,1295460,199520709,1218212,720913,3314926,542088405,728945,317034463,52522,47859,964327578,2873,4.03,3.36,160063751,151674000,8035000,180506819,24
107412189,2846301,76389424,631257,77176687,559445,500376,2551421,229884662,512699,106949257,7,12538,371334693,1866,1.64,1.34,71734758,65476000,6044000,91445705,24
110197159,2620022,76539607,700190,74565545,821249,492414,2626767,225732852,675887,104962590,20720,12244,374385619,2003,1.61,1.34,66021931,59707000,5970000,87036064,24
107297150,2817940,77223081,552591,78034536,522476,509199,2492393,226853326,559147,106730441,21,12118,367624449,2058,1.64,1.35,70457898,64137000,6012000,90863722,24
317787849,2820805,197302089,1098977,194256457,1192541,528188,2967213,512883944,632137,311182454,82,16092,951746016,1859,3.75,3.11,150928794,142669000,7981000,171987160,24
107075991,3343431,75658140,946053,77193541,770547,710281,2861636,261972348,752960,111740152,157,20141,371449422,2533,1.87,1.55,76885765,68542000,8063000,96652101,24
136707378,2582641,103002292,3277718,102981531,3146310,549187,2859283,347810780,649008,137300402,74,13721,522516515,1956,2.5,2.07,104516104,99301000,4965000,124626160,24
113245018,3268558,78552949,812053,76002684,866172,799236,3060965,266356603,775576,111748132,94,17301,394249644,2683,1.93,1.58,81280386,73858000,7082000,101126083,24
109533198,3437224,75841232,814091,76504094,680514,712082,2842667,261268888,734109,111571599,82,17413,379351867,2681,1.87,1.55,76145782,69953000,5911000,96691366,24
111333287,2644390,76572735,660402,74322202,781910,471189,2598032,227495236,662051,105824033,224,11744,377102008,1857,1.64,1.36,65895270,62687000,2985000,86052841,24
104283460,2842753,76465809,689642,77648843,621588,443208,2394930,221825016,552992,104304804,97488,52845,361538120,1861,1.58,1.29,69532394,67185000,2005000,89911957,24
313670302,2740611,193730239,1357126,192368060,1329033,575066,3175707,498531120,631257,315217522,85399,99908,941992354,1883,3.64,3.05,146453774,140262000,5968000,166582214,24
107919199,2788072,78099717,556863,78083214,616081,470930,2432792,225261922,566326,105783604,41033,11121,366243967,1984,1.64,1.35,68884983,64634000,4039000,89552822,24
106870171,2990771,76585937,662740,77251097,525516,548321,2603293,232944743,575065,105842133,40406,14070,367669723,2447,1.65,1.36,71517116,62143000,9020000,92347380,24
114775131,2717568,78164625,650895,78006557,609663,533239,2598780,237680492,584058,112851794,38,12022,394865138,1959,1.72,1.41,73470114,67054000,6004000,93865136,24
102780851,2499028,73522093,606519,74155535,516283,410905,2274062,213116750,536267,99917207,12492,12986,349650413,1921,1.53,1.26,66290723,59968000,5996000,86489719,24
111496104,2654892,77589879,670227,74810285,794315,511069,2548071,227298794,662915,105892084,37983,12632,376074800,2005,1.62,1.35,66325824,63059000,3002000,86089954,24
106733705,2759505,77654584,490060,76840770,594946,466164,2473578,224025869,606339,105152786,70,11421,366863095,1877,1.62,1.33,68512756,60308000,7909000,89738375,24
114929038,3438737,84025605,811966,83706102,831523,931362,3484083,278369678,697518,113452534,6359,40717,413339962,7234,2.03,1.67,83479707,72117000,11018000,103843561,24
105387200,2770314,76374348,623135,77508166,575978,515691,2537620,234789092,521260,105203017,69,11967,367755672,1866,1.74,1.44,71474474,65102000,6009000,91911438,24
320098998,2805477,200256649,1053718,195906175,1161617,600744,3045306,509019741,674496,310136831,74,16950,947435180,2052,3.81,3.18,151064030,142548000,7974000,173056946,24
120383599,3730492,86010982,938369,85968382,924007,959234,3188303,316474444,785357,123195852,72,26215,432190160,4228,2.28,1.87,97218699,87003000,9886000,118001011,24
108383127,3355889,75625583,804662,77245211,672863,748796,2788441,261233177,736077,111493921,83,18090,375400704,2684,1.89,1.56,77029378,70643000,6055000,97737419,24
329242222,3144358,209783763,1234056,207838209,1219871,685289,3436922,543069218,716763,316908730,22624,39272,988961978,2520,3.95,3.28,162660812,156260000,6010000,182737916,24
111014451,2631331,81163434,1431955,81060940,1335144,506858,2660680,254676016,630038,110370081,14220,15558,397829549,1960,1.82,1.5,77547901,67170000,10025000,98501604,24
315012609,2773944,194615007,1223042,192250221,1197979,609752,3090623,498137228,626769,316837193,134,16789,946103941,1951,3.67,3.07,146521507,143220000,3004000,165102878,24
112363642,3267471,78605621,874699,76588814,881653,822356,2977119,260638638,789639,110461890,164,16993,388566514,2683,1.85,1.52,80356620,72073000,8008000,101444701,24
113684437,3245081,78066211,784857,75092458,834227,705689,2949719,268183352,754262,113373814,54,16017,394229447,2490,1.92,1.58,81367264,76027000,5001000,102062679,24
316023125,2825589,198187809,1073897,195145716,1161897,534580,2916423,507859012,613012,309096591,192,15914,946830059,1861,3.74,3.12,152050573,147695000,4018000,172923333,24
326683974,3499711,205388526,1396272,206465490,1378219,717973,3291008,596213328,777262,329112766,12500,519929,998014508,3161,4.38,3.64,178751865,169519000,9027000,199940822,24
126484476,3230780,94294645,1765846,93990334,1739911,765611,2964537,314496969,893930,126486947,183711,22963,432859847,2683,2.22,1.83,94227402,86050000,7912000,114625554,24
316678050,2731691,196308087,1177047,192732001,1215180,523911,3053890,505566121,654118,311752490,200,15850,953101349,1859,3.76,3.14,148333238,143053000,4967000,168933155,24
313239784,2914130,193667276,1231235,191579892,1209820,566122,3075872,494775246,615433,316905065,121,17664,939065977,2052,3.65,3.05,145649136,136423000,9028000,166769734,24
242360631,14299643,183662516,8404166,183743359,8428459,3270468,9910768,1075772080,4534729,241702476,4212,95680,817521611,8737,7.46,6.12,316459806,297930000,17995000,337511645,24
314768814,2810043,201018626,1052452,198278858,1109057,539092,2922014,504448196,553004,304513190,20138,20017,939170489,1855,3.78,3.15,152770761,150319000,2004000,173906186,24
125445914,3299394,93100111,510871,90764822,487119,1197736,2635786,312911822,717870,125160524,38,22939,445216753,3990,2.21,1.81,95554358,86163000,9017000,116759914,24
108552548,2924894,76761714,630644,77115974,519260,470683,2499667,225791490,554938,106627268,24,12409,366870750,1977,1.65,1.36,70651644,64327000,6030000,91173685,24
118643636,4487915,81459767,865117,83292075,829923,645788,3162187,276461848,765619,125759033,85909,45739,413332557,2686,1.98,1.64,81657608,73330000,8036000,101207271,25
124106158,3963645,83308060,869276,79908382,902052,763929,3650400,280524705,786069,131866943,117851,15860,438660193,3072,1.96,1.61,85569484,78286000,6936000,105931539,25
121106850,3770381,81996438,791379,81086685,779547,719754,3292283,273735765,719761,130167962,147,17928,423476864,2636,1.93,1.58,83721039,75371000,8039000,104635564,25
132386925,3910482,89094897,761353,83827727,737149,822935,3523173,294662101,953984,123441211,2298,18184,457849255,2522,2.06,1.69,89713155,80450000,8938000,109687511,25
127937725,3867167,84862338,810073,81907216,867212,1000918,3646029,300846916,934811,130562992,7456,23568,444520073,3086,2.09,1.73,88356331,81967000,5997000,108879594,25
114257269,4182027,86292380,870359,87771290,820878,679521,3055974,279840919,841934,117760234,87214,15615,395548002,3120,1.94,1.61,81676193,71272000,10038000,102206596,25
122544075,4370940,88311412,746737,88181786,671864,831101,3301446,309145200,1119161,116120985,175,20427,407218740,3234,2.13,1.75,93761955,84606000,8958000,114136777,25
335575538,3002949,213494455,1175315,209355037,1238020,583349,3712734,536458789,921021,317014439,49948,16851,994751672,1967,3.84,3.21,160803199,155516000,4984000,181054132,25
325559786,3649522,210281799,1238839,212349012,1244383,534176,3412649,548178793,858750,313864008,151069,20657,968042794,1874,3.89,3.24,163228029,158789000,4019000,182729860,25
117249604,4622008,84810640,790507,86700550,730849,922929,3341794,314103409,1022263,126097193,219,20974,401379020,3634,2.17,1.78,96360630,84000000,12000000,117469074,25
114721179,4729095,82691640,752981,85412471,726362,886765,3273916,317420013,983898,126499136,15,23704,403754644,3438,2.2,1.8,96661954,80523000,15905000,117416397,25
114621466,3615906,107806945,646451,105528328,620650,676198,3276859,303345474,941098,108784755,78,17768,491331550,2530,2.11,1.74,91309333,80701000,9841000,111584076,25
124962286,3763399,83886463,765511,81177161,761956,659441,3246633,274012730,757342,130794007,159,15170,434749942,2440,1.93,1.58,84644672,78341000,5949000,104245713,25
123412891,4573893,80555254,872476,79950722,824746,1007755,3643804,331086649,883797,138541141,273,24318,438966655,3234,2.3,1.88,99814881,90581000,8958000,119943702,25
326175816,5148233,199819588,1260948,201292701,1197553,863945,3927172,571222491,806656,343375051,36,21810,997916599,2535,4.07,3.37,170939307,163696000,6987000,191154684,25
343511151,4414747,212955179,1210772,206409413,1312249,975990,5041148,581138359,1217590,329946673,207,38970,1033386589,2655,4.15,3.44,173675554,163423000,9964000,194148204,25
112640655,4928852,80641772,768452,85151458,695664,557284,3064463,268066785,752701,123361250,5360,18685,396562034,2659,1.88,1.55,82119874,76851000,4990000,102488112,25
114753618,4385612,85225776,965625,87939924,862289,555228,2971779,269786897,849509,115783545,1814,15382,378979370,2240,1.94,1.61,79380550,76110000,3004000,99497023,25
338605797,2822728,212991723,1215631,207400116,1287284,619555,3940406,537356712,909021,322509369,129017,102983,1009702074,1970,3.83,3.18,160657086,155217000,5007000,180632949,25
127175538,3870211,81775284,809037,76264146,828618,876944,3544867,281300126,820923,138341858,27,17871,451050208,2517,1.98,1.62,86431292,79150000,7013000,106423557,25
114026934,4124582,84920106,752061,87877190,774467,443533,2934069,264304272,831642,118188373,35875,12006,387812294,1926,1.86,1.53,80670698,75266000,5017000,101593615,25
330092401,4509972,206494617,1500711,204420302,1480039,824045,4096516,564227027,772738,334378250,18048,59532,1001521131,2730,4.07,3.38,169460362,164165000,5005000,190200347,25
326526293,4096351,207441021,1209089,207866385,1149942,625046,3177556,552170389,873826,322297476,66,19210,973827560,2431,3.93,3.26,165277121,157838000,6992000,183887992,25
332434862,4141067,205833763,1456539,203924551,1420062,821508,3870866,563075418,793771,337238173,1964,20452,1007493311,2951,4.06,3.37,168998474,155605000,13050000,189758006,25
130791269,2889085,89434987,611878,85711325,683175,555392,3362330,255562680,896862,117505490,48,13392,434174296,1975,1.81,1.51,75060965,64908000,9834000,95715908,25
324608088,4273391,206199298,1280064,207164447,1234501,647511,3350358,554604647,830511,324734982,72008,53510,972582601,2455,3.98,3.31,166391870,160082000,6003000,186292280,25
121677532,5674050,90684231,783117,93796520,738796,1039788,3991816,326156486,918501,130652341,8,33256,438604013,8203,2.3,1.88,99624132,81249000,18055000,119469465,25
329027400,4288360,208924829,1244976,208958559,1159720,542984,3297112,547753372,921696,320044091,147,18040,982743894,2281,3.93,3.24,164242566,154004000,10000000,183915170,25
131724960,2868516,89380728,633014,83405341,702176,566905,3449197,251799484,868296,119669955,26,12261,444748894,1879,1.83,1.52,73627087,69310000,4018000,93811413,25
118041768,3857548,79869802,900726,81673496,878666,661845,3127569,271563162,743546,129641013,2155,15846,414084778,2435,1.92,1.58,83204362,77800000,5051000,104261145,25
116415567,4636479,82437642,778113,85149463,729027,651074,3149172,278185123,819232,123571331,329,16251,403165128,2683,1.96,1.63,81370651,77092000,4004000,102198052,25
118980464,4495389,85746754,736420,89691474,710317,839360,3245374,319537883,1075942,117893437,130,19477,402931229,3437,2.3,1.9,94404713,87083000,7006000,115244975,25
122331165,3643930,82464999,772386,80733290,782828,696187,3442301,273884014,780951,131331845,8,16679,431784455,2434,1.92,1.57,84397032,78813000,4988000,104809060,25
328035114,4446452,206785641,1228047,207630220,1171271,595951,3134918,553050992,828684,325092146,138,19787,983200522,2604,3.92,3.26,165787654,155410000,9962000,186579096,25
121041995,3717545,83390275,879259,82428469,854226,633608,3179065,273177976,743376,129070957,5,13268,423846962,2435,1.92,1.58,83956521,77733000,5979000,104847250,25
114266345,4315025,82611075,782171,85185034,742894,606207,3063739,269811929,835550,121998765,52,14588,400826040,2729,1.89,1.56,81798056,73370000,8040000,101920387,25
331119180,4373065,207063175,1238433,204848283,1216533,823287,4159139,562262657,803748,333392553,105,19311,1003843520,2922,4.02,3.33,169350896,158999000,9999000,189796111,25
116584626,3870588,79675428,800504,81893585,775990,663662,3161915,270243905,752069,129886424,152,15198,412039407,2437,1.91,1.57,83337237,78158000,4946000,104545929,25
124773339,4023904,81646428,773883,79936602,736374,714533,3193707,284950660,753608,132610195,17,14177,436887075,2839,2.02,1.68,83689268,76429000,6948000,104610815,25
112650012,4549569,77052214,823162,81756741,738302,736348,3080386,283165299,810586,128993589,36,18311,399427841,2518,2.0,1.66,83292646,74016000,9001000,104279765,25
120150887,3527222,88087372,638816,89713562,580094,453551,2862931,252848349,828519,111019402,187,12995,394203645,1973,1.8,1.48,77159157,73833000,2993000,98034805,25
132993635,4688645,98084562,662047,97122237,619627,1057462,4090504,326817583,1099775,119140371,248,51362,450385608,7760,2.31,1.92,95683887,78313000,17068000,116131180,25
332695194,4387459,214809513,1220867,213056394,1149960,638749,3756143,545847489,1019063,314483558,2581,18576,985697139,2656,4.06,3.38,163256613,155953000,6997000,184501625,25
114201590,4017219,78124158,736390,76341019,761423,935769,3712476,292841242,870179,121714362,34,19951,393007144,3114,2.1,1.74,86058594,78688000,7061000,107641271,25
332625903,4519101,212305169,1311641,212833216,1334539,890147,4321437,597157673,1075378,326549900,285,25413,993617680,2786,4.37,3.63,178676734,169432000,9023000,199455419,25
343987535,7354854,216837355,1586149,214974425,1598353,1982210,6542235,833066060,2005475,345722608,21613,75135,1061464233,4579,5.88,4.85,247271935,233908000,12994000,268221425,25
115733551,4048609,80150500,859866,83900700,837671,625219,3111551,268923660,751338,127461630,87,15089,404848436,2434,1.91,1.57,82388454,76096000,6007000,103324479,25
327369723,4591067,206404294,1230703,208057081,1153690,607170,3273787,555188989,884683,324611196,39795,47853,980189560,2479,4.0,3.33,165301458,157041000,7951000,185702312,25
131423511,4096844,84881282,814393,78955056,838137,903562,3813506,284995415,913249,132489574,141,23890,455112433,2719,2.0,1.64,87424390,81079000,6005000,107332300,25
117620006,4501507,85104197,763383,88192701,696132,878167,3207141,312919718,1090187,120435002,57,31870,394700166,3435,2.24,1.83,95443457,90147000,5008000,115474651,25
113239772,4456047,79929239,877237,84480739,804030,470376,2841619,264074668,668798,126969111,115503,17224,402509974,2065,1.87,1.53,81516490,75176000,6014000,101199822,25
328222137,4280194,206224660,1371225,205281130,1342814,770006,3482074,560972897,761448,332460137,14,133367,991187940,2831,4.05,3.37,168013431,161643000,5986000,188246081,25
128696323,3888130,82355606,833417,76296243,867243,875062,3641749,284718463,856807,136756924,27630,17419,453740771,2519,2.02,1.66,87317958,80946000,5996000,107728842,25
167120374,16895317,114535409,6132620,115675420,6035156,2063066,11244005,780164170,5165647,181122326,22189,52742,565995337,5363,5.26,4.3,232630654,217317000,15021000,253003687,25
126609657,3770847,84262241,993080,81034029,1058463,744799,3712366,276360565,768254,129724414,136913,57567,436481376,2684,1.95,1.6,85271338,75885000,9106000,106309773,25
122534559,3779692,82897725,798818,81188833,794370,723396,3342111,269717090,751791,129838338,29,17383,427171938,2730,1.92,1.57,83548079,77293000,6022000,104038180,25
332645039,4589392,211744340,1375927,212399916,1345579,756714,3809813,594109149,1006130,323258431,145,20132,1000092119,2719,4.26,3.54,177557468,170289000,7011000,198309590,25
115861379,4251509,82879533,800054,85760451,767656,704408,3129082,283409060,806403,123709386,39,14478,404726567,3115,2.01,1.67,82877964,73659000,8958000,103162917,25
128359098,6034011,99251749,923159,101824723,841838,1464041,4856600,380688193,1408455,116411825,127,40089,435440876,9100,2.74,2.26,111621522,92442000,18886000,132897693,25
325375322,4285278,208642178,1234175,207719798,1192191,742166,3436731,556624887,819937,324648140,34,20401,982054360,3112,4.07,3.38,167593383,157241000,10015000,189675982,25
326099292,4380717,205812914,1283811,207166112,1203548,760039,3490548,572104413,851065,333724365,155,18669,990141459,2830,4.17,3.48,166644656,158104000,8005000,187261637,25
114025137,4185194,80978831,990331,84996845,960174,540088,2998796,266360985,750384,124832183,83968,16060,399412279,2215,1.89,1.56,81852115,73612000,8067000,102131243,25
329273122,3867238,208548952,1344101,208994226,1273479,562809,3299210,556756703,946115,321482741,65897,16739,986292440,2232,4.02,3.35,164273218,158966000,4967000,186577081,25
346651401,5346706,222787755,1251329,221974777,1274798,1603265,5662845,651162944,1171615,346324524,192,62530,1091553228,13660,4.72,3.93,192419995,165043000,27007000,213412645,25
336940252,2928901,213668004,1081125,208586719,1153618,589054,3863921,533838005,930235,319260714,185,16661,1000153194,1874,3.87,3.22,160598386,152267000,8014000,180637258,25
111887821,4146423,83282743,787085,86261043,741829,564981,2948796,267101458,795738,119855458,501,15055,392125040,2530,1.89,1.55,81106835,71876000,8861000,102096401,25
342391283,3625158,216637588,1267689,210373915,1292558,893528,4188106,579928403,957548,325158307,111,22203,1025691773,3132,4.21,3.5,174641071,163413000,10960000,195615590,25
329975224,4204494,209132770,1304829,211959314,1330535,848830,3882277,595748864,1149376,322470374,83702,137458,985961287,3028,4.34,3.6,178200169,169911000,7995000,197825237,25
127403647,3742518,85687727,802675,82042557,869460,791150,3444988,279972136,792975,129892564,140,19989,439849256,3200,1.98,1.63,85818384,78452000,7040000,106615877,25
159209899,18058817,119278280,5884465,122324944,5858373,2778603,12714556,882477284,4628578,157533517,47097,327878,521262493,4853,5.92,4.83,261059669,245779000,14986000,281015756,25
119809619,4973192,83200940,963100,86672694,926131,1039235,3647708,331994792,888459,131598357,104877,35668,419114871,4666,2.43,2.01,98221922,83879000,13979000,118313142,25
325764902,4092902,207335107,1327565,208425327,1263366,613935,3214379,553776542,873581,323535459,44,18889,974484035,2431,4.04,3.35,165555482,157333000,7966000,185502364,25
115830897,5223660,86050037,774688,88467955,727383,1045561,3869222,324333798,1095535,125519747,113,31381,404242385,4598,2.3,1.89,97819179,85470000,12066000,118506659,25
125019260,4005522,80413562,837397,76071425,810325,846452,3435368,280167232,779885,137462217,28,15703,441317925,2518,2.0,1.65,85592581,81241000,4011000,105466220,25
353461602,6837547,226247880,1507053,224417634,1507357,1070744,5800546,694558558,1405118,355626577,932,37066,1103365998,4543,5.07,4.21,208059108,197678000,9983000,228379031,25
119836886,3485787,88484229,651001,89713421,616141,440667,2886678,251126570,833266,109632018,19377,13381,393857334,1879,1.82,1.5,76773266,71357000,5025000,97512609,25
123104276,4010292,103840417,829059,99760705,818705,966959,3599207,334910361,840371,129366696,36,18248,541345995,2997,2.41,1.98,101602512,94261000,6945000,121025173,25
117990305,5093713,87140584,801550,91126327,765140,988965,3566170,326027861,1239872,118300647,8594,29228,394794061,4412,2.36,1.96,95665234,89326000,6022000,116467034,25
205139738,15353405,168945346,12929213,167032295,13016855,1277410,10727065,931469438,6237952,203992847,64241,55598,752279365,4843,6.39,5.27,279368097,267035000,12001000,299566198,25
157171866,17578383,105764140,2579223,102842820,2589558,917313,13818557,432317911,2359129,155714122,24253,72873,531465794,2431,3.1,2.56,129582006,123268000,6013000,149235594,25
314742162,2483446,193694016,971932,191139483,953412,517467,2889366,487309633,693292,307114379,143,16606,929547332,1852,3.45,2.87,145548996,141094000,4002000,166080713,26
316368111,2613707,194541850,962865,190805889,954495,603653,2979025,490355519,697314,309498493,398,16549,938554113,2724,3.57,2.99,144315414,137005000,7000000,164818775,26
307515105,2914191,193989387,1033034,194641169,1031160,525657,2869249,503480608,751099,307239413,16644,38744,920072053,2817,3.62,3.01,150328367,142997000,6999000,170792991,26
103724625,2587433,73489353,646892,72379955,647541,405269,2281930,213116081,657781,99754101,28945,90498,351107754,1945,1.52,1.25,66058000,59766000,6077000,86097993,26
110882632,3261526,79164929,574546,77142824,571029,911104,3075517,262743545,920379,104429094,67,24883,379007602,4596,1.79,1.46,80716978,70394000,10056000,100203104,26
102636824,2558720,72186674,640373,72184886,645341,400736,2320473,215013084,649035,101359332,109389,12205,348806938,1957,1.49,1.23,66076879,59921000,5893000,86802201,26
313756349,2426743,195746930,996463,191950146,983957,502989,2930042,484108572,700765,302756877,215,16392,926635685,1872,3.49,2.9,146034890,140776000,5027000,166601399,26
317257989,4401767,194602124,1207664,192627681,1146426,922691,3838616,544850094,903735,317650726,44,22366,951167184,3289,3.91,3.27,159754779,152490000,7022000,180373465,26
102689670,2940859,70881372,574791,70549764,578518,584456,2540719,237814499,731391,107117949,329,20696,353449454,2628,1.67,1.37,72057765,66713000,5054000,91919369,26
102243298,2285215,70617034,519850,68748315,507189,361276,2113007,196720719,541748,97682982,141,14405,344080184,2062,1.43,1.17,61446958,56155000,5013000,81994577,26
100362231,2892161,71773046,576614,73137583,590067,505751,2525731,237610666,772547,103634779,137,15356,347458355,2458,1.69,1.4,68982522,62640000,5965000,88751192,26
103744593,2914023,71709265,546335,70195653,544208,587372,2522517,236083077,701356,107558590,25,14250,360361267,2643,1.68,1.38,71937888,65761000,5889000,92193879,26
17562018,571699,13457354,150773,11012309,142722,117404,511009,37523908,82612,16155634,13,4072,78469522,1128,0.29,0.23,13119166,10830000,1969000,33545969,26
104054531,2903470,72173569,563638,70815186,571846,581820,2523998,236028069,722041,105050485,158,17795,354169663,2644,1.71,1.42,69882121,57600000,11917000,90493057,26
124024075,4187495,86462090,663179,83928045,649726,949670,3808769,361184178,1119039,117389328,14677,27436,418628507,3034,2.5,2.05,109980510,101713000,8056000,130095254,26
109297719,3284579,75613734,624492,75021606,658759,659168,3308581,258765613,954559,107435882,547,18300,368435942,2456,1.84,1.53,76112633,68728000,7075000,96439487,26
103176536,2899752,72312993,601890,71648682,606958,522901,2440743,232472652,756113,103175997,24587,25727,351235846,2550,1.68,1.4,68471063,61168000,7019000,88958680,26
101592901,2868740,71628030,562303,72030845,572793,526251,2466626,233744279,754790,104008908,248,16240,348123306,2462,1.66,1.38,68445188,59171000,9026000,89046342,26
315535560,2580129,194406465,965927,190204326,958027,466172,2972771,491273450,703502,309869235,189,16629,942231285,2596,3.61,3.02,144414995,141081000,3001000,164862774,26
104239907,2473119,73005467,532898,71250440,510638,373443,2326333,206545781,658360,100327248,78,12142,353466180,1855,1.48,1.22,63832630,60522000,3026000,84832686,26
104168396,2495101,73590604,571692,71766265,536764,387613,2330838,208336684,661857,100035113,13727,13840,352569005,2040,1.49,1.22,64116084,54687000,9114000,84353379,26
103773543,2442245,72919560,536793,72422081,516010,392306,2351290,207006093,649359,100688439,87,12520,349643074,1851,1.49,1.22,64209934,59910000,3994000,84537975,26
312317536,2451419,193918834,977264,191123356,961527,484417,2911022,486362240,710958,305572295,3237,21668,928314641,2032,3.47,2.88,146611635,139356000,6967000,166878716,26
312000454,2469374,195527892,1148210,192465950,1134906,475311,2886455,487491469,693509,301740400,100454,131125,920773209,1934,3.59,2.99,147064021,141639000,4987000,166965648,26
104031025,3289640,73064427,638766,73076387,575874,412435,2455654,219246808,737543,102118755,6972,12479,353057774,1950,1.58,1.3,67444514,60141000,7016000,87645824,26
307134854,2769141,192283001,989717,190892552,995897,469228,2743933,521760869,627470,307744030,979,15449,915107077,1939,3.87,3.24,152881397,148429000,3984000,173262957,26
78670419,887806,52010231,128401,53235456,117078,132079,720877,117939865,56300,81439960,75,13084,261037422,1610,0.85,0.69,37622990,34173000,3015000,58522566,26
101663267,2526442,72427110,567607,72170794,563848,384577,2282341,211285740,669074,100896551,33516,14414,348323346,1896,1.52,1.25,65401661,61009000,4000000,86584940,26
105536693,2502254,74049165,561893,71749306,531024,415783,2384648,205764248,660081,99409382,5412,18761,353758342,2061,1.48,1.22,63820910,58422000,5036000,83755702,26
323556165,4453246,205425209,1283217,206499912,1287714,953258,4263961,643767593,1172266,317348962,179776,67045,977421245,3115,4.55,3.77,193328910,181966000,10997000,213426658,26
11313816,572817,7518476,144176,6302476,84339,122362,446355,31178295,82014,11876037,128,4731,48786842,1133,0.22,0.17,10716678,7540000,2827000,31958465,26
104911372,2864304,71997141,540501,69933579,530363,596157,2529018,234054283,702273,107081383,10,15052,360622037,2457,1.67,1.37,72639800,59316000,13069000,92734560,26
104654705,2407033,71988649,519807,70715877,495884,400005,2330603,204541202,649476,102682742,53,11247,357274429,1895,1.47,1.21,62477620,59201000,3010000,84006312,26
105779647,3263484,73801253,596090,72147738,526921,577247,2888707,230038059,749772,105641943,52,14177,356692284,2467,1.65,1.36,71980947,61571000,10093000,92774421,26
106154293,2421799,71618816,504575,70420251,485291,413591,2327496,208288971,639323,103629345,60,11693,359122308,1949,1.5,1.25,60849725,56564000,4040000,81642052,26
113036181,3263160,84307958,260942,84588644,268297,1050706,2651480,295925887,789767,115506375,37,20591,404944592,4040,2.11,1.75,86164730,80847000,4990000,106656810,26
103448824,2913383,71473532,535611,70189965,526732,551334,2517050,233021002,667097,107651401,40,14338,357624375,2271,1.66,1.36,72392586,64134000,8016000,94354336,26
308621382,3145879,191575430,1038012,192038176,1045949,672746,3015634,522776558,728039,312124961,30597,28109,924891212,3392,3.75,3.12,156247759,143869000,12072000,177605048,26
118992109,4112626,80769455,940631,79526431,906093,939062,3444326,304867362,1101242,114428790,205,82261,399117616,3892,2.12,1.74,92331527,81987000,9998000,112306197,26
330107356,5183269,205692478,1043967,203420714,1043503,518651,2862932,560957163,645411,329087056,30356,22599,995524746,3008,4.04,3.37,167334656,160099000,7004000,186932679,26
103736953,2511916,73137081,536892,72051712,531912,374062,2290525,209044369,659694,99605601,45,14460,349686031,1854,1.52,1.25,65027650,55891000,8824000,85527980,26
310914647,4112996,197440407,1211728,200316216,1201943,820549,3604365,565166366,1047624,312856256,22117,24102,928824093,3202,4.12,3.43,165396510,157079000,8004000,186216412,26
107074522,2872120,72437312,552196,69812352,542099,589310,2567522,233639428,711218,107349517,19,21378,366826421,2656,1.68,1.38,73199660,65897000,6989000,93988074,26
107811962,3868271,76041313,852807,74459948,786232,717263,3269254,254159774,881239,103943796,57,21870,363052593,2539,1.84,1.52,75542211,69184000,6016000,96739836,26
106456239,2392584,72938992,526527,70890969,498348,417807,2355209,209890243,653898,102008109,81,10669,358719005,1946,1.54,1.29,61422396,57079000,4005000,82178529,26
100738207,2894797,70524122,542210,72052966,542163,537053,2498308,232949035,726869,105859495,55,22546,348090898,2798,1.66,1.37,71248235,59999000,10999000,91409252,26
328878498,4311652,206596220,1091542,202843362,1062251,1060907,4414694,636431812,1113979,325982516,208,32032,991057862,3028,4.65,3.86,188316506,184024000,4000000,209008472,26
108273077,3169639,74110442,608729,71524155,635976,617486,3167234,245684435,900414,107885245,449,17089,370068230,2456,1.73,1.42,76079534,69794000,5898000,95874589,26
308742269,3061562,191046389,1024147,190004773,1023717,636450,2996444,523773119,725496,314694984,44510,27789,927509363,2655,3.84,3.19,156488203,150238000,6009000,177281618,26
311847168,2613220,192608407,963396,189973143,958724,504968,2951165,488567728,669267,311832383,8,14788,934868469,1947,3.61,3.02,143060731,136697000,5986000,163834131,26
104843187,2394741,71762863,518588,70776870,488834,418250,2339112,212430409,654451,103743647,115,14321,358117366,1916,1.57,1.31,62218273,51937000,9988000,84504896,26
105148189,2923165,72314864,549282,70222272,544236,595775,2529612,234873988,675577,106934735,35,16224,360926032,2643,1.67,1.39,72220654,65954000,5995000,92527369,26
313255375,2498660,192803284,1058162,190515778,1048053,477010,2864014,485877655,689961,308412851,84720,15765,931369496,1848,3.55,2.95,145149792,138866000,5994000,165096197,26
311670049,2493298,194955342,982252,193074949,964786,477758,2870193,486589502,706838,305844189,69,15919,922571030,1892,3.53,2.94,147643125,141221000,6009000,168223926,26
113741207,3712819,77797710,784335,76540468,784624,836995,3227286,288563072,1078928,113186816,87,27628,392327315,3265,2.04,1.67,88487778,77053000,11007000,109631734,26
102978506,2485454,72659613,535920,72308139,518544,372503,2310668,208048455,646232,99674383,86,11836,346902802,1806,1.49,1.23,64416939,59118000,5010000,84391072,26
104054029,2934570,71137871,656501,70678353,657074,595419,2574063,239532856,675565,108499790,5,171044,360448138,2854,1.71,1.4,73296734,65073000,8009000,93555748,26
104162204,2894295,71234116,534748,70203949,533332,581901,2536639,233855009,693376,107726142,16,18380,359032708,2651,1.65,1.35,72833619,64640000,7955000,93301392,26
314786333,2474132,193918443,968370,190886256,958513,503273,2900793,488248940,697040,306889474,112,16428,933025042,2049,3.57,2.97,145558584,137033000,8001000,166447216,26
315412356,2577512,194279368,997312,190626988,984060,591959,2977574,496652352,723471,308872562,37152,16300,942924612,2434,3.67,3.06,145783603,141486000,3985000,166048514,26
102747470,2621657,73866112,536259,73362064,547301,473624,2389863,222323859,684051,100957706,137,12134,350459259,2451,1.58,1.3,67411537,56995000,9999000,88374485,26
101766526,2847137,71507766,546673,71937418,553471,476587,2429228,230031100,763678,102608897,40,15974,347071315,2268,1.69,1.41,67677283,63416000,4026000,88194231,26
105238498,2960225,72931558,527596,70607054,529086,633567,2559604,237869708,744259,107173266,77,17700,363882817,2911,1.72,1.41,73341280,67018000,6092000,93745337,26
315196788,2498218,193833640,982947,191003675,968541,496315,2889784,483174769,684352,306270303,73,17227,927766586,1850,3.52,2.94,145139632,140964000,3998000,165856337,26
303372316,3043389,191716187,1059252,192889763,1064135,541310,2836304,511839876,756117,307660996,33351,22475,911575912,2483,3.77,3.13,153318945,143977000,9061000,173791495,26
358112903,11246463,243434819,6519310,244218040,6478439,2983436,8797251,1136015677,3743681,358150284,1349,142357,1097426875,6970,7.93,6.52,337173676,318903000,17994000,358181887,26
94270224,2665464,86264037,525695,84752045,517820,439119,2387570,231340834,607530,95063407,18,13647,411966502,1934,1.69,1.39,71839841,63729000,7843000,93588743,26
102853563,2512335,72638485,546396,72250596,514049,407679,2349028,209248838,665641,100700705,322,11289,348803472,2061,1.48,1.22,64939024,58686000,5968000,86583011,26
45283994,693035,29810172,209169,27691433,198960,285926,820100,85159443,134214,42045130,197,17639,144267845,2948,0.6,0.48,28165859,21175000,6737000,48319209,26
111450325,5378694,76772742,1058808,75282831,959454,1208152,3888494,320771311,1188103,114974596,637,21445,385903743,4043,2.3,1.89,97469166,85132000,12018000,117653490,26
109917319,4221187,77303648,1000165,80084396,934349,682014,3171864,273725774,849452,116954766,74,104392,382204829,2801,1.97,1.64,80308957,70054000,10007000,100538408,26
314182252,2514011,193004509,966562,190677302,953487,489792,2897829,485889279,686473,308259844,180,15921,929104863,1855,3.56,2.97,145579750,139290000,6012000,165581165,26
311186792,2437376,192910782,969265,190923642,952366,476357,2886043,499405224,714721,307404653,75,15134,927639841,2072,3.71,3.11,146508015,142100000,4002000,168628617,26
103173876,2899905,71239427,534333,70900700,536545,544070,2504378,229278134,690453,106526699,64,16946,355697270,2467,1.67,1.37,71570260,64184000,7020000,92812060,26
328665975,4236575,208205059,1138112,206076470,1110910,1002388,4388953,632283204,1142122,319490783,19680,38835,982789934,2935,4.57,3.79,189793411,181553000,8024000,210555055,26
103669853,2901580,71884509,566104,70831476,564603,553970,2493248,233539468,714131,104853292,51,29653,355817044,2655,1.77,1.47,70101928,63776000,5979000,90066596,26
324773971,4098686,216293961,1291786,219516816,1219669,643392,3301769,610809967,848041,335677067,22542,48590,1014363711,2702,4.13,3.5,153752831,145298000,8016000,172335405,26
292207683,2902131,182346629,1135718,178009835,1125729,670902,3030199,481094885,739334,287979804,98,202345,885532005,2645,3.52,2.92,144312520,134978000,8998000,164575311,26
105306181,3648350,75591199,763576,74744217,651010,494617,2728966,237898196,823603,99083929,21535,12281,352254233,2054,1.74,1.44,70498193,64146000,6013000,90447051,26
114938931,3913543,85157626,581737,83973141,573743,1107053,3219647,299560518,922423,117326227,96,42469,417075001,8089,2.15,1.76,91965365,72658000,18911000,112886673,26
167018449,2452872,116044280,962371,113312780,966835,699392,2124567,330691193,397942,170144147,81,15471,580568149,2828,2.3,1.89,100762524,93479000,7036000,120943481,27
188504356,2107849,125514115,1281413,120415744,1369529,652815,2212160,351929742,618456,180023689,543,20926,640208849,2337,2.49,2.07,103679423,96415000,6957000,124087170,27
164417446,2420878,112823593,979993,111413582,982574,599828,2048919,325406632,380550,172245435,17,15607,573724371,2265,2.32,1.92,99259665,92975000,5934000,120162222,27
533649798,2244867,330807744,1697786,326728279,1639696,814659,3035539,824377887,638472,524149508,511,29495,1598012939,2820,5.97,4.97,245091621,237754000,6992000,265918017,27
169162779,2369821,114235206,1017417,112162941,1016830,623023,2133677,327478290,382061,173873753,26,15949,594580460,2243,2.32,1.91,100139104,92894000,6992000,120228502,27
188666949,1817528,129215900,1263747,125917983,1376120,528771,2080219,350255458,542775,182720245,2987,19762,633750190,2024,2.5,2.08,102749037,97439000,5022000,123132938,27
181535461,2601255,123506932,1522519,117913316,1637719,640233,2933080,350693520,707750,172196128,1031,17716,642843096,2288,2.44,2.01,106143667,100972000,4949000,126240194,27
165459097,2372186,113244102,938552,110868324,942057,599105,1997945,320740389,397841,169591926,199,16258,571754815,2245,2.28,1.87,98762141,89264000,9026000,119585752,27
163951867,2421288,112799238,979217,112682727,970538,537911,1837739,318598650,487299,165339953,154,23335,552467648,2290,2.21,1.82,97340379,90960000,5997000,118905394,27
536034997,3457135,335432696,1790144,333100656,1750174,992418,3324333,858297741,565620,538611711,757,34513,1620063344,3426,6.22,5.18,255373757,247105000,7971000,276155106,27
163211073,2279905,114368790,978195,115312016,973378,539443,1932189,323367633,565002,161282271,327,25236,554078628,2241,2.3,1.92,94720480,88413000,6028000,116024452,27
577332385,3891328,362778602,2007762,362407881,1984413,1586608,4007673,1043799109,952399,573514795,44382,73630,1760247829,4909,7.5,6.23,309884933,298561000,11020000,330727907,27
161490366,2489680,111406463,970513,113089856,967132,538964,1910774,329066803,533637,168303617,8,17282,555963849,2629,2.33,1.94,96687385,92364000,3972000,115832489,27
529208563,2541466,326733228,1689397,324897960,1689607,705726,2803586,807764788,412791,532051721,216,24232,1586972644,2259,5.79,4.81,239802976,232380000,7011000,260099850,27
211750898,8543794,161640962,2238835,160182907,2194759,823640,2496296,515017469,1046376,216422932,3255,38640,719397588,3996,3.56,2.94,154816588,144522000,9967000,175379379,27
200090270,4514538,141250600,1021517,137056150,1051675,1858636,4663658,476422290,860025,191642772,403,73578,734368869,17088,3.37,2.81,139165237,110866000,27966000,159318120,27
169152282,2097745,117281897,969535,114650128,945729,599759,2230124,324943800,633014,161085623,70,23319,575369913,2630,2.24,1.81,105376299,101034000,4001000,127663894,27
166504662,2363004,113603538,925554,111666978,923038,601881,2059206,323607374,388557,170932640,7,15771,576418735,2241,2.27,1.87,99134183,90901000,7991000,119768564,27
168066988,2443210,113037874,1011066,111441170,1007680,624318,2126939,326051535,363487,174995478,8,28371,585734340,2242,2.3,1.89,99728917,90248000,9024000,120005425,27
175024745,2214978,121342062,1578935,119636232,1575289,504819,2062672,330677768,463404,185617778,1819,63967,612116356,2024,2.35,1.94,99833247,95498000,3979000,120607650,27
220894003,3595105,150601511,1555714,147790086,1544895,1516092,3276104,523463359,915708,223682940,239,29923,779464707,4210,3.67,3.02,157787356,145452000,11954000,179490814,27
164964156,2343758,109314334,890759,108055067,883924,620860,2048973,332936965,396189,178316451,16,15231,592277943,2242,2.34,1.93,100363366,95030000,5001000,121092751,27
165999814,1911505,115274907,899735,115370530,883266,427301,1981905,300875544,460325,160774084,81,13551,565254330,1828,2.12,1.75,92141892,83844000,7891000,112399086,27
161010133,2345068,112782903,950347,115192329,943628,524692,1925138,325769493,541553,164767619,174,16913,554985170,2244,2.31,1.92,95853001,89448000,6030000,117041032,27
534501983,2478557,330158745,1658683,325860322,1661228,752718,3092166,825401043,520163,528462733,640,30466,1606736671,2237,5.92,4.95,242234904,234783000,7023000,263145556,27
167986099,2334723,113810809,999403,111672205,964889,715811,2181910,336222829,463277,172591185,59,16210,588727273,2833,2.37,1.95,101777450,91525000,9948000,122611904,27
165159305,2412873,113993001,995735,112511409,1001258,592523,2012681,321336733,395068,170292433,141,14734,572360594,2287,2.28,1.87,98436472,92163000,6010000,118713161,27
523154535,2514001,324613711,1604153,324934178,1594410,624803,2576676,811957459,478295,529234228,125,23733,1568473155,2239,5.83,4.88,238152679,229867000,7995000,259044940,27
163362653,2349785,110060035,891502,110266474,887761,609784,2050692,330515552,391640,172840200,86658,13051,566794880,2241,2.33,1.92,100279634,95080000,4952000,121246461,27
533214012,2315442,330012761,1691572,325695926,1692025,734697,2876493,813820790,504341,528685063,43,22249,1604764587,2235,5.85,4.87,242201329,234840000,6995000,263278538,27
168097094,1786574,115140014,973000,112860947,1076065,446862,2085548,309015340,503756,165408567,67,15428,573842476,1826,2.21,1.84,90577613,86241000,4011000,112253400,27
164234121,2505787,113386463,935884,112704825,931053,636595,2040811,336622966,451576,168532339,90,16058,565318064,2872,2.44,2.03,99015255,92612000,5974000,119632156,27
163520291,2410861,113174400,929747,113470808,927252,513476,1835579,315651937,483656,163982846,46,16121,553766881,2245,2.23,1.84,96665303,89387000,6952000,117705538,27
169392747,2371034,113816644,987675,111438270,983314,633536,2122664,323462302,404934,172186311,0,16604,587234802,2337,2.28,1.87,100082561,91721000,8063000,120143443,27
137228410,2148313,135561189,991470,138045272,881726,457764,2017318,325677778,358711,142091791,3,19516,652007071,1877,2.32,1.91,99886457,94592000,4978000,120538391,27
169314835,3197752,112637152,860335,111772226,857701,591800,2656164,335207983,571173,174341610,17,14648,582518032,2497,2.37,1.96,101132466,93897000,6992000,121322964,27
168918943,1755334,116660655,896836,114335863,982919,464116,2025959,300253336,473920,163311587,95,13928,574296464,1831,2.13,1.76,90931187,83648000,6970000,112073746,27
534330628,2303023,331722596,1891803,328016017,1826860,828110,3029751,819285485,598789,524222313,118654,26296,1601091559,2875,5.98,4.99,244479845,239186000,5003000,265424973,27
532922736,2601499,337192522,1760813,338425963,1710516,591584,2695044,821891148,604644,526085961,73,24989,1572315371,2234,5.97,4.96,249904415,242627000,7018000,268540133,27
163355475,2403254,113454658,954208,112629898,951109,578792,1933461,321309671,414857,166379541,12,15764,561853856,2340,2.29,1.89,98279732,93964000,3998000,119185104,27
534995158,2338248,328627648,1636865,324915161,1629816,791551,2935872,816117424,538213,527073228,64,25354,1597862254,2434,5.91,4.93,242797724,234393000,8013000,263443434,27
162873393,2413025,112697379,941755,112605933,940013,536409,1853855,320302080,448487,166527127,8,14467,555246576,2239,2.27,1.87,97439129,90119000,7009000,118482016,27
531494911,2541596,328209859,1661343,326159990,1658648,701646,2857991,804052032,422453,532956301,8,23402,1596113695,2234,5.83,4.86,240998784,233596000,6987000,262246197,27
170335814,2339733,114619333,1169151,111891561,1166111,681658,2159948,330606511,420154,173932141,172272,15365,595713060,2442,2.36,1.95,101101746,92615000,8053000,122228160,27
531505141,2331411,328555246,1705122,326574906,1636585,712736,3078410,868760455,564893,525836892,2360,25654,1593774128,2283,6.28,5.24,257973359,248603000,9021000,278842051,27
182728715,2226442,130725279,1207206,128586901,1278539,650029,2170016,354183436,699804,167514447,55331,19944,599563818,2434,2.48,2.04,107297036,102972000,3998000,127769018,27
167237117,1951241,115042761,995323,114906296,1015537,441952,2007371,302452470,468293,163297143,57,15300,571141380,1829,2.17,1.77,92283670,86065000,5935000,112289260,27
164414192,2221318,114846285,935946,115999433,957460,554183,2009761,322720247,598139,162488685,102,19902,561395547,2243,2.33,1.94,94072253,86776000,6982000,113415794,27
582102822,6420542,369226729,2567635,369031228,2567250,1800366,5240865,1084621058,1400679,585390451,384888,54796,1781503771,7399,7.84,6.5,321489702,310222000,11007000,342077032,27
165825556,2461708,112210635,958827,111093456,962199,624021,2070578,327523228,414755,173916951,133,21455,578374156,2630,2.34,1.93,99516823,94187000,4957000,119744120,27
530256402,2218844,331254599,1665180,328866700,1655355,708886,2989920,821666832,651555,521289468,62,27430,1582008665,2430,6.03,5.02,245787888,238380000,7011000,265617117,27
166204835,2354820,112782023,1011645,111477777,1014825,664010,2108355,332341670,376076,172629593,46,18989,579279911,2244,2.36,1.94,99834705,90400000,9040000,120550312,27
171453588,1965568,110935550,791221,106601458,838909,444738,2055252,295580683,392477,172586512,1,14091,595213038,1827,2.17,1.81,86738819,78370000,8037000,107299545,27
531456953,2184301,329553170,1680958,327046132,1675590,717422,2896810,837212365,636682,522039410,288,25983,1582094044,2237,6.08,5.08,245852879,238468000,7013000,266648720,27
168108689,1780315,115997467,892917,114382188,973348,438023,2004039,299395019,467204,163992444,41,14689,571017848,1827,2.15,1.78,90776071,84503000,5964000,111117353,27
527757430,2153579,328461670,1579575,327510819,1681100,509304,2640035,787694609,498141,524472263,220,25005,1573890110,1818,5.69,4.75,233161394,225846000,6995000,253321797,27
534453987,2228576,331953096,1701870,327386836,1607387,838994,3041063,821608975,626929,523828638,69,29521,1599199932,3016,5.95,4.96,245215639,237783000,6993000,265898931,27
528495156,2414672,326895189,1643633,324115483,1649275,741644,2890205,816788768,488166,528230624,127,23733,1585629963,2236,5.89,4.91,241798945,235618000,5990000,261102642,27
176674586,2324093,120550858,968207,116029359,950603,863290,2472078,344544371,621725,165241894,51,28800,605876781,3804,2.48,2.05,104495291,92195000,12025000,124544255,27
184739075,2247540,132218986,1143440,129506879,1228358,679612,2231674,367199390,689041,169381773,1456,22777,609753547,2829,2.61,2.17,107523130,100230000,7016000,127769065,27
162421282,2357609,113596388,960925,114835089,966907,543333,1959759,327810853,524114,163567936,210,20398,557410808,2241,2.36,1.96,95540158,90175000,5009000,116238582,27
164067454,2425125,112137876,948450,112095595,943324,572154,1952475,326711086,436453,168989122,21,15252,561230569,2246,2.3,1.89,98234906,92829000,4990000,118862776,27
543516336,2078535,336757141,1976678,333569779,1976890,558222,2725562,808934682,507351,543928046,84,22420,1629392596,1822,5.96,4.97,240763900,231343000,9013000,261543074,27
531161234,2249809,328466769,1729531,326128478,1653662,713773,3002737,818326458,562982,525887108,14989,47072,1593884451,2237,6.0,5.0,243847264,234426000,8978000,264589350,27
535656448,2223687,337907786,1980221,334225257,2140060,664232,2836662,828377179,639624,517869070,88,25161,1600911584,2236,6.12,5.1,246993056,239551000,7016000,268593788,27
164244414,2386132,113307127,972386,114024538,968292,534106,1864946,330170952,460513,166999162,5,14951,562903871,2244,2.41,2.01,97197004,90807000,6053000,118647149,27
182651364,2789414,129040321,1054463,123779638,1241723,765039,2301257,360886272,674167,170991880,80,28859,625365882,4140,2.6,2.14,108245709,100941000,6995000,129916079,27
528537074,2298492,328600096,1574238,327306588,1571434,466968,2418458,785793939,442712,520775698,52,22293,1574982903,1823,5.79,4.82,235463107,228127000,7003000,255342905,27
167656764,2174225,115752733,925061,114128139,907367,388030,1771813,301959181,450999,160392895,53,12294,563991601,1831,2.21,1.82,93582107,87153000,6010000,114866970,27
170543151,1717530,115697724,992394,111917375,994816,485281,2040118,305959707,486415,166763215,89,13647,590797922,1837,2.21,1.84,89475620,85112000,4005000,110547703,27
163691977,2433921,113808798,970661,113484078,968339,573996,1964440,321047204,429404,167712430,7,13991,563073108,2239,2.33,1.92,97745405,88466000,9047000,118852689,27
531157620,1852444,328988498,1695801,323814563,1725430,560196,2730791,785393791,511046,525536163,86,21300,1579291929,1821,5.76,4.82,230656096,223283000,7008000,250807116,27
163652231,2311622,113475395,713381,114302541,698321,533723,1955034,323553068,570192,161462720,88,18376,555762784,2243,2.37,1.97,95066754,91680000,3022000,116180018,27
166812857,2404089,113500830,969918,112022991,968707,583204,1984973,321228645,362598,172262895,21,15153,577736972,2239,2.3,1.9,98579309,90180000,8016000,119170942,27
163218841,2397540,112779123,954927,111302490,957803,582319,1973205,325420087,402282,169725949,62,16063,565807618,2288,2.35,1.94,98525485,90217000,8019000,119165970,27
169664521,2277166,114305089,1084460,112052013,1084844,640335,2101830,330722993,444722,174430733,20,65117,591885031,2241,2.37,1.96,101043649,87891000,12838000,122108691,27
179806170,2150151,119890529,1049200,113804699,1067414,668136,2276848,341257727,568340,169712816,116,16750,624768944,2437,2.47,2.04,102771837,93457000,9044000,123097128,27
528925977,2413702,327902044,1598605,324702620,1604653,740056,2884299,813299505,470098,528020084,22,23398,1585040607,2235,5.93,4.94,241786811,234468000,6984000,262827523,27
163583472,2421036,113079354,941463,111380823,941932,623527,2000470,326364942,418824,169651571,42,15500,569765981,2443,2.35,1.93,99160720,93780000,4988000,119705076,27
528799666,2491147,327746452,1627942,325227039,1628425,703419,2780589,808561480,431332,531962291,17,22658,1588530246,2259,5.86,4.89,240895817,234553000,5963000,262440019,27
434198437,16245526,160607132,508269,160454645,509757,156390,3516314,524450841,69690,429938606,275,8225,1459745160,630,3.94,3.31,157847603,152343000,4978000,178445492,28
340528059,9331435,282058151,1050829,280220459,1045222,166825,3441085,621708220,1759936,340244674,131,478977,1372808529,622,4.39,3.65,185801555,153414000,32086000,205598704,28
550546697,6588264,365575018,1090658,355971807,1086895,219088,2815691,720747154,1533060,548409607,1009,387115,1689678497,1123,5.11,4.25,216062725,186886000,28982000,236563788,28
636117086,6249159,490964610,961198,492513522,957123,216106,2935633,932818672,1557245,635720423,8,15604,2510084253,618,6.5,5.4,277868386,253641000,24060000,298536238,28
283720473,6020059,339453103,591945,342307510,582428,140705,2428732,480316166,65949,283499067,269,7842,1341903336,621,3.35,2.79,140788169,137470000,2988000,161795500,28
538718098,17320784,224501855,1012324,223319528,1006113,356647,6640372,855062089,1890907,527714155,388,285969,1762735293,2121,6.26,5.24,254976830,227713000,26966000,275914697,28
558489950,204325887,159997229,1036171,157358666,1027205,391173,23258396,2337747147,131260,562934030,456,33791,1713234379,629,16.28,13.53,683851141,680420000,2997000,704534102,28
562711118,16811278,156728803,519494,157086611,507510,142941,3309487,542323303,72614,548008345,365,10087,1447958590,631,4.09,3.45,162617093,159334000,3006000,183101269,28
539528879,16488351,222075832,813286,220131451,811211,255978,4094217,810015146,1510747,537234216,38,79866,1638462461,1117,5.95,4.99,240644051,211130000,29017000,260421065,28
349074215,6844174,331178064,720152,327875454,715929,214253,2801612,592119155,370449,343983535,310,21093,1919958088,2116,4.1,3.39,177843149,172594000,4988000,198028714,28
434612468,16916526,283397703,697941,281330653,698249,152450,4451959,414907281,220142,430355732,50,469208,1212223647,808,3.11,2.62,122186104,120909000,999000,143221951,28
427011386,15974883,169647341,517904,169345039,518915,151503,3465820,537433937,65422,428415130,278,10312,1484392923,623,4.1,3.46,158768253,154518000,3987000,178381892,28
452788484,16055543,173279998,772719,174094740,768016,182293,3943300,709180573,1388749,460932630,1920,315521,1403021310,630,5.22,4.37,211648598,179398000,32071000,232037169,28
588944968,16407539,177159082,783950,177228765,777607,173885,3676631,751468594,1740056,593386708,1081,307950,1552611005,631,5.61,4.72,220870747,195404000,25051000,241706536,28
534813085,16255708,344992700,1090672,342378198,1093026,177056,3631846,731821965,1626633,534440580,150,456190,1636136209,622,5.35,4.46,218827849,190550000,28081000,240216327,28
653256830,16833699,215751234,811610,214645580,801909,183755,3681968,821617808,1272853,638879362,364,218083,1719344234,624,6.06,5.08,245107431,214768000,30107000,265534157,28
534521977,16861643,220599791,1010963,221095655,1010627,253426,4739682,853520356,1554333,535768881,313,307786,1755719600,831,6.34,5.34,249624416,225350000,23931000,270579964,28
589297217,17246931,181068598,785178,179924321,774021,332106,3860957,754398073,1630614,563398538,2443,248682,1534232294,3373,5.6,4.72,220732894,196440000,24053000,241654550,28
422841292,6737801,363274553,1062746,360361616,1062732,167511,2758241,691462594,1734693,409549956,1275,323814,1547601978,642,4.88,4.06,206705064,179353000,27053000,226188498,28
530859451,16281727,220431304,1044328,221309824,1046140,208953,3628609,914125960,1599482,531753595,126,411338,1750973834,622,6.72,5.62,272500603,247180000,25018000,292521012,28
544823255,16441066,346943805,866721,339245704,870730,222718,3698934,664353558,1441195,541815359,15,90517,1392227051,1108,4.85,4.05,199343892,174944000,23992000,220489509,28
935350063,16745525,162854921,912197,159509919,901946,341975,4531207,1896218662,143750,932377232,167,24814,2210864619,644,12.63,10.4,559208963,557852000,1001000,580042444,28
572179424,6292926,382183308,934252,385228269,929290,190043,2876288,852646858,1311572,578465185,67,13478,2206266676,622,6.14,5.13,249473361,233145000,16010000,269310809,28
346783393,9627400,222692272,825212,219946388,819850,146613,3376337,538214700,1473889,340743953,73,9959,993261244,623,3.88,3.24,161800093,142549000,18940000,182782561,28
442151283,16811068,288377379,590856,281797265,583949,123867,3172615,393017669,63389,424996390,42,6926,1209996197,623,2.94,2.46,119149671,113896000,4995000,139909469,28
369403197,6310340,352163960,858179,356891750,859934,171971,2614777,676222902,1202303,377442439,587,313725,1488575114,633,4.81,4.02,198294326,172065000,26009000,218577702,28
452671479,16279444,175082113,756249,175504009,752847,168800,3831904,705742205,1248432,451793646,2132,292696,1387356027,630,5.26,4.44,207471128,181158000,26022000,227685739,28
387803591,6363465,405457514,884349,401369152,887131,204377,2948051,757559326,1618526,389498252,5,11344,1725075137,822,5.33,4.43,225660009,201291000,24034000,245419320,28
374406675,6711980,596482337,1012386,590272346,1012524,220692,2992390,1057468284,1548341,372325700,1846,259130,1986542404,631,7.21,5.95,315703495,288406000,27038000,336401244,28
582194560,189980861,175312974,1090666,175479864,1090369,234902,5175696,1146939549,1335682,581028492,1453,16479,1653557879,630,8.53,7.17,339033138,311764000,26979000,359183822,28
456102840,6757645,412086949,902435,405958324,902479,239611,2918415,794611783,1490682,449879942,2,285463,1730420113,1117,5.6,4.66,237772396,200651000,36752000,258875583,28
543839979,223460722,364313643,1164888,362686602,1166600,224409,7699108,1110832831,1925497,538347900,1526,309693,1836981167,628,8.3,6.98,330225401,300864000,28986000,351213405,28
437464364,16678313,282553125,586735,277771569,585283,133891,3198536,389753301,57901,436354500,43,7031,1213064358,628,2.89,2.42,117902299,114737000,2993000,138374667,28
427536466,16454309,168881005,519799,169675766,515030,147838,3589419,538954300,67499,428734404,52,10363,1486498078,633,4.09,3.45,161421121,159157000,2001000,181871059,28
557742760,16763667,158814577,702756,158240533,706185,162730,3480486,559567076,70086,551263632,95063,9016,1447234044,649,4.19,3.53,166588641,164153000,2001000,186419061,28
526734473,55063849,418925759,1051920,415699937,1047174,411045,8375298,1282934254,1550463,518679741,274,227083,2064975349,1999,9.02,7.5,377440125,349069000,28005000,397412497,28
563384298,16727622,157799008,513708,158779982,515044,161294,3301323,545136011,67643,556421119,58,9182,1453716706,630,4.2,3.55,160234046,157756000,1996000,181192374,28
428776896,15966945,160148763,512432,158731407,505847,151468,3668094,523353337,62102,433370319,3,7724,1449692030,643,3.98,3.35,155642828,152354000,2987000,175427601,28
309076757,6294331,356051446,856279,351981115,857170,169971,2717475,676570627,1332465,313478718,353,289491,1635686571,623,4.77,3.96,201126267,177750000,22967000,221421695,28
538627680,16585612,345363026,884609,341770901,881101,171608,3542342,695043811,1455245,535394196,22,308397,1382958893,624,5.05,4.21,207852704,175750000,31774000,228824636,28
429950507,16114404,158901389,502912,156875092,500162,146015,3631845,517017489,73958,427870817,12,8423,1442318435,631,4.03,3.41,151858516,150537000,1003000,172333735,28
427719738,16163806,157357940,500177,156554701,500905,145537,3725279,515793978,71517,430417612,3,8520,1318306104,623,3.98,3.36,152108152,147860000,3969000,171343630,28
387225798,6255143,408049076,870032,403365391,858066,224913,2850235,785252263,1552722,387241173,159,312275,1720238531,1107,5.61,4.68,230742374,185420000,45102000,250947984,28
824844155,16371387,424372300,1075510,425355552,1066635,215766,3489733,991113441,1295791,826657639,1290,329667,2380806232,630,7.35,6.18,292898517,269586000,23050000,312816879,28
428939821,15855070,160481579,523009,159131065,512571,154032,3604552,518812771,61442,431656988,33,7657,1446079690,636,3.95,3.33,155205663,152953000,1999000,175742514,28
431313385,16009808,160757416,512690,159597138,512895,152822,3527615,521371893,67718,432031560,93,8115,1454311621,629,4.0,3.37,156394476,153023000,3000000,176599167,28
249065604,9717532,160582730,740582,155830624,741082,112242,3390686,253574931,66114,242491925,162,5708,707953121,658,1.87,1.56,77438879,74119000,3004000,98190770,28
456842527,7120127,457920104,1008311,451331846,992331,335066,3187382,795605173,1935436,452876747,225,266664,1649795986,1640,5.56,4.62,234479082,207087000,27011000,255809827,28
432565068,16154523,161013633,751485,159084470,722457,151876,3637178,524879129,67268,431600704,180268,8103,1326090434,630,3.98,3.36,157188747,156698000,0,177902347,28
434554267,16631334,176050412,595370,174250514,595442,139408,3176217,452003303,66077,423112371,132,8578,883405996,631,3.33,2.79,136390336,132106000,4003000,156107286,28
434167032,32803895,160456038,557618,162169607,562870,1056728,15608021,670840109,518934,426970215,110,10783,1448252171,1121,5.29,4.45,200737312,198437000,2004000,221301318,28
431148599,16023545,160850666,516601,159786214,509926,147104,3547811,520368112,66828,433146631,1,7516,1455752470,642,3.96,3.34,156629120,154296000,2003000,176881017,28
348535539,6433431,383218944,652349,379176926,646944,145785,2397919,474086719,58269,347070931,1,7008,1333096202,629,3.31,2.74,143131648,139956000,2999000,163612818,28
432919405,16178625,159809652,504442,160151741,511002,147808,3413764,524881883,64248,431223343,26,7669,1458495037,623,3.99,3.36,158158992,155862000,1998000,178001825,28
351325425,6563446,347721910,610553,340236737,613032,144138,2343668,479437817,69992,345770143,149,8381,1425469473,629,3.45,2.86,144831034,141493000,3010000,165553510,28
586486217,16427723,174282182,774532,173858102,772394,177908,3577298,726008562,1251183,589697489,1560,30637,1552757778,629,5.54,4.67,212998781,189757000,22970000,233356102,28
527144217,15940991,219472519,1011961,220104380,1006746,199026,3951448,808280301,1019402,535348672,4,332956,1745446492,623,6.02,5.07,239781031,212513000,27065000,260312458,28
345941068,9504036,218945487,1037058,217003955,1031074,153032,3484605,561124351,1639572,344745706,33,473180,1003875710,624,4.08,3.41,167066399,135001000,31765000,187841797,28
428251450,16464722,169998671,497560,169810101,494159,173971,3648013,540073198,79237,428709720,24,9535,1490524183,1062,4.13,3.48,161034903,157745000,2995000,181145499,28
562686772,16774739,157176544,524322,156172303,515632,151236,3340398,547226239,70612,546375819,46,9122,1449614780,631,4.19,3.54,163245120,160023000,3000000,182656806,28
508719169,6669338,529984182,1154273,528750196,1145088,222366,3354100,920863968,1460281,510648402,29,483373,2085807126,637,6.58,5.48,273997245,235716000,37954000,294336313,28
448156154,15772249,289783475,842617,295197486,840119,152234,3645474,569797542,1145968,464816429,1531,170603,1146725627,633,4.24,3.56,166817722,144498000,21923000,187879626,28
452104188,15912589,174066975,965630,174898944,959261,177444,3847535,712551560,1298619,458850427,470,419240,1402007840,633,5.29,4.44,212028273,191883000,19987000,231456072,28
227352383,6562970,264948006,682435,262454222,679472,139083,2222228,502361159,1268702,220952300,1547,316216,968258548,629,3.56,2.96,150157711,121157000,28799000,170481346,28
447649955,6320491,399446964,1092020,402620147,1086264,177770,2714219,772105783,1311716,453435136,113,161269,1705140168,623,5.56,4.65,226029544,202849000,22982000,246245798,28
306831382,834695,405338082,1088664,407170673,1093032,145305,924740,514688732,54461,305388445,2,7515,1205177434,644,3.58,2.95,154147058,151927000,1999000,174871406,28
437301050,17400431,158745323,509353,159767599,512458,202217,4299598,542831632,279039,425746274,90,11303,1458137977,1546,4.14,3.49,161755897,157502000,4012000,181714974,28
451927664,15764134,172733810,759914,173426524,753981,170201,3762552,716959768,1211940,460842082,348,316901,1527111719,623,5.48,4.62,211169437,184873000,25982000,231090570,28
284319610,6596429,395115169,621637,389287275,621389,140413,2332811,489626418,73104,280324942,31,8747,1328496654,628,3.48,2.87,148067144,144705000,2993000,169495864,28
534031228,16101358,337669250,873523,336702491,878453,175481,3708748,680818744,1355698,544186068,110,195532,1380953477,624,5.08,4.26,199516181,167184000,32035000,220440813,28
533396306,16850990,346409903,1123325,344415776,1117704,282471,6036943,718352282,1953231,527561530,196,504618,1497098271,1119,5.32,4.45,214499097,182209000,32036000,236676269,28
350768045,6560750,346433301,617409,340177377,624486,146995,2357716,480655196,67463,346807258,332,8323,1423432983,629,3.46,2.88,145141260,141900000,2976000,166153650,28
531339585,267997415,221610534,1045555,223598586,1040771,343979,28205420,1625412816,1683404,534911371,170,327436,1868783058,1082,12.54,10.6,479411664,449144000,30009000,499957085,28
432836390,157921209,166180947,989389,167468502,974377,543218,25023183,2238842759,755488,423863704,196,36493,1693779500,2090,15.84,13.14,660945347,656538000,4003000,681143898,28
430346655,15846423,160606937,523359,158629275,535704,169410,3762446,524123993,74256,431882758,8,9704,1449898366,634,4.01,3.38,155037026,151753000,2995000,174940116,28
558084391,16047505,278787381,602515,277100679,605205,132200,3259121,426409598,58008,570000177,0,6399,1334852897,631,3.26,2.74,129155941,124926000,3997000,149272116,28
528672610,16222185,219027165,987084,219670106,981427,181954,3876564,827051659,1529864,532494702,53,514978,1745258944,622,6.2,5.2,246181856,213877000,31981000,266405317,28
427331883,16022907,158706634,496005,157148803,494696,150544,3522633,520785095,59183,431250996,1,8332,1437782819,629,4.03,3.41,152862305,149617000,2992000,171020030,28
289411651,6676821,238308156,452820,234615721,454296,185076,2295111,443587433,92299,282019230,77,11030,1083643432,1126,3.36,2.82,133738148,130471000,3010000,154209181,28
575330119,16059602,297577325,1056073,299982126,1038124,155443,3430641,597696394,1417474,575900221,2046,135220,1269575541,629,4.41,3.68,178653353,158406000,20051000,199805747,28
93223686,658273,62040520,114154,60667524,117056,342490,898790,147365409,120968,85626990,94,20612,328718012,3878,1.05,0.86,47264498,38917000,7983000,68763080,29
73687903,245559,45558898,88748,42544215,89063,196516,596234,100490764,71833,61362307,191,10403,228857827,1959,0.73,0.6,33188381,28029000,4832000,53370323,29
74219320,319689,42401473,87109,38144150,89335,204307,579431,100975287,72206,67918179,15,5398,249898758,1958,0.74,0.62,29586950,26266000,3030000,50353564,29
173405845,644853,104718248,636926,104642613,635516,268436,1196619,575500777,3062857,176603380,207,556157,555616763,1950,4.03,3.34,168739851,106267000,62156000,188689791,29
91471014,1182178,60562327,108788,57801534,115128,365659,945458,155752462,140626,88636733,165,22769,332811054,4135,1.15,0.96,45065129,38782000,5966000,65256451,29
126309168,639957,72686951,121439,70444329,122691,254692,784424,186300873,76785,123317864,171,13804,392107083,2596,1.33,1.09,58496319,53221000,5020000,78568530,29
69911394,428701,47813365,95785,44682839,94437,223440,735024,111206398,108645,64105095,87,14214,239117349,2929,0.79,0.64,35585497,29249000,6051000,56408338,29
90049266,1330279,63782515,135476,65597348,133360,319559,795340,176187988,106506,92673691,147,33223,322457545,4289,1.26,1.03,55632650,42130000,13040000,76618636,29
72285988,261921,46264798,84445,44235338,81913,219996,615983,104100523,94920,64221385,63,10226,233987909,2154,0.75,0.6,34237580,30902000,2990000,55590571,29
73279256,423888,40891650,84592,38378549,85356,204536,591022,100958683,78264,70017214,166,6022,248580899,1957,0.73,0.61,29433303,24116000,5024000,50040471,29
47909489,575468,28300986,85505,26885880,83101,156782,399378,74673711,70102,45613170,60,8420,162441454,1957,0.52,0.42,24778049,16626000,7824000,45198759,29
121199843,553089,72249382,113353,69937350,116036,191063,578818,174180757,71040,120819793,31,5997,378377957,1951,1.26,1.03,55149478,47993000,6856000,75620667,29
68284084,557377,53952212,99443,53077223,88836,153704,457549,127703018,67740,67725881,88,6022,289497743,1954,0.93,0.78,37302067,31897000,4983000,57428247,29
69994159,546045,55375845,103708,51878221,107930,196061,496081,128620274,78016,67770795,35,7885,286470690,1953,0.93,0.77,40306347,34019000,6003000,60252291,29
90071543,684650,59506297,104814,58808469,104299,343862,909943,153289530,118722,85434906,95,23890,326283648,4137,1.11,0.91,48192103,39983000,7996000,68409512,29
93259014,1051389,60676953,103812,57912346,110153,393165,984239,158070888,130922,89984336,48,22627,339992979,4527,1.14,0.94,45912890,37530000,8114000,66455332,29
68620517,456682,44791669,87548,43219641,84036,223119,685659,105034267,82032,63154062,73,12836,224097930,2605,0.74,0.6,34669897,28321000,6068000,54827421,29
91704547,633881,62618740,102320,61659286,109952,311448,833163,143718363,131766,84954107,212,25559,325845129,3686,1.05,0.85,46442704,37119000,9029000,66770418,29
153175685,1877298,104633386,168214,102227199,170391,754591,1538647,280700832,291935,147555387,83,42119,512888134,9537,2.05,1.69,86764561,75401000,11058000,107763089,29
123380055,555491,73637290,123302,70593107,125457,200325,708413,176137582,71019,119298948,31,8505,381655674,2145,1.25,1.03,55393100,51164000,4012000,76239655,29
69887511,434524,44858311,90940,43039612,82826,218891,677321,104700286,98568,62734850,86,12226,226734718,2605,0.75,0.61,34172316,25796000,7937000,55408869,29
70183164,397682,45547689,93677,43590918,91508,234868,716649,106423991,83682,63275193,101,10650,229142105,2603,0.77,0.62,34341609,28998000,4999000,53883593,29
69189421,251686,45054372,87519,43442666,86292,196934,679467,107642020,82249,63479754,215,8836,229633409,1957,0.77,0.63,34417319,30122000,3886000,55359840,29
126715864,539437,74091007,114282,71096935,117752,238345,718281,181040972,80998,121171900,17,9811,386356770,2145,1.34,1.1,56938554,50603000,6072000,76583124,29
73753135,327227,45555016,80776,42849923,85202,232321,678898,105336247,90165,63539358,96,11405,231166059,2603,0.78,0.64,33277366,27065000,6014000,52563072,29
125999920,1334403,82153124,134433,81752698,132510,483953,1187511,230325517,234693,119468748,85,43126,409489729,7419,1.68,1.38,67365861,53078000,14020000,88057082,29
91739925,786407,63036779,108918,60582532,106582,366954,956341,154399504,138442,85092535,76,29252,327765479,4528,1.13,0.92,48552382,38150000,10039000,69155546,29
142819868,1173571,93587013,129697,92685882,130647,312164,881347,223254749,132766,134472210,28,19364,473803616,3679,1.64,1.35,69866400,64465000,5036000,90493196,29
90756093,1077248,60111044,109944,57751000,112971,347080,846718,149955607,134822,87689084,27,23251,328371051,4136,1.11,0.93,43889369,36674000,6938000,65374879,29
143976177,1175014,94151321,130108,93616291,132185,311338,896176,225738532,120070,135307803,37,22061,474897687,3482,1.67,1.38,70407843,66127000,4007000,90665649,29
71933403,414455,46268691,83926,43913573,82596,168411,649367,109968868,68394,65271015,79,6979,247627282,1958,0.76,0.62,35517720,29091000,6018000,56353378,29
125031298,560531,73910523,116233,70959059,119069,246266,727458,180290939,73598,122190202,8,7170,392728938,2146,1.29,1.06,56369920,49100000,7014000,76567720,29
119406402,728954,74371791,110466,76590618,110871,173614,618017,183918567,110029,118951390,27,14877,372664893,2145,1.36,1.14,54509887,46131000,8022000,75481209,29
75539568,293104,42575922,85260,39321210,87490,209274,569226,103198290,71559,70620718,5,5655,254677218,1959,0.77,0.65,30074819,25804000,3969000,50915260,29
234825401,9497045,175823222,372171,173762589,372184,4548048,9174545,734979344,1697112,240272846,137,203023,926361899,60904,5.33,4.39,217753745,124208000,93156000,238456362,29
123790906,579658,73025193,123914,69924179,128108,220971,727987,177766653,85513,120310814,28,9286,386585810,2600,1.29,1.07,56140477,52711000,3041000,77763868,29
139917459,1260349,91032827,140582,92565094,142226,347671,1133357,244564371,129952,140930048,59,34513,460315533,4715,1.8,1.49,75531405,63236000,12045000,95150247,29
214546105,22636429,150619581,712962,145963587,744210,2526339,7273677,759613205,3377316,213167276,10050,164196,773434405,37389,5.27,4.36,222601656,162228000,60084000,243463720,29
157604008,14732841,112841503,1179584,112549609,1206555,781667,1787908,452785145,1876637,151981151,9465,45402,534763516,7261,3.14,2.59,132882068,115589000,16939000,153897962,29
74014906,215303,45341738,79987,41738102,87553,215082,611114,98936584,78630,62276321,91,9856,234129788,1958,0.71,0.58,32200956,25705000,6169000,53271170,29
98990071,1638568,67826570,123878,68766783,122142,371691,956595,171793234,196937,92327322,17,37484,340743716,5852,1.27,1.04,54245489,40908000,12970000,74717964,29
70211424,347932,46984506,92502,45476639,92539,220641,660389,107087187,90749,63180513,126,14784,231827106,2349,0.74,0.6,34558231,29157000,5027000,54223839,29
122193735,571091,72986138,113880,70207055,123657,203486,693501,178875176,75494,120215520,119,7733,382284961,1949,1.28,1.06,55899780,50535000,5053000,77248023,29
91086457,676995,60857258,112449,59594342,110070,360857,967155,149082424,142492,84637090,180,22009,324971836,4134,1.09,0.89,47441176,36999000,9999000,67557447,29
169682888,7824886,110559136,316477,110230950,319000,472312,1177656,345102792,169989,168991089,1536,40126,549222926,4850,2.43,2.0,104251250,95798000,8067000,125709110,29
126108101,489711,74033157,113574,71038591,117508,225239,700861,179712923,82493,120082959,28,9040,386600837,1967,1.29,1.06,56737126,54405000,2015000,77133450,29
75661841,186806,46156144,82017,40422996,90575,187946,594356,102040274,93291,63258937,34,6214,246373757,2055,0.77,0.65,30381209,25975000,3996000,51074981,29
189353886,983284,122314044,636064,125911830,633382,355537,1340343,576917201,2754192,194956608,133,111650,630905829,3483,4.1,3.39,172556053,123170000,49067000,192834253,29
92361583,741580,60996356,106182,58127300,104796,326227,854604,157374543,159424,89570675,76,24127,333171892,4136,1.15,0.93,49215781,37707000,11210000,69928792,29
95432710,629775,62878155,107556,60454928,114991,298103,893543,149561976,141243,86640107,166,19359,336922933,3489,1.13,0.93,46619974,36432000,9846000,67123153,29
71371206,690163,45790134,104124,45615113,95615,197970,579842,114204969,106131,65980291,135,12955,244483269,2596,0.82,0.66,36847298,30401000,6080000,56370997,29
75111827,203293,45639135,75464,43041987,82925,205201,602592,99457248,94440,63407715,67,10497,230476580,1959,0.73,0.59,32740747,26495000,5887000,53386025,29
118269936,761265,70530610,118993,72432140,114377,180237,657004,187499797,89907,121392236,3,20687,375183298,2990,1.36,1.12,58553949,50236000,8037000,79058332,29
89452501,739431,59390449,106432,57670524,105613,359845,940324,155913805,139969,86161737,78,20647,328795977,4136,1.13,0.92,48810350,41473000,6912000,69368525,29
72192577,221710,44876177,85057,42473010,87072,216985,627051,101403375,93673,64150442,69,9347,228652257,1956,0.71,0.57,33312017,27942000,4989000,53272664,29
121614757,544654,73010118,117591,70288757,119049,186370,583228,182325572,74268,120166248,76,7050,384074368,1962,1.34,1.12,53071771,49762000,2985000,74541011,29
174775914,723732,106150284,618410,107974641,621882,219079,1025119,534841820,2310438,180409616,56,152564,555519704,2368,3.82,3.18,156865439,107348000,49159000,177708302,29
68600136,386969,44831272,82680,42793324,81869,210044,657092,107391485,100003,62587059,87,13026,226396402,2604,0.78,0.63,33995100,25714000,7912000,54755104,29
72268169,678146,43899160,96003,44486566,93505,221935,720722,113008808,123946,62554265,82,15513,238931363,2995,0.81,0.66,36176687,28844000,6962000,56543052,29
91799931,648522,61686255,101866,59616602,110010,334954,886710,145956980,120424,84641396,60,19246,325994311,3487,1.09,0.89,46337546,35023000,11007000,66777652,29
87042001,831468,51681424,111564,48288997,114341,612382,1448011,150540749,179503,77046159,62,46531,297912708,7466,1.11,0.91,47140076,30906000,15951000,66907071,29
74969175,219984,44622069,84512,39395999,87349,204961,558838,106435672,71683,66616876,27,5913,252476074,1958,0.77,0.64,31248816,27827000,3091000,50777324,29
126550354,422564,73610593,116635,70263734,118414,237210,778418,181470198,96071,117711750,469,10997,376798756,2597,1.34,1.11,57887045,51604000,5954000,78469139,29
75840755,203903,44211742,83174,39650867,86208,210911,589603,101500005,96619,66196670,37,12093,248040868,2054,0.77,0.65,29904610,24551000,5114000,50439108,29
147712232,875645,96643990,134162,91937682,139698,330468,1002371,232781294,135653,140280893,28,17350,481221044,3484,1.77,1.48,68057897,58598000,9092000,88495848,29
124103715,718938,72592370,121123,71937210,122596,231698,704246,188914564,92196,121750340,29,14065,392187542,2598,1.42,1.19,55819352,50512000,5051000,76157261,29
124438386,538265,74772666,113035,72025518,115203,219170,790040,179739746,88291,120760323,33,10161,390324785,1949,1.3,1.08,56083918,52870000,2992000,76259820,29
68923697,384556,45073616,89409,43236546,87442,182029,706391,103490943,93970,62857307,75,11552,224310925,2603,0.77,0.63,34014653,27589000,6131000,56296911,29
119217043,568230,73307887,116458,71321830,113566,164186,569485,181330707,87741,118923998,89,8392,381826914,1949,1.35,1.13,52825513,48461000,3956000,73333472,29
126970544,437486,74330544,117092,71597076,120259,242167,726073,184601372,92818,118875759,125,9309,384149807,1952,1.38,1.14,57554897,52085000,5008000,77877478,29
73379608,223088,45236619,82702,43168054,93053,225871,640094,106136626,94758,63619061,109,9505,236242831,1958,0.74,0.61,32683256,27293000,5054000,52773401,29
144992337,1240355,93648090,138715,93677118,139648,307682,914462,232905085,153587,135805514,30,29214,472856923,3872,1.73,1.43,71505997,65080000,6007000,92035681,29
75374725,305827,44697299,85115,38056220,89062,242262,672690,105673257,119759,63548681,62,9042,252453846,2993,0.78,0.66,30826797,22401000,8145000,51150314,29
91872738,726531,61354322,103705,59519992,112729,319846,883852,146785365,128936,85671493,155,20493,328849648,3489,1.07,0.87,46531630,36117000,10032000,66749451,29
121339991,544961,72330059,113617,69581438,115039,200016,670113,180022470,68327,121923673,17,5468,385783597,1950,1.33,1.1,55504957,51153000,4012000,75530183,29
92635948,633016,63957141,108504,61964679,106559,299260,908831,152361389,151020,90142379,80,22272,330883695,3684,1.12,0.91,48458401,41039000,7006000,68734912,29
73252726,257793,45709419,89551,42646901,95736,196550,558632,101833977,81343,63503076,88,7099,238246532,1954,0.73,0.59,33496271,30198000,3019000,53829683,29
71863895,337764,41317262,87051,38843328,96324,206074,580948,100901113,76412,68218578,124,5962,242755812,1956,0.73,0.61,29249606,25970000,2996000,49153036,29
123448656,564472,73877126,111804,70585983,115816,206834,699632,176437362,91309,120950139,35,6763,387143022,2086,1.29,1.07,55749268,51506000,3962000,75800692,29
90671812,844999,61367839,103214,59073444,109553,312388,845290,148617474,114969,86501126,43,19700,331056856,3490,1.09,0.89,46077772,36821000,8956000,66929886,29
243953081,4721853,158359238,3920861,159604052,3936736,635531,3411266,501598098,420812,253974885,359,31634,890363564,2574,3.66,3.05,147224284,142824000,3995000,168569828,30
278949915,4964094,181913977,4847594,181184319,4837526,697415,3643851,573839239,495681,278754765,1100,110638,1024374535,4611,4.18,3.49,169852873,157476000,11960000,190807320,30
222417021,6898842,152251914,3700518,152345407,3710824,698348,4661490,490688887,630619,220382611,32,30769,802931871,2185,3.48,2.88,147963211,142692000,4989000,168163526,30
417148616,22899862,215173912,7618433,213732263,7534312,2547076,14144234,1053740771,2859797,419542684,305,32647,1509976137,5214,7.62,6.32,311746876,302440000,9013000,332318507,30
316971405,4541373,214341320,5101690,214969701,5089641,579405,3520187,644472845,397519,319988374,176,46726,1274412591,2572,4.7,3.93,189947770,183569000,5985000,210844160,30
288247832,5161937,184488402,4094964,183196082,4105157,624694,3614231,689894288,1762960,292975301,356,71898,1041380029,2572,4.97,4.13,206457087,179173000,27026000,226868122,30
339196261,10638169,227033742,6583511,226039602,6555016,1137463,7593751,769905463,1480601,341616238,112677,41343,1274028004,3502,5.63,4.68,229835467,215442000,14028000,249389110,30
227314751,4327041,148198457,3496564,150338575,3555149,472666,3157606,460914954,393503,235047960,410,21618,818568866,2379,3.37,2.82,135149934,125777000,8984000,156107651,30
820672020,14641248,501982475,6460145,503065195,6463582,3544162,11360083,1751257624,2869661,822930904,2143,606189,2515885165,7160,12.48,10.37,515697400,478437000,36956000,536670103,30
458048636,10786252,242225578,6839126,242056284,6809105,976738,7337881,910234577,1519651,458126155,232,41305,1615181605,2377,6.67,5.56,271744933,266372000,5007000,291853203,30
222696257,13256473,195280775,2818112,195532559,2828536,1638598,8531807,654111832,2721187,225730754,248,51085,987715920,3402,4.7,3.9,191915403,186520000,5013000,212156636,30
331442325,7631340,199867612,5068025,200141571,5101802,808446,5468484,700393397,720395,340761338,326,33402,1292775191,2965,5.14,4.28,204534238,198311000,6009000,225433134,30
227473175,4441633,162045217,3771776,161029411,3760093,627089,3314777,475330927,352836,232149399,163,18179,852984061,2577,3.45,2.86,143428690,136129000,7006000,163735390,30
408306769,7890813,239848144,7456005,240156443,7490653,810573,5690157,834709309,1028899,405415772,480,36572,1469278594,4624,6.02,5.02,248535003,237215000,11010000,269416694,30
228219449,4232127,149890280,3857053,149218672,3856974,603106,3200664,468926402,363068,234191067,1,14102,810218563,2575,3.42,2.84,141311399,131940000,8995000,162118753,30
297050277,5803854,196138612,4149654,191532896,4064579,1380302,4731499,763006657,1940203,295470218,141,187193,1063269130,11862,5.51,4.58,227404635,184056000,43013000,247745618,30
383038966,12982956,232257538,6136780,232186762,6147991,2221460,9573568,876693376,2279505,384121097,473,65570,1385473030,5073,6.27,5.2,261762719,250318000,11014000,282828406,30
307320457,6037092,193062667,5492158,194585868,5512717,776847,4283946,821901433,2232378,315774773,97,320938,1161046952,2964,5.85,4.88,241031869,203829000,36969000,260981719,30
804993536,9337865,472103609,5320418,472602088,5322321,1893907,7354691,1473299000,1943964,811242745,385,390248,2482210319,6618,10.55,8.78,436387734,388186000,47899000,456465685,30
354829076,4413168,217201869,5467543,216320510,5457787,623594,3539637,665144177,609845,345057426,12,32845,1248136721,4040,4.82,4.02,199064543,187823000,11048000,219622666,30
885020801,14821759,481249620,6552141,481393097,6566245,1369490,10023471,1612955721,2895856,887473759,15721,342671,2606129241,4037,11.68,9.76,474683040,435372000,39033000,494622929,30
844574707,15375661,481574132,6637929,482933271,6645384,1302799,10020678,1583801436,3174023,849946581,2334,462983,2575029809,4036,11.49,9.6,468666570,436330000,32024000,489092642,30
380526507,13690619,219860958,5368756,218408510,5332306,1147038,8117241,900831626,2547883,388959279,166,125168,1339427161,3847,6.48,5.39,268332086,239045000,29005000,288878153,30
383573928,25276766,182949848,4933551,180776684,4954821,3675711,15472575,939114320,4370944,381011531,609,34769,1165904744,5605,6.73,5.57,276659730,260377000,16023000,296332788,30
414340578,6038727,212901212,4466276,211766462,4410710,1201272,4786558,904183066,1964111,415267034,37,248982,1307452535,4620,6.62,5.51,269847277,224395000,45079000,290695711,30
211981605,4656870,136706517,2228996,137679050,2235948,570543,3336240,401839588,419448,203938454,388,18652,747423701,2964,2.93,2.44,118242893,110905000,6994000,139087294,30
247841249,3593143,167151534,4283442,165159820,4240718,552514,3051721,524080387,406852,241721827,10,34349,954340523,2182,3.87,3.24,154008187,151541000,2007000,174127536,30
681792544,7444015,418216809,3517586,416729885,3478035,693001,5727228,1194984343,2098344,677133060,259,484888,2014064572,1690,8.74,7.31,349367878,311989000,36998000,369818629,30
259053356,7595433,169260639,4182207,167500750,4139388,890430,5122153,728076704,1863497,261886194,473,306647,916899657,4042,5.31,4.41,218585905,183175000,35033000,239053044,30
246538274,4423243,160106131,3517041,157399972,3482943,690251,3482257,499211273,376181,252098276,83,16324,887648679,3650,3.64,3.02,150111538,137742000,11977000,170707214,30
278197070,5523832,174946000,3993308,172976711,3920515,1052950,4204403,556671838,576114,282286072,1,22362,971009888,3601,3.98,3.3,167199909,158790000,7989000,188204637,30
232134070,3855840,150735449,3418353,150174114,3417782,480367,2861468,468942715,327852,243177505,26,16985,841589198,2381,3.4,2.83,140777378,129438000,11037000,160097887,30
229222980,4511727,151856882,3544617,150248244,3531921,650831,3392242,479567992,373596,232821817,61,16018,819283894,2963,3.46,2.87,144052378,136859000,6942000,164237299,30
427780727,18659209,264153184,6156605,263339132,6103593,4543714,14420802,1090490957,3399198,428771803,1965,64606,1340639319,7165,7.83,6.44,324460364,307138000,17007000,345201715,30
314354848,5157160,208845863,4088639,210541795,4070427,594059,3626459,633030425,395947,321252201,65,33807,1127593866,3651,4.63,3.88,186600988,178290000,8013000,207039328,30
247578226,4708973,169133655,4176813,169417187,4085403,734345,3661754,521992442,504820,239641006,3,26476,900352621,3651,3.75,3.12,156022757,146615000,9037000,176190758,30
736971621,23123314,442944527,9136072,442941985,9121788,5123169,15922919,1776846949,4529757,738649340,1285,428125,2365115986,6779,12.64,10.46,526220895,491942000,33927000,546414658,30
214942316,4763106,199306727,3905961,198488242,3830632,669499,3493307,522280112,456130,211805164,125,20828,993674857,2375,3.76,3.13,157737847,150500000,7023000,177548133,30
317187607,6502724,210309179,3938700,212346148,3930157,821044,4389575,712194660,470929,329254951,99,33475,1346093564,5048,5.18,4.33,208165779,196951000,10941000,228264040,30
448893089,14139017,255352702,5995676,256497424,5934778,1267530,8779066,1036724022,2800464,440523176,213,196353,1530069791,4042,7.53,6.28,308909231,273559000,35071000,329906894,30
630807941,14766145,320692261,6672494,319798809,6663869,2084635,11306976,1288833535,1613036,626561294,685,44192,1985053163,5607,9.33,7.77,381411807,367948000,13033000,402301462,30
326306218,7677968,193278259,5741067,195495351,5611437,837397,5616112,670132676,854515,319184303,122,39445,1152469808,4044,4.87,4.05,200839386,189549000,10973000,221169232,30
216045750,3940501,146681228,3613330,144230671,3514305,674205,3110684,465245876,366513,225597813,120287,18506,777792708,3849,3.36,2.78,140559776,132200000,8012000,162013418,30
285677181,4908063,184773440,4168894,183879984,4156979,650961,3673860,712953514,1690425,291050784,91,326963,1056440796,2571,5.13,4.27,212595046,183268000,29042000,233884586,30
312757810,4801188,201873873,5002619,201783280,4983311,689928,3731385,626462089,461951,313458078,43,49033,1221928155,2576,4.56,3.8,188212134,181890000,5996000,208753120,30
242000404,4246754,157971281,3622830,155578374,3597030,638808,3354936,490827567,349358,250465675,172,17096,879855011,3456,3.58,2.98,147624956,140310000,7015000,168007586,30
401085149,12391763,240374340,5438216,239868867,5405294,1300041,8469431,863464261,2128380,400775354,135,54177,1488224408,2968,6.32,5.28,257187218,247818000,8993000,277859159,30
217407175,4388381,144101796,3343384,140262400,3334483,663275,3395186,459908244,417089,216706389,1110,10716,780161943,2963,3.37,2.8,138308868,132939000,5035000,159479009,30
254183809,13704212,193041304,5794480,193633362,5852396,1971415,8744386,783349082,2506354,262202035,261,31744,1062490907,5772,5.53,4.56,234319123,221143000,12949000,254449444,30
744089838,4671051,460405185,5532561,462630300,5540392,641042,4139763,1350340279,1918926,743975773,1468,475752,2320747381,2568,9.8,8.2,396772793,357415000,39045000,417061471,30
223818888,4947227,142571134,2721324,141881532,2732696,644921,3848039,595117845,1580489,227774849,28306,315517,770004325,2089,4.26,3.54,178222382,146757000,30948000,199697998,30
383828391,13759311,196068551,4923052,199874828,4946730,1054804,7800098,928630722,2626733,394563744,329,320021,1270847068,3847,6.81,5.7,273413125,239179000,33883000,294275144,30
277584017,4608822,184454744,4204915,181817449,4199330,699689,3638017,532262730,468527,269255778,152,21780,996781518,3653,3.9,3.19,166866557,154545000,11888000,188753686,30
886408339,15388097,481519945,6609946,482123250,6612984,1323268,10062651,1624292833,2966727,885210676,28281,485654,2606426608,4035,11.91,9.96,481285372,433891000,46988000,502782603,30
715833031,7220167,444976086,5022543,445133069,5000328,937117,5597885,1343260962,2278996,713790741,774,542716,2187874182,2569,9.8,8.21,394663674,362425000,31949000,414442448,30
889933196,15008663,485089307,6572738,486531292,6576651,1368754,10057327,1608926097,3085442,885588050,6278,360094,2619238912,4035,11.8,9.88,474508712,438170000,36014000,494860867,30
365991616,12274153,200147486,6456143,199660614,6411298,1317457,8258035,779875309,1418532,374287636,111,25319,1210318113,3845,5.73,4.78,232213311,221875000,9949000,252234177,30
419974011,15620535,207649067,5703226,205877541,5644207,1416095,9460256,1034022306,3190360,424227917,85,264018,1296734285,4040,7.56,6.31,306866156,268493000,38069000,327513123,30
388747631,10566344,231554370,7160812,230922959,7115240,1496110,7539161,873925508,1215226,387905434,53,36246,1472517070,3991,6.33,5.27,260653237,251339000,9012000,281678645,30
501125277,11559319,227129970,5624277,224987512,5610995,1340913,10165938,2678596694,1828348,503032277,517,60651,1647086290,5540,19.88,16.69,791375982,779997000,10985000,812118262,30
246383377,4392306,166935615,4040078,168413090,4061367,532172,3206914,514036008,350798,255653291,105,32509,917039670,2572,3.75,3.14,151273216,147922000,2998000,172528489,30
409866644,11609442,242580970,7205152,242188721,7199792,1244034,8257921,837298490,1762254,400883849,134,36236,1389266432,3649,6.15,5.13,249782207,237414000,12020000,270946346,30
751079604,5579750,463041986,5116459,466161260,5113572,773900,4876673,1344692117,1847129,750629276,170,283379,2346115741,2568,9.85,8.24,397754800,358488000,38944000,418622114,30
31104786,5423128,35430360,3195492,33018521,3136058,532356,3492647,188364285,319451,31337511,5,5814,222554182,1820,1.33,1.09,58751034,52373000,5929000,79375064,30
808725460,14734935,487193796,5961901,483295847,5934586,1973334,10313653,1618214924,3496683,802975633,1109,282312,2608533291,3979,11.71,9.75,481816824,449771000,30984000,504199847,30
761643759,5312996,462855641,5005421,462045952,4997083,757871,4657418,1379043271,1688698,756474264,1512,306972,2344706696,3645,10.19,8.53,403798152,361534000,42062000,422714623,30
232160809,6888499,153535001,4416683,149982568,4402071,567853,4448770,616637786,1860171,223071884,518,275741,767319797,1698,4.47,3.71,184826488,151395000,33086000,204654642,30
277583417,7425123,170890166,4177644,174801060,4170188,851799,4841175,563417631,695594,284143815,1,36764,948805748,5995,4.17,3.47,168816053,155437000,13036000,189643001,30
268099881,4980104,171435611,3848950,168027124,3791135,787350,4059559,679239314,1398452,268394736,513,309256,933803581,4041,4.98,4.14,202666703,166263000,36057000,223285811,30
250675324,9575539,182070581,4971567,181395861,4963477,454422,6068815,562071366,1093759,248877051,347,36867,969367367,2279,4.16,3.46,168993137,160673000,7934000,189969621,30
255670353,10891704,157161261,2429414,154825792,2427726,1369555,6863787,571240497,1577385,254695352,145,42400,897583808,7823,4.23,3.51,171519424,153142000,18016000,192834050,30
223376784,13244974,196634458,2795476,196194984,2796056,1626816,8471227,650033429,2738797,225262475,20,46782,992593931,3403,4.75,3.93,195181999,188792000,6025000,215926028,30
732960910,5543759,454653988,4990718,454359715,4990755,723132,4635710,1313840061,1756403,729230357,11316,331655,2279244289,3450,9.69,8.08,389686478,354260000,35025000,409859878,30
242065636,4486154,156152374,3761491,153510693,3690564,731526,3589635,527544507,385917,248512766,124,17793,882373535,3653,3.91,3.25,156920064,149572000,6933000,178639917,30
331843810,9861420,197177518,3881907,193899893,3876670,1507492,6857240,661646012,1569709,326686299,219,39626,1133770338,6386,4.83,3.98,203216540,189812000,13055000,225297483,30
271569873,12700111,174733889,4157224,172704662,4111429,1498290,8282136,618273923,1653080,275891339,71,35432,994930780,3402,4.51,3.74,185432624,171027000,14002000,205407906,30
265558331,11446293,202422182,4077362,201891954,4057771,2484699,8411110,764513423,3833806,264907241,200478,76482,1148527673,6668,5.54,4.59,227658634,214339000,13020000,247426289,30
772369501,7315910,507212931,2409063,506352883,2413264,275583,5302161,1390344187,1465008,771373927,70,298658,2750663614,356,10.15,8.5,408807722,383547000,24970000,429718084,30
718923342,4629949,442269478,4638205,443719958,4649164,611288,4127178,1327764314,1945724,716779067,2467,307580,2239598455,2568,9.72,8.12,393855223,347454000,46060000,414724868,30
283967907,5312784,184577056,4126662,183449513,4093342,745313,3778209,713684845,1805062,288841665,92,298572,1041227963,2571,5.2,4.3,214156342,178720000,35141000,234080916,30
6403754,346701,17271651,124891,16953251,120527,194362,485715,84976801,88112,8560157,0,11099,86636872,2176,0.59,0.49,28164343,20854000,6951000,48387641,31
12341743,138267,7043690,109567,6996385,110244,35969,240779,82321376,4818,12464764,186,1529,44159876,139,0.61,0.5,27304547,25100000,2008000,47272398,31
12160795,198598,57350902,6257961,57325030,6233556,108827,782361,530300388,26866,12808564,332,8115,209420000,131,3.76,3.12,158652630,157383000,1002000,179131664,31
12301414,208411,57193827,6389119,57149622,6377256,95748,692465,493882906,23040,12208728,26,7274,216357952,135,3.31,2.72,149322942,147947000,999000,170382968,31
547587065,9897055,461966193,7638352,465141266,7755231,3067655,6906257,1725270683,986018,555727526,8478,262361,2203512805,42079,12.19,10.09,508910079,441486000,67073000,528994228,31
539520618,8686992,459587047,7273285,462386565,7347616,2794379,6305991,1694554050,871274,539067789,631,200797,2258423704,35931,11.99,9.93,500120351,438781000,60969000,520354825,31
12358179,202596,59337710,7095377,59304824,7090539,100906,776232,527754313,26062,12197240,23,7639,256253706,129,3.78,3.15,159227558,157942000,999000,178970209,31
12222406,212711,54587242,6755015,54478162,6791568,94300,748317,506757224,24274,12028927,278,7549,204884545,133,3.43,2.83,150930121,149648000,1004000,170979266,31
12445721,242105,45948672,6625187,46041410,6670123,107432,848813,558967148,23013,12028469,169,6845,174737514,130,3.92,3.26,167362933,166075000,1000000,187987609,31
12905039,253841,46933922,6561983,47127474,6582897,112331,852160,561837876,24328,12209161,128,7288,151886486,132,3.93,3.26,168052094,165730000,1984000,188310764,31
5164941,416973,6340519,101637,6347860,106130,161687,437242,102210977,55243,6431773,45,9483,55596791,2181,0.71,0.58,32815384,27314000,5058000,53068687,31
124825547,194390,75734766,7629808,75860619,7559293,79218,628819,405531848,19997,126081266,44,5784,538837166,133,2.86,2.39,119680124,119426000,0,139554297,31
13667862,367594,58366899,7583160,58523111,7601407,154665,1219737,947368585,36479,12938100,415,13322,236658518,133,6.88,5.77,277365884,274185000,2991000,297579118,31
12318082,220027,57935023,7498245,57903644,7499582,94235,786297,545119287,27724,12282856,300,8126,211950652,128,3.91,3.27,160521366,159211000,1001000,180778131,31
286140115,337613,238034762,4923291,237739968,4924900,152878,1255193,924989052,39830,285360144,291,16000,1036754870,132,6.56,5.46,275664799,274413000,1001000,296061700,31
16173698,272857,45973625,6033725,46292328,6060619,133615,840724,564458008,21509,15881631,305,7826,156037791,134,3.92,3.25,167514295,166149000,1000000,187435642,31
12896336,272222,57700337,7401204,57793510,7403577,96857,778634,539782019,22304,12233236,23,7687,211273897,132,3.85,3.2,162263354,159923000,1999000,182802534,31
11831222,129747,57136139,7221810,57121887,7271038,61481,448345,268463116,19901,11744247,125,4232,223810356,133,1.82,1.5,79141511,77838000,985000,99720466,31
12315597,226246,57973204,6768627,58190176,6758288,100746,782911,535624153,26019,12228860,36,7646,213305783,133,3.89,3.25,161276832,160883000,0,180448852,31
44420086,142276,57433863,7553447,57499531,7557805,64839,506474,306865732,19500,44882373,228,5080,277036333,134,2.16,1.79,89798788,88484000,1005000,109441256,31
22982946,85458,8205246,74333,8172451,72086,28799,197466,64086539,9481,23192249,30,2313,81927487,130,0.5,0.42,19235234,18010000,1000000,39003430,31
19285838,132411,8153904,79230,8155909,72957,28987,194452,64534648,7492,20082671,36,2569,78163917,134,0.46,0.37,21311348,20123000,1006000,41257850,31
12146420,217783,58508272,7597094,58529513,7607525,109392,868138,569663951,29319,12236945,46,7290,209710351,134,4.08,3.39,171103443,170848000,0,191331981,31
12531895,237898,53477068,6316769,53332611,6294963,99078,782168,523567963,23445,12386428,256,6786,207745989,134,3.85,3.23,153440298,152104000,1000000,174003011,31
15848231,459266,75114197,6594134,73927546,6821733,207774,720918,329851536,68878,17998813,1,11213,363973483,2179,2.22,1.81,100425525,93233000,6942000,121216736,31
16879132,412617,48675082,6195628,49237918,6055357,334363,1198104,589174056,170318,22447344,67,22258,178355797,4039,4.25,3.55,173001215,165636000,6984000,194337031,31
12419603,253424,47574471,7740547,47649756,7738756,103934,870036,597615858,27689,12425658,219,9341,220209104,127,4.26,3.56,174880910,174711000,0,194942272,31
12105069,194224,56125757,6209320,56104765,6225278,92272,765707,528427958,28237,12242445,28,6423,208402880,131,3.89,3.25,156453489,155216000,1001000,176919065,31
12217879,226174,47434382,6818504,47638835,6851257,104500,834006,578183748,25486,12236940,28,7289,155811566,128,4.06,3.39,169486087,169290000,0,189858674,31
12525886,239690,58414294,7723222,58512476,7735631,127362,822404,556828960,26274,12974672,181,7566,209915921,131,4.04,3.38,161887953,161438000,0,182719043,31
12430951,214062,57670305,7478180,57715294,7503697,96826,771986,548625934,25900,12145665,17559,8224,214057577,132,3.93,3.27,165052265,162814000,1997000,185035084,31
12237342,239777,47402087,7304386,47634870,7332078,106973,868298,573461895,27071,12416625,14,6971,156541229,132,4.11,3.41,171141770,169878000,999000,191947152,31
10152987,165187,15689959,1432456,15693768,1432165,77587,571202,365762780,19687,9852744,34,6744,90974335,133,2.7,2.25,110548229,109294000,1002000,131147180,31
12255683,242794,58222909,7501524,58225532,7522433,101192,841072,579226675,25576,12047539,37,7147,221528080,131,4.23,3.55,170469062,169183000,1001000,190566028,31
11962500,182597,56037405,6205729,56101729,6232806,93458,756164,527821620,28568,12049682,0,6189,208387190,131,3.9,3.27,155344985,153159000,1989000,175725463,31
12099371,230140,46936798,6497335,46965002,6491092,104181,835397,585778813,25270,12253598,22,6847,239382591,129,4.25,3.56,171584841,170324000,996000,190953958,31
286641642,419241,268932385,20131356,268792450,20132341,193865,1599808,1251322868,47910,286076620,40360,15173,1767868052,139,8.68,7.19,366558861,364277000,1996000,386184823,31
12374451,240083,56394294,6947243,56569111,6937016,105776,877291,582083691,26266,12421210,57,8472,295930175,135,4.2,3.51,172940774,170674000,1984000,193852759,31
374073016,360336,344647327,6769313,344018093,6771191,175828,1466298,1096271842,47805,373629712,64,13873,1663834074,132,8.07,6.75,324483607,322154000,2000000,345256292,31
12265300,235701,54532396,7352996,54355426,7383172,106401,847840,590883688,25890,12426374,33,7889,269225110,131,4.38,3.67,172917310,171714000,998000,193218524,31
22905389,199026,77170511,6516589,77129425,6515248,95633,789860,541707527,29897,22888653,1114,7418,260369788,128,4.0,3.35,160033724,158757000,992000,180507636,31
12768106,266621,47587418,7656162,47717870,7683308,124730,864807,581928199,25147,12046607,0,6835,155383688,132,4.14,3.46,170206333,168570000,997000,190583855,31
177634170,205990,131611900,6275564,131747922,6280103,127493,846898,547230502,30888,177802362,55,7513,993154900,131,3.95,3.29,160534256,157239000,2985000,180904723,31
178558413,208759,131953086,7064450,131533351,7095345,98434,822917,554621277,29051,176101743,0,6828,995108606,135,3.98,3.3,167726951,166455000,1002000,188110356,31
12436110,243772,69802633,7577345,69918838,7623804,103146,822596,607140000,24867,12408947,53,8404,194723125,130,4.38,3.65,177734657,177422000,0,198128861,31
176181196,259744,131532120,6891031,131550864,6871417,103740,852925,595249992,25278,176439865,110,8842,1061920209,131,4.23,3.51,179296834,178065000,1000000,199204760,31
177259477,231746,131391399,6854969,131303695,6871484,95132,768618,554992368,26167,177889230,150,8716,992730441,130,3.98,3.32,162768958,161572000,1003000,182308750,31
174469708,234432,131407975,6704130,131261475,6684232,94713,811590,545426245,24389,175854203,51,7900,977221211,134,3.89,3.24,159748740,158474000,996000,180241027,31
177211334,240169,131486070,6950512,131357241,6995054,99621,780813,557528244,25767,177550958,41,7633,993926687,133,4.02,3.35,162970841,162709000,0,183874373,31
13073590,237068,47303166,6415830,47285926,6434558,100245,777727,558714913,29506,13081068,219,8040,155900277,134,4.04,3.38,162356293,160974000,999000,182420092,31
73473544,136805,64846876,8003201,64799897,8009621,68274,546170,332004703,22508,72894459,0,4175,390132725,132,2.35,1.94,100786735,99456000,1004000,122302026,31
12536738,241096,47874579,7438571,48056303,7456846,101400,834499,572229931,26740,12313619,32,7166,211177568,132,4.19,3.49,171259676,169976000,999000,191863414,31
11721440,145438,48022503,6934261,48058730,6959084,70350,544036,330893644,21832,11685395,87,4295,335915116,129,2.3,1.89,100479784,99147000,1001000,120700527,31
17772073,687343,330144798,25443528,330368182,25478538,314774,2552389,1999741626,72377,17321601,241,26262,1402643006,133,13.86,11.52,583722395,580299000,2996000,603910900,31
11685878,154370,87968444,4726365,88616613,4681122,56857,440602,245158705,30465,11451436,48,4005,315127356,131,1.69,1.39,75388695,74183000,1002000,95315355,31
12415041,254524,65983049,6893001,65917964,6911133,103799,839580,601507249,27339,12434770,69,8394,379652856,127,4.41,3.69,175874875,174584000,1003000,196921714,31
13363968,216656,45823222,6416789,46177077,6476406,102404,790628,553033058,26895,13103302,70,7664,153396789,134,4.01,3.34,165337094,164074000,1000000,185363424,31
12292292,244805,58518711,7837628,58569076,7840378,102514,853758,576515431,25743,12364220,78,7400,209783226,133,4.15,3.46,172019160,170760000,998000,192185455,31
177558405,235139,131434217,6840453,131204851,6861786,100553,788988,554673399,23664,177720108,41,7644,996285451,133,3.97,3.29,165516831,163190000,2002000,186421058,31
2521975,70214,2710862,54085,2682567,54331,16899,158208,40962011,2809,2379459,0,589,23251433,63,0.31,0.25,14180882,12829000,1069000,35497995,31
12165069,221378,53241451,6475941,53105403,6485712,96490,771979,518943792,23805,11958450,0,6280,205914375,129,3.86,3.23,155670273,153343000,1991000,177577113,31
15073158,150890,6597649,120897,6420020,114669,36461,262116,122134921,8579,14899743,22,2934,55618665,128,0.88,0.73,35790321,32633000,2966000,56398940,31
481543472,466462,312746621,8177924,312936212,8147726,196625,1705852,1294769619,52276,483071863,141,17232,2526929852,134,9.36,7.79,385476830,383226000,1995000,405249734,31
12668717,245745,58999778,7235527,59107555,7256186,103230,786520,541906623,24597,12313645,26,7629,215797537,132,4.01,3.35,162838864,161421000,996000,183174384,31
12192495,193993,55943153,6306091,56509150,6218893,189096,904028,522179190,67872,14719419,28,6591,279879212,1109,3.7,3.06,157288207,152938000,3998000,177919032,31
12195615,199954,57491078,7534634,57531902,7530155,100910,836652,585422931,32471,12382834,63,7443,266543037,130,4.32,3.62,171721565,170497000,1002000,192276336,31
12873305,266082,57733586,7536015,57843281,7538853,101874,790282,545762120,24185,12267576,22,7801,202917962,134,3.96,3.3,162884492,160722000,1996000,182686042,31
12014051,198414,59357939,7219830,59434866,7208752,96555,770297,531203074,26279,12216432,44,7269,215662011,128,3.75,3.1,158866717,157659000,1004000,179654439,31
12692977,266874,57307706,7283350,57268538,7292390,99971,846176,593257634,26515,12432723,65,8316,272158608,134,4.39,3.68,175030482,173738000,998000,194879006,31
13018259,281582,47034447,6434381,47196577,6436510,110082,864480,561260974,22484,12124375,0,7266,159567525,136,4.0,3.33,168506342,166172000,2002000,189821371,31
37254324,130224,17064349,160072,17005903,166988,42673,313391,159403489,10847,37748436,29,3485,150798098,128,1.19,1.0,46866570,45618000,991000,66696210,31
12516823,214955,58678872,7323546,58726255,7363633,99488,811057,542816688,28413,12433990,39,7808,213921865,133,3.99,3.32,163975287,160676000,2993000,184728265,31
12709333,257385,57759677,7414985,57914208,7475626,118935,821945,570598598,24833,12536910,272,8471,216448056,132,4.2,3.52,165918795,164537000,997000,186485405,31
32897911,1797766,21322982,136509,24073763,135597,298268,1229345,121445500,146363,42064545,179,34152,110391801,6147,0.88,0.71,38667601,25570000,12785000,58666451,31
9026505,74480,5328000,88893,5326723,91224,28591,196082,51777354,9906,9180670,33,921,47897851,131,0.39,0.32,17870758,16634000,1039000,39259753,31
13147063,210565,45752532,6297674,45891791,6325733,99602,815069,579963113,28247,13313786,0,6879,216694316,128,4.31,3.61,170546520,169224000,1001000,190540825,31
12634978,234359,47134143,6565297,47277770,6587046,120840,865835,574181888,29508,12245648,14,7006,229191293,131,4.17,3.47,172038053,170677000,1003000,191874801,31
12232595,213709,47352091,7728891,47497284,7736719,104631,843595,576752413,31693,12367518,230,8009,157300026,132,4.19,3.48,172704038,171476000,1002000,192756898,31
12946042,277717,58691461,7554010,58609589,7519619,106540,846269,590555232,28362,12447967,1681,9158,273502585,128,4.36,3.63,176807731,175350000,996000,197849641,31
11810854,80225,5487124,102170,5441380,103546,29113,202270,56052851,9899,12194468,51,2069,39931039,131,0.42,0.34,18873641,17604000,1035000,39458012,31
