@relation problema
@attribute 'pkg' real
@attribute 'cores' real
@attribute 'ram' real
@attribute 'gpu' real
@attribute 'psys' real
@attribute 'duration_time' real
@attribute 'user_time' real
@attribute 'system_time' real
@attribute 'class' {0,1,2,3,4,5,6,7,8,9,10,11,12,13,14,15,16,17,18,19,20,21,22,23,24,25,26,27,28,29,30,31}
@data
1.56,1.51,0.07,0.00,4.08,131865028,101380000,30113000,0
1.53,1.49,0.07,0.00,3.95,131052079,107244000,23832000,0
1.51,1.46,0.07,0.00,3.98,135995439,109995000,25998000,0
1.51,1.47,0.07,0.00,3.88,129669003,98743000,30919000,0
0.16,0.15,0.01,0.00,0.42,14862667,12750000,2125000,0
0.94,0.91,0.04,0.00,2.60,86394734,57258000,29131000,0
1.50,1.45,0.07,0.00,4.01,130244752,90072000,40032000,0
1.49,1.44,0.07,0.00,3.94,131511302,97367000,34128000,0
0.31,0.31,0.01,0.00,0.82,26198766,25061000,1002000,0
0.21,0.20,0.02,0.00,0.81,34300275,32285000,2017000,0
0.97,0.94,0.05,0.00,2.52,88791049,53833000,34892000,0
0.29,0.28,0.01,0.00,0.74,25304966,24301000,1012000,0
1.49,1.44,0.07,0.00,3.94,128842838,100875000,27965000,0
0.32,0.32,0.01,0.00,0.81,25758713,23773000,1981000,0
1.49,1.45,0.07,0.00,3.95,129426031,101500000,27862000,0
0.32,0.31,0.01,0.00,0.79,25298882,23347000,1945000,0
1.50,1.45,0.07,0.00,3.90,130104573,95985000,33994000,0
0.94,0.90,0.05,0.00,2.58,86097248,50005000,36004000,0
1.55,1.50,0.07,0.00,4.05,131512212,99427000,31816000,0
0.96,0.93,0.05,0.00,2.66,89705682,58791000,30890000,0
0.30,0.29,0.01,0.00,0.79,28482308,26237000,1943000,1
1.83,1.76,0.10,0.00,5.00,196167263,195055000,1000000,1
1.98,1.91,0.10,0.00,5.01,185254174,184248000,1001000,1
0.57,0.55,0.03,0.00,1.54,57710420,56695000,994000,1
0.46,0.45,0.02,0.00,1.26,47417701,45465000,1976000,1
0.53,0.51,0.03,0.00,1.42,51874425,50871000,997000,1
0.74,0.72,0.04,0.00,1.95,72519034,72517000,0,1
0.31,0.30,0.01,0.00,0.80,28070211,28085000,0,1
1.87,1.81,0.10,0.00,5.11,197558206,197547000,0,1
0.76,0.73,0.04,0.00,1.97,73317717,72279000,1003000,1
0.51,0.49,0.02,0.00,1.33,46608701,45601000,991000,1
0.81,0.78,0.04,0.00,2.14,78630330,77588000,994000,1
6.13,5.90,0.32,0.00,16.27,634499819,633398000,1000000,1
0.13,0.12,0.01,0.00,0.37,14112217,14114000,0,1
0.67,0.64,0.04,0.00,1.82,68860113,67853000,1012000,1
2.05,1.98,0.10,0.00,5.25,195858750,194758000,998000,1
0.61,0.59,0.03,0.00,1.62,59213402,58193000,1003000,1
0.54,0.52,0.03,0.00,1.41,51643138,50645000,993000,1
20.90,20.18,1.03,0.00,53.49,2017771197,2016572000,999000,1
0.49,0.47,0.02,0.00,1.30,45625175,43630000,1983000,1
1.38,1.34,0.06,0.00,3.34,107820231,105366000,2006000,2
1.54,1.49,0.07,0.00,3.72,130625822,130600000,0,2
1.97,1.92,0.08,0.00,4.70,161271732,158213000,2985000,2
1.57,1.52,0.07,0.00,3.71,127187768,125080000,2001000,2
2.06,2.00,0.09,0.00,4.82,164223294,163198000,1001000,2
1.99,1.93,0.08,0.00,4.72,159775288,156763000,2995000,2
0.96,0.93,0.04,0.00,2.27,76949782,72929000,3996000,2
0.90,0.88,0.04,0.00,2.19,75494857,72444000,2977000,2
1.58,1.53,0.07,0.00,3.72,128667788,127597000,1004000,2
1.31,1.26,0.06,0.00,3.20,108417366,107407000,1003000,2
0.92,0.91,0.04,0.00,2.26,75695483,71709000,3983000,2
1.32,1.30,0.05,0.00,3.22,105662214,103622000,1992000,2
1.37,1.33,0.05,0.00,3.26,107345464,105339000,2006000,2
2.09,2.03,0.09,0.00,5.01,167000499,162784000,3994000,2
0.91,0.87,0.04,0.00,2.21,75360053,73336000,2009000,2
1.33,1.29,0.06,0.00,3.16,106014924,101992000,3999000,2
1.96,1.91,0.08,0.00,4.67,158626412,155494000,2990000,2
1.92,1.87,0.08,0.00,4.62,157908607,157902000,0,2
1.69,1.65,0.07,0.00,4.07,141674148,137642000,3989000,2
1.55,1.50,0.07,0.00,3.71,127724311,125659000,1994000,2
3.39,3.29,0.16,0.00,8.13,278205162,272870000,5015000,3
3.73,3.63,0.17,0.00,8.65,299536283,292480000,6987000,3
4.36,4.22,0.21,0.00,10.43,372768867,305997000,66781000,3
2.85,2.77,0.14,0.00,7.35,237778131,233746000,3995000,3
3.51,3.41,0.17,0.00,8.84,292602189,287578000,4992000,3
4.92,4.77,0.24,0.00,12.20,428214096,371159000,57024000,3
5.11,4.96,0.24,0.00,12.73,435567960,363586000,71918000,3
4.17,4.04,0.21,0.00,10.32,363760044,297697000,65933000,3
5.04,4.89,0.24,0.00,12.21,424672165,355592000,68921000,3
3.13,3.04,0.16,0.00,8.03,268265738,265235000,3002000,3
4.91,4.75,0.24,0.00,12.30,422561523,369436000,53062000,3
3.98,3.84,0.20,0.00,10.56,361389183,290494000,70876000,3
2.76,2.67,0.14,0.00,6.76,235380871,229340000,6008000,3
4.86,4.71,0.23,0.00,12.26,422113866,371074000,51010000,3
2.81,2.73,0.14,0.00,7.25,239424799,232382000,7011000,3
4.82,4.67,0.23,0.00,12.48,421815832,359816000,61968000,3
2.69,2.61,0.14,0.00,7.09,245752307,238718000,6991000,3
4.08,3.95,0.20,0.00,10.36,364760879,290784000,73945000,3
5.23,5.08,0.25,0.00,13.56,456303031,400189000,56026000,3
2.55,2.47,0.12,0.00,6.37,217086211,214030000,3000000,3
3.18,3.07,0.20,0.00,8.03,277489812,149480000,8968000,4
3.64,3.53,0.21,0.00,8.89,298041973,204948000,7959000,4
2.74,2.65,0.17,0.00,6.68,231943685,138444000,9028000,4
3.57,3.45,0.20,0.00,8.46,291200593,194334000,12020000,4
2.75,2.67,0.18,0.00,7.05,238294403,140282000,13026000,4
3.54,3.43,0.21,0.00,8.39,288345539,194892000,7995000,4
2.33,2.25,0.17,0.00,5.96,211502821,203499000,7980000,4
2.77,2.69,0.17,0.00,7.12,238468745,143564000,10089000,4
2.47,2.39,0.19,0.00,6.68,237306927,231278000,6007000,4
3.29,3.20,0.20,0.00,8.43,286829661,277789000,8993000,4
2.63,2.55,0.17,0.00,6.77,228763883,133050000,10003000,4
2.70,2.61,0.17,0.00,6.96,233393915,135626000,13060000,4
2.68,2.60,0.17,0.00,6.90,231828366,135530000,11021000,4
2.56,2.48,0.17,0.00,6.54,224567137,131521000,8031000,4
2.81,2.71,0.18,0.00,6.93,238224959,139544000,13050000,4
7.76,7.51,0.48,0.00,20.01,677243866,578401000,14009000,4
2.43,2.36,0.15,0.00,6.22,206412807,111566000,10051000,4
2.64,2.56,0.17,0.00,6.67,226216526,126282000,15033000,4
3.41,3.30,0.20,0.00,8.71,287140256,196716000,5991000,4
3.56,3.45,0.21,0.00,9.09,308704431,300665000,7991000,4
3.72,3.58,0.24,0.00,9.88,349709861,193455000,10969000,5
3.50,3.39,0.21,0.00,8.72,293999283,198032000,11001000,5
2.70,2.62,0.17,0.00,6.71,225847919,132996000,7999000,5
2.62,2.54,0.17,0.00,6.64,225231796,126993000,12999000,5
3.56,3.44,0.21,0.00,8.90,291273109,191443000,14032000,5
2.68,2.59,0.17,0.00,6.51,225636355,130885000,9991000,5
2.57,2.49,0.17,0.00,6.68,227700311,133032000,10002000,5
4.54,4.41,0.27,0.00,10.99,375864563,279602000,10915000,5
3.52,3.42,0.21,0.00,8.55,292141678,202752000,4993000,5
2.62,2.53,0.17,0.00,6.67,225839847,132347000,9023000,5
3.44,3.33,0.21,0.00,8.76,298841627,208277000,6037000,5
3.95,3.82,0.25,0.00,10.00,348912251,246250000,17524000,5
2.85,2.76,0.18,0.00,7.28,245111550,149331000,10022000,5
2.67,2.58,0.17,0.00,6.56,224987059,125897000,14026000,5
4.33,4.18,0.36,0.00,11.72,406570743,395533000,10987000,5
2.72,2.63,0.17,0.00,6.80,228695155,135539000,7972000,5
2.21,2.14,0.15,0.00,5.65,189232012,95829000,7985000,5
3.45,3.35,0.21,0.00,8.71,287502762,193818000,7992000,5
2.77,2.68,0.18,0.00,7.11,238095488,142848000,9989000,5
3.37,3.27,0.20,0.00,8.60,288688036,191008000,12212000,5
8.73,8.46,0.43,0.00,20.77,730208991,677855000,52065000,6
11.69,11.33,0.56,0.00,29.06,979258903,962243000,16986000,6
1.69,1.65,0.08,0.00,4.09,141339236,135298000,6013000,6
9.73,9.40,0.51,0.00,24.29,855390361,700895000,14997000,6
1.46,1.42,0.07,0.00,3.55,120568007,116454000,3981000,6
10.41,10.08,0.57,0.00,25.78,921897339,914814000,6998000,6
3.51,3.40,0.17,0.00,8.56,289784506,198619000,5880000,6
4.82,4.68,0.21,0.00,11.63,408376745,404188000,4001000,6
3.05,2.98,0.13,0.00,7.29,236695515,233670000,2995000,6
2.51,2.42,0.12,0.00,6.18,211271411,208119000,3001000,6
3.60,3.49,0.18,0.00,8.89,303231621,205505000,12839000,6
1.44,1.40,0.07,0.00,3.57,122796254,114763000,7983000,6
6.49,6.29,0.28,0.00,15.66,533500015,522455000,11009000,6
10.57,10.25,0.55,0.00,25.85,915060641,899018000,16000000,6
4.97,4.82,0.22,0.00,11.95,420591622,412489000,8009000,6
10.48,10.15,0.51,0.00,25.51,906323802,898206000,8001000,6
3.71,3.61,0.16,0.00,9.03,297153177,292089000,5001000,6
4.31,4.18,0.18,0.00,10.39,346746882,339716000,6994000,6
3.18,3.09,0.16,0.00,7.87,264713517,169317000,9888000,6
7.71,7.47,0.34,0.00,18.78,655498435,645268000,10004000,6
5.86,5.70,0.25,0.00,13.94,496159237,494862000,1001000,7
1.24,1.18,0.10,0.00,3.81,143746772,2947000,3461000,7
25.55,24.82,1.28,0.00,58.76,1964486708,1807255000,156935000,7
10.66,10.38,0.41,0.00,23.95,800823793,800728000,0,7
1.55,1.49,0.10,0.00,4.01,133387187,26745000,21792000,7
8.72,8.44,0.43,0.00,22.00,705405963,566266000,139065000,7
12.67,12.27,0.60,0.00,32.42,1044353351,906275000,138041000,7
33.69,32.70,1.58,0.00,78.29,2640750932,2484424000,155963000,7
23.21,22.53,1.19,0.00,53.89,1798737463,1638551000,159956000,7
20.92,20.32,0.86,0.00,51.08,1682311025,1681140000,1000000,7
5.19,5.05,0.21,0.00,12.28,421271833,420281000,1000000,7
10.72,10.38,0.50,0.00,26.50,844111646,710040000,134007000,7
8.26,8.03,0.34,0.00,19.46,668124772,666860000,999000,7
42.30,41.11,1.91,0.00,97.91,3242057548,3083650000,157982000,7
9.58,9.29,0.41,0.00,24.49,797584994,795323000,1998000,7
8.92,8.62,0.57,0.00,21.06,698504722,552573000,145887000,7
32.22,31.30,1.51,0.00,74.42,2501449387,2351099000,150006000,7
33.87,32.89,1.57,0.00,78.92,2624527230,2466999000,156999000,7
17.62,17.14,0.69,0.00,40.50,1347868797,1347764000,0,7
11.21,10.90,0.46,0.00,26.44,897022010,895929000,999000,7
9.11,8.83,0.44,0.00,22.08,756098718,741701000,13994000,8
3.92,3.80,0.20,0.00,9.80,323518714,320500000,3004000,8
4.99,4.83,0.29,0.00,12.73,416707442,361595000,54938000,8
2.16,2.10,0.12,0.00,5.42,176255369,169197000,7008000,8
5.90,5.73,0.29,0.00,14.81,486006078,416899000,68983000,8
4.14,4.01,0.21,0.00,10.34,334846351,324814000,9994000,8
3.77,3.66,0.22,0.00,9.32,298424640,296349000,2002000,8
3.70,3.59,0.20,0.00,9.17,304093774,297038000,7024000,8
4.89,4.74,0.27,0.00,11.51,388979574,375896000,12996000,8
2.64,2.55,0.14,0.00,6.77,219783254,210642000,8984000,8
4.38,4.25,0.23,0.00,10.55,362973161,354907000,8020000,8
2.04,1.98,0.12,0.00,5.29,170814169,163744000,6989000,8
2.88,2.78,0.21,0.00,7.39,237408472,227416000,9974000,8
11.98,11.65,0.51,0.00,27.40,922240809,920206000,2000000,8
4.00,3.88,0.20,0.00,9.63,334942255,325829000,8995000,8
3.47,3.35,0.21,0.00,9.09,297569963,290529000,7012000,8
4.03,3.90,0.23,0.00,9.86,342563155,331514000,10983000,8
5.75,5.58,0.27,0.00,13.66,467580218,399614000,67934000,8
4.10,3.97,0.21,0.00,10.36,334833202,326807000,7995000,8
3.56,3.46,0.19,0.00,9.01,291857195,283772000,8021000,8
0.18,0.17,0.01,0.00,0.44,13709129,11259000,2047000,9
0.12,0.11,0.01,0.00,0.28,8806373,7808000,976000,9
1.27,1.23,0.05,0.00,2.99,102469211,97416000,4970000,9
0.08,0.08,0.00,0.00,0.21,6819913,3894000,2920000,9
0.22,0.21,0.02,0.00,0.80,33892620,28879000,4979000,9
1.32,1.25,0.10,0.00,3.76,137628463,6274000,0,9
0.21,0.21,0.01,0.00,0.52,16968460,12968000,3990000,9
0.17,0.16,0.01,0.00,0.40,12618995,10642000,1935000,9
0.51,0.49,0.03,0.00,1.41,49911704,46872000,2991000,9
0.20,0.19,0.01,0.00,0.52,17438653,13559000,3874000,9
0.29,0.28,0.01,0.00,0.68,21976812,21964000,0,9
0.67,0.65,0.03,0.00,1.60,52769496,48782000,3982000,9
0.51,0.49,0.02,0.00,1.24,40735759,37651000,2972000,9
0.09,0.08,0.00,0.00,0.22,6519533,3728000,2796000,9
0.19,0.18,0.01,0.00,0.46,14629505,14531000,0,9
0.92,0.89,0.04,0.00,2.32,78341929,76323000,2008000,9
0.52,0.51,0.02,0.00,1.28,41122404,39018000,2000000,9
0.16,0.16,0.01,0.00,0.41,13304165,12268000,1022000,9
0.24,0.24,0.01,0.00,0.60,20418055,18463000,1943000,9
0.46,0.46,0.02,0.00,1.17,40533851,38491000,2025000,9
2.18,2.11,0.13,0.00,5.49,189101050,179705000,8985000,10
2.84,2.75,0.12,0.00,6.69,230834268,226790000,3996000,10
5.18,5.02,0.26,0.00,12.93,449819158,442811000,6997000,10
3.09,2.99,0.18,0.00,7.50,261951088,252806000,8993000,10
2.47,2.38,0.15,0.00,6.10,214325980,202161000,12009000,10
3.29,3.19,0.17,0.00,7.94,271334018,260148000,10964000,10
3.69,3.56,0.24,0.00,9.11,320357757,308290000,12011000,10
2.22,2.15,0.10,0.00,5.33,179009822,171981000,6999000,10
2.48,2.41,0.11,0.00,5.99,202161693,200117000,2001000,10
3.18,3.09,0.17,0.00,7.97,272843157,261826000,10992000,10
5.23,5.06,0.29,0.00,13.31,442280116,425238000,17009000,10
5.08,4.91,0.34,0.00,12.77,453989987,435916000,17996000,10
2.91,2.81,0.13,0.00,7.09,248332752,242325000,5983000,10
3.51,3.41,0.18,0.00,8.77,293263798,283275000,9974000,10
3.16,3.06,0.17,0.00,7.73,259727144,248711000,10987000,10
2.45,2.38,0.11,0.00,5.77,195968775,191701000,3993000,10
2.19,2.12,0.10,0.00,5.55,191794125,186785000,4994000,10
1.52,1.48,0.07,0.00,3.70,126594591,120527000,6026000,10
1.87,1.81,0.09,0.00,4.91,159356130,154320000,5010000,10
2.33,2.25,0.14,0.00,5.95,201801919,188782000,12985000,10
3.20,3.11,0.13,0.00,7.30,248852204,247540000,1002000,11
3.60,3.49,0.15,0.00,8.37,288739758,287734000,999000,11
3.20,3.10,0.14,0.00,7.60,264539203,262532000,1996000,11
2.57,2.49,0.11,0.00,6.04,212669583,211660000,998000,11
3.28,3.18,0.13,0.00,7.51,256336798,255313000,1001000,11
6.53,6.33,0.29,0.00,16.05,569636966,568554000,999000,11
3.62,3.51,0.15,0.00,8.46,291745661,289745000,1998000,11
2.35,2.29,0.10,0.00,5.49,187844231,185838000,1998000,11
2.55,2.48,0.10,0.00,5.87,198864122,198751000,0,11
6.54,6.35,0.28,0.00,15.72,549957514,547965000,1996000,11
4.65,4.51,0.20,0.00,11.03,385996400,384985000,999000,11
10.65,10.34,0.44,0.00,25.05,867321756,867207000,0,11
2.82,2.74,0.12,0.00,6.75,235042070,234026000,1000000,11
3.41,3.31,0.15,0.00,8.25,290239991,288129000,1993000,11
5.08,4.92,0.22,0.00,12.09,423772367,423690000,0,11
49.24,47.79,2.07,0.00,116.04,4067504365,4065923000,999000,11
7.33,7.10,0.33,0.00,17.87,639969642,639937000,0,11
2.19,2.13,0.09,0.00,5.01,166486838,163382000,2988000,11
4.06,3.93,0.17,0.00,9.55,332420722,331335000,1001000,11
6.52,6.32,0.29,0.00,15.94,569368719,566250000,3001000,11
9.21,8.92,0.41,0.00,23.18,771493237,757169000,14003000,12
2.30,2.23,0.09,0.00,5.48,180786952,176777000,3994000,12
2.06,2.00,0.09,0.00,4.93,164923462,163880000,999000,12
6.96,6.75,0.35,0.00,16.64,583214610,564154000,19005000,12
2.09,2.02,0.08,0.00,4.95,161274281,159164000,2002000,12
2.77,2.69,0.12,0.00,6.59,220026702,216012000,4000000,12
1.18,1.15,0.05,0.00,2.83,97097011,94074000,3002000,12
1.36,1.32,0.06,0.00,3.22,106845497,105829000,998000,12
5.29,5.14,0.23,0.00,12.89,416900572,408876000,7997000,12
13.25,12.85,0.60,0.00,33.83,1142217462,1131059000,11000000,12
0.72,0.70,0.03,0.00,1.70,57041709,53035000,4002000,12
2.67,2.59,0.12,0.00,6.53,224984389,222949000,1999000,12
1.69,1.65,0.07,0.00,4.04,137044140,132964000,3998000,12
4.39,4.27,0.20,0.00,11.16,372620393,369489000,2995000,12
2.74,2.66,0.12,0.00,6.60,221865635,218853000,2997000,12
3.39,3.29,0.15,0.00,8.52,285219782,279046000,6000000,12
4.23,4.09,0.20,0.00,10.73,361370897,351350000,10009000,12
1.94,1.88,0.08,0.00,4.71,160828523,156800000,4020000,12
4.36,4.23,0.20,0.00,10.86,361119378,352064000,9001000,12
5.26,5.10,0.24,0.00,13.08,428610662,419492000,8989000,12
0.28,0.27,0.01,0.00,0.70,22510050,20243000,1927000,13
0.47,0.45,0.02,0.00,1.13,36737044,36653000,0,13
0.60,0.57,0.03,0.00,1.43,46432970,46313000,0,13
0.30,0.29,0.01,0.00,0.76,24164435,22033000,2003000,13
0.61,0.59,0.02,0.00,1.47,46755102,44698000,1986000,13
0.92,0.90,0.04,0.00,2.20,74979913,73978000,986000,13
0.56,0.55,0.02,0.00,1.35,46537729,45481000,1010000,13
0.28,0.28,0.01,0.00,0.70,23498215,22459000,1020000,13
0.47,0.46,0.02,0.00,1.19,38634662,35614000,2967000,13
0.49,0.47,0.02,0.00,1.21,37371712,35392000,1966000,13
0.45,0.43,0.02,0.00,1.17,40788939,39746000,1019000,13
0.43,0.42,0.02,0.00,1.07,35804834,34691000,991000,13
0.48,0.46,0.02,0.00,1.16,36629032,35618000,989000,13
0.42,0.41,0.02,0.00,0.98,29446128,29351000,0,13
0.47,0.46,0.02,0.00,1.15,36855981,35846000,995000,13
0.43,0.42,0.02,0.00,1.14,38844494,38839000,0,13
0.57,0.55,0.02,0.00,1.37,46167221,45128000,1002000,13
0.47,0.46,0.02,0.00,1.16,37963254,36931000,998000,13
0.91,0.88,0.04,0.00,2.21,74841782,72831000,1995000,13
0.48,0.46,0.02,0.00,1.19,36845310,35846000,995000,13
9.12,8.85,0.40,0.00,21.79,772002752,765701000,6005000,14
8.24,8.00,0.35,0.00,19.74,680084920,675060000,5000000,14
12.68,12.30,0.63,0.00,30.47,1060173782,1051148000,9001000,14
16.56,16.06,0.74,0.00,40.22,1405923752,1393807000,11998000,14
19.03,18.46,0.85,0.00,46.06,1599381236,1583723000,14987000,14
7.73,7.51,0.34,0.00,18.31,640743038,631686000,8995000,14
16.86,16.36,0.75,0.00,40.65,1447525837,1437241000,10001000,14
7.32,7.11,0.32,0.00,17.46,611949779,607840000,3998000,14
20.61,19.97,0.94,0.00,50.00,1774145613,1764796000,8998000,14
11.40,11.05,0.51,0.00,27.99,977758250,964652000,12995000,14
15.37,14.90,0.70,0.00,37.13,1304570083,1289536000,15006000,14
20.38,19.75,0.94,0.00,49.88,1767991549,1758900000,8999000,14
15.38,14.92,0.68,0.00,37.25,1300116790,1288076000,12000000,14
18.63,18.06,0.84,0.00,44.94,1583638052,1571281000,11994000,14
5.50,5.34,0.24,0.00,13.25,467532717,466498000,998000,14
3.21,3.11,0.14,0.00,7.86,281433400,279417000,1995000,14
11.82,11.45,0.53,0.00,28.67,1004477028,994437000,9994000,14
9.02,8.74,0.40,0.00,22.00,780246257,776123000,4000000,14
16.89,16.37,0.77,0.00,40.93,1450806388,1437789000,12998000,14
10.76,10.44,0.51,0.00,26.44,918427666,906409000,12005000,14
0.92,0.89,0.04,0.00,2.26,75228294,72679000,2018000,15
1.80,1.74,0.08,0.00,4.28,144694246,139679000,4988000,15
1.73,1.68,0.07,0.00,4.05,140357293,138257000,2003000,15
1.82,1.78,0.08,0.00,4.45,151780651,146777000,4992000,15
1.56,1.52,0.07,0.00,3.77,129256062,128235000,1001000,15
1.45,1.40,0.08,0.00,3.79,141859555,139873000,1998000,15
1.60,1.55,0.07,0.00,3.84,128804740,127724000,997000,15
1.61,1.56,0.07,0.00,3.82,130811741,126757000,3992000,15
18.88,18.34,0.84,0.00,45.01,1543353391,1541033000,2000000,15
2.62,2.54,0.11,0.00,6.32,213555886,210546000,2993000,15
1.63,1.58,0.07,0.00,3.89,132070333,128054000,4001000,15
1.18,1.14,0.06,0.00,3.00,109915049,107902000,1998000,15
1.61,1.56,0.07,0.00,3.86,131030806,130032000,1000000,15
2.67,2.59,0.11,0.00,6.37,210610011,207599000,2994000,15
1.49,1.44,0.06,0.00,3.56,119828076,117829000,1997000,15
1.24,1.20,0.06,0.00,3.00,104297040,102239000,2004000,15
1.69,1.64,0.07,0.00,4.09,141258106,140253000,1001000,15
6.19,6.00,0.30,0.00,15.61,519731272,508348000,10985000,15
1.28,1.23,0.06,0.00,3.12,107127883,102923000,3997000,15
2.53,2.46,0.11,0.00,6.13,207416637,205400000,2003000,15
1.20,1.15,0.11,0.00,3.93,154802376,2259000,4519000,16
14.29,13.91,0.57,0.00,32.50,1099527159,1095185000,3997000,16
5.65,5.48,0.25,0.00,13.70,480802578,474756000,5996000,16
4.96,4.80,0.22,0.00,11.95,420446665,416386000,4003000,16
5.78,5.61,0.24,0.00,14.46,470539641,469426000,1000000,16
8.09,7.87,0.33,0.00,18.60,639368539,636262000,3001000,16
5.73,5.57,0.24,0.00,14.56,468886032,465626000,2997000,16
15.30,14.91,0.59,0.00,34.41,1142438712,1141318000,1000000,16
8.80,8.55,0.47,0.00,20.39,677238139,672173000,5001000,16
17.97,17.49,0.72,0.00,41.43,1404843292,1402608000,1999000,16
9.64,9.36,0.40,0.00,22.63,776550405,773437000,3001000,16
5.75,5.58,0.25,0.00,13.84,488608719,483598000,4995000,16
23.67,22.95,1.31,0.00,55.84,1882501664,1733452000,148952000,16
42.84,41.57,1.83,0.00,101.95,3566035542,3562662000,2999000,16
5.37,5.21,0.23,0.00,13.54,438919265,436897000,2004000,16
5.97,5.81,0.25,0.00,14.11,477696345,472671000,4996000,16
8.45,8.22,0.34,0.00,19.65,661071040,657038000,4000000,16
10.04,9.75,0.42,0.00,23.63,807198591,805138000,2000000,16
18.13,17.62,0.73,0.00,42.06,1419123034,1414884000,3999000,16
3.95,3.84,0.16,0.00,9.04,301979495,300851000,999000,16
5.06,4.93,0.21,0.00,12.49,412634516,405283000,6987000,17
15.08,14.68,0.58,0.00,33.47,1125557109,1120517000,5002000,17
20.97,20.34,0.91,0.00,49.69,1756096775,1750901000,4999000,17
4.73,4.58,0.22,0.00,11.87,427887381,425873000,2004000,17
2.12,2.05,0.09,0.00,5.02,173310772,172296000,1001000,17
6.86,6.67,0.27,0.00,15.57,525375999,522261000,3001000,17
25.81,24.89,1.32,0.00,67.55,2584813163,2581588000,2999000,17
12.95,12.60,0.50,0.00,29.18,981706504,978661000,2998000,17
18.62,18.06,0.81,0.00,44.13,1583595142,1580447000,2998000,17
5.68,5.49,0.28,0.00,14.44,537980474,533862000,3998000,17
3.51,3.36,0.21,0.00,9.80,395230936,389149000,6002000,17
4.25,4.11,0.21,0.00,10.88,404991260,401966000,2999000,17
8.05,7.82,0.33,0.00,18.88,650299333,649199000,1000000,17
18.73,18.20,0.77,0.00,43.39,1505209223,1503112000,2000000,17
5.38,5.20,0.26,0.00,14.68,506034749,502005000,4000000,17
12.72,12.34,0.53,0.00,31.79,1039798493,1033652000,5997000,17
11.87,11.54,0.48,0.00,27.47,944131458,940740000,2999000,17
9.53,9.27,0.37,0.00,21.68,722496678,718290000,4001000,17
7.43,7.23,0.29,0.00,16.79,554662797,548548000,5995000,17
13.23,12.88,0.52,0.00,30.11,1008281966,1006192000,2000000,17
9.38,9.13,0.50,0.00,21.10,709170446,703881000,5006000,18
3.93,3.81,0.18,0.00,9.35,339316865,337298000,2001000,18
3.44,3.35,0.14,0.00,7.66,258609142,253562000,4991000,18
28.85,27.98,1.51,0.00,66.47,2287726293,2143658000,143977000,18
26.42,25.61,1.41,0.00,61.88,2115604609,1970236000,144943000,18
0.53,0.52,0.02,0.00,1.26,41653598,39600000,2030000,18
10.21,9.85,0.58,0.00,27.23,920424495,796346000,124053000,18
23.39,22.70,1.26,0.00,53.64,1791155819,1644880000,145989000,18
9.99,9.67,0.45,0.00,24.22,869386886,865298000,3996000,18
4.43,4.27,0.31,0.00,10.99,384874898,376731000,7994000,18
17.99,17.48,0.86,0.00,41.25,1388572982,1388479000,0,18
6.39,6.21,0.27,0.00,14.98,515156558,512038000,3000000,18
8.89,8.62,0.40,0.00,21.83,776387061,773299000,2997000,18
8.90,8.64,0.47,0.00,20.47,671326461,661197000,9987000,18
5.90,5.73,0.26,0.00,14.24,503017100,498931000,3999000,18
6.62,6.43,0.39,0.00,15.62,526380780,519361000,6991000,18
8.60,8.35,0.48,0.00,20.46,698331930,690225000,7991000,18
36.34,35.14,1.93,0.00,91.73,3355822579,3348227000,6998000,18
14.58,14.17,0.60,0.00,33.43,1149312551,1147199000,2000000,18
8.78,8.53,0.48,0.00,20.36,681457578,676368000,4995000,18
1.30,1.23,0.10,0.00,3.73,137385780,934000,5200000,19
7.13,6.91,0.32,0.00,17.51,588530943,553460000,35029000,19
8.84,8.59,0.40,0.00,20.21,672156074,631996000,39999000,19
13.84,13.43,0.70,0.00,32.71,1121937121,1059441000,61967000,19
1.12,1.08,0.07,0.00,2.74,91846173,1907000,4346000,19
6.86,6.66,0.33,0.00,15.97,543065928,509044000,34003000,19
1.08,1.06,0.07,0.00,2.79,91789558,1910000,4358000,19
8.09,7.85,0.37,0.00,20.69,672829987,615818000,56983000,19
4.97,4.82,0.22,0.00,12.29,391879773,353550000,37951000,19
3.37,3.27,0.16,0.00,8.41,270642073,238549000,31939000,19
10.68,10.37,0.52,0.00,24.84,835272193,776220000,59016000,19
9.66,9.38,0.46,0.00,22.82,785897258,754844000,30993000,19
6.69,6.48,0.38,0.00,16.12,544953911,475922000,68988000,19
6.52,6.33,0.32,0.00,15.33,520294230,485254000,35018000,19
4.26,4.15,0.18,0.00,10.13,351515658,351410000,0,19
1.10,1.07,0.07,0.00,2.76,91480974,6346000,0,19
8.91,8.63,0.46,0.00,21.80,730573759,662583000,67957000,19
8.67,8.41,0.45,0.00,20.65,696237640,634192000,62018000,19
12.79,12.42,0.59,0.00,30.28,1033108212,999025000,34000000,19
6.22,6.04,0.31,0.00,14.67,490788538,451793000,38982000,19
0.32,0.32,0.01,0.00,0.78,26634336,25327000,1013000,20
0.01,0.02,0.00,0.00,0.03,1407092,1407000,0,20
0.94,0.91,0.04,0.00,2.25,75576122,75440000,0,20
0.42,0.41,0.02,0.00,1.02,34235453,31214000,3020000,20
0.56,0.55,0.02,0.00,1.38,47296176,46281000,1006000,20
0.01,0.02,0.00,0.00,0.03,1469511,1472000,0,20
0.34,0.32,0.01,0.00,0.82,26804018,26806000,0,20
0.71,0.69,0.03,0.00,1.78,59998526,57987000,1999000,20
0.75,0.73,0.03,0.00,1.84,63548180,62537000,992000,20
2.04,1.98,0.09,0.00,5.23,176548848,172520000,4012000,20
1.07,1.03,0.05,0.00,2.59,88382580,84346000,4016000,20
1.75,1.68,0.08,0.00,4.28,150199353,141102000,8943000,20
0.01,0.02,0.00,0.00,0.03,1410009,1410000,0,20
0.01,0.02,0.00,0.00,0.03,1539930,746000,746000,20
0.02,0.02,0.00,0.00,0.06,1437725,1423000,0,20
0.63,0.61,0.03,0.00,1.59,53253253,53132000,0,20
0.59,0.57,0.03,0.00,1.54,51602988,49543000,2022000,20
1.12,1.09,0.05,0.00,2.73,89926692,88787000,1008000,20
0.39,0.38,0.02,0.00,1.08,39751468,36665000,3055000,20
1.08,1.05,0.05,0.00,2.60,87907385,86885000,998000,20
0.70,0.69,0.03,0.00,1.78,62497765,60254000,1975000,21
0.76,0.74,0.03,0.00,1.88,65512739,63514000,1984000,21
0.81,0.79,0.04,0.00,2.02,69892962,67886000,1996000,21
5.98,5.81,0.25,0.00,14.20,495268602,494250000,1000000,21
16.57,16.13,0.64,0.00,37.46,1258322079,1257149000,999000,21
0.99,0.97,0.05,0.00,2.63,87543609,76577000,10939000,21
40.79,39.59,1.72,0.00,96.53,3374863453,3372524000,1999000,21
15.73,15.30,0.61,0.00,35.49,1190307685,1190279000,0,21
14.95,14.53,0.59,0.00,34.04,1151109806,1150060000,1000000,21
1.20,1.16,0.05,0.00,2.92,100724299,97693000,3021000,21
15.91,15.49,0.62,0.00,36.13,1215066167,1214000000,1000000,21
6.64,6.43,0.31,0.00,16.01,562769090,546722000,15991000,21
1.52,1.47,0.07,0.00,3.77,132923012,127788000,4991000,21
1.27,1.24,0.06,0.00,3.30,112327095,107113000,4958000,21
1.02,0.99,0.05,0.00,2.56,91239546,90227000,1002000,21
5.55,5.39,0.23,0.00,13.01,445263699,444259000,1000000,21
0.81,0.79,0.04,0.00,2.22,77918084,73907000,3995000,21
7.51,7.27,0.35,0.00,18.69,673804589,672691000,999000,21
0.66,0.65,0.03,0.00,1.68,59617221,59616000,0,21
2.67,2.59,0.12,0.00,6.50,226779648,223709000,3009000,21
0.16,0.16,0.01,0.00,0.40,13387722,8929000,3968000,22
0.31,0.31,0.01,0.00,0.74,24790011,23797000,991000,22
0.30,0.30,0.01,0.00,0.73,23728439,22594000,982000,22
0.14,0.15,0.01,0.00,0.34,11941091,9864000,1972000,22
0.15,0.14,0.01,0.00,0.36,11527986,9408000,2090000,22
0.34,0.33,0.01,0.00,0.82,26161396,25052000,1002000,22
0.14,0.14,0.01,0.00,0.35,11096383,9949000,994000,22
0.32,0.32,0.01,0.00,0.78,24954255,22948000,1995000,22
0.16,0.14,0.01,0.00,0.40,12249962,11127000,1011000,22
0.12,0.12,0.01,0.00,0.31,10124741,10129000,0,22
0.30,0.29,0.01,0.00,0.73,23814010,22749000,989000,22
0.15,0.16,0.01,0.00,0.38,12770908,10711000,1947000,22
0.31,0.30,0.01,0.00,0.77,24804166,23769000,990000,22
0.13,0.13,0.01,0.00,0.33,10940481,8880000,1973000,22
0.31,0.30,0.01,0.00,0.76,25057741,23963000,998000,22
0.15,0.14,0.01,0.00,0.37,11789897,9823000,1964000,22
0.17,0.16,0.01,0.00,0.43,13149611,11056000,2010000,22
0.33,0.32,0.01,0.00,0.82,25965725,24866000,994000,22
0.15,0.15,0.01,0.00,0.38,11745433,9694000,1938000,22
0.16,0.16,0.01,0.00,0.43,15251606,15208000,0,22
0.54,0.52,0.03,0.00,1.33,44191787,39707000,4072000,23
2.09,2.03,0.10,0.00,5.10,164734887,158719000,5989000,23
2.19,2.13,0.11,0.00,5.43,181605010,175588000,6020000,23
1.97,1.91,0.10,0.00,4.96,166581459,155591000,10971000,23
1.62,1.57,0.09,0.00,4.08,137935328,133781000,4023000,23
1.60,1.55,0.10,0.00,4.20,150877430,143877000,6994000,23
1.40,1.35,0.08,0.00,3.58,116234798,110208000,6011000,23
1.32,1.28,0.07,0.00,3.35,109709885,102703000,6979000,23
1.78,1.71,0.10,0.00,4.35,149462839,138401000,11032000,23
2.06,2.00,0.10,0.00,5.05,165975107,157853000,7992000,23
2.12,2.07,0.10,0.00,5.25,171195192,165109000,6003000,23
1.30,1.26,0.07,0.00,3.14,105551731,101533000,3981000,23
1.59,1.54,0.08,0.00,4.04,133698285,130677000,2992000,23
1.56,1.51,0.09,0.00,4.09,136261218,130203000,6009000,23
2.12,2.06,0.10,0.00,5.32,171908947,163691000,7984000,23
3.19,3.09,0.17,0.00,8.18,278043578,269014000,8967000,23
1.56,1.51,0.09,0.00,4.12,140237931,128195000,12018000,23
2.31,2.24,0.11,0.00,5.78,190472536,180477000,9971000,23
1.22,1.19,0.05,0.00,2.98,95285682,91278000,3968000,23
2.09,2.02,0.10,0.00,5.22,168559676,162392000,6014000,23
1.45,1.40,0.09,0.00,3.97,148095180,144819000,2996000,24
1.45,1.41,0.08,0.00,3.63,119053235,110027000,9002000,24
1.57,1.53,0.08,0.00,3.76,129397891,122281000,7016000,24
2.32,2.25,0.13,0.00,5.70,199587546,190580000,8980000,24
2.66,2.59,0.13,0.00,6.45,226536491,220429000,5984000,24
1.35,1.31,0.07,0.00,3.27,111071699,107042000,4001000,24
2.22,2.16,0.10,0.00,5.49,174472384,168468000,5981000,24
1.72,1.66,0.09,0.00,4.31,143794711,140668000,2992000,24
1.45,1.41,0.08,0.00,3.72,121472669,115469000,5972000,24
2.02,1.96,0.10,0.00,5.09,168889851,164877000,3997000,24
2.08,2.02,0.10,0.00,5.12,166851097,162833000,3995000,24
1.57,1.53,0.08,0.00,3.93,131210495,126086000,5003000,24
1.53,1.49,0.08,0.00,3.74,128915980,122883000,5945000,24
1.57,1.53,0.09,0.00,4.02,133405467,129256000,4007000,24
2.09,2.04,0.10,0.00,5.11,167908948,161826000,5993000,24
2.42,2.35,0.11,0.00,5.82,193428914,189301000,4006000,24
1.45,1.41,0.08,0.00,3.51,119126780,113016000,6000000,24
2.11,2.06,0.10,0.00,5.23,168383428,166351000,2004000,24
1.91,1.85,0.11,0.00,4.61,159207397,152091000,7004000,24
2.33,2.26,0.10,0.00,5.68,184936338,182913000,1999000,24
5.89,5.72,0.28,0.00,14.11,477203101,470851000,5998000,25
1.54,1.50,0.07,0.00,3.82,125869948,122848000,2996000,25
1.37,1.33,0.07,0.00,3.33,110917691,107886000,2996000,25
1.34,1.30,0.08,0.00,3.61,121559506,113558000,7968000,25
1.42,1.38,0.08,0.00,3.48,117836295,110814000,6988000,25
1.71,1.67,0.10,0.00,4.41,145412388,137242000,8014000,25
1.73,1.66,0.10,0.00,4.32,150333948,147275000,3005000,25
2.17,2.11,0.10,0.00,5.41,172801412,166665000,5987000,25
1.82,1.76,0.10,0.00,4.47,152908210,136884000,15986000,25
1.35,1.31,0.07,0.00,3.40,113258267,109195000,4007000,25
1.37,1.33,0.07,0.00,3.28,112162917,108121000,4004000,25
2.19,2.12,0.11,0.00,5.41,173505135,167506000,5982000,25
1.48,1.44,0.08,0.00,3.58,122764379,115753000,6985000,25
1.34,1.31,0.08,0.00,3.42,121853148,117823000,4028000,25
5.05,4.90,0.28,0.00,12.37,437065270,428947000,7999000,25
1.34,1.29,0.07,0.00,3.41,111512477,104511000,6967000,25
2.01,1.95,0.12,0.00,5.11,172141680,158095000,14008000,25
2.16,2.09,0.11,0.00,5.55,186019969,180002000,6000000,25
2.25,2.19,0.12,0.00,5.64,183996953,173975000,9998000,25
2.96,2.87,0.16,0.00,7.55,257712905,249710000,7990000,25
1.19,1.15,0.06,0.00,2.85,94052401,90155000,3005000,26
2.11,2.05,0.10,0.00,5.13,166690727,165654000,1003000,26
2.35,2.27,0.19,0.00,6.28,216391016,206296000,10014000,26
1.19,1.15,0.06,0.00,2.84,94157705,90128000,4005000,26
1.34,1.30,0.07,0.00,3.25,111004524,102913000,7993000,26
1.17,1.14,0.06,0.00,2.77,94272130,91238000,3007000,26
1.83,1.77,0.08,0.00,4.59,150249845,147243000,3004000,26
2.00,1.94,0.10,0.00,4.99,160761114,152759000,7987000,26
0.22,0.22,0.01,0.00,0.58,19789639,17800000,1977000,26
1.18,1.15,0.07,0.00,3.06,99761761,95717000,4030000,26
2.01,1.96,0.09,0.00,4.97,163678804,156672000,6985000,26
1.17,1.14,0.06,0.00,2.80,94200593,89167000,5009000,26
1.15,1.12,0.06,0.00,2.97,96712794,92699000,3987000,26
1.21,1.17,0.07,0.00,2.89,99884358,93867000,5991000,26
1.33,1.29,0.08,0.00,3.39,114355737,107242000,7015000,26
1.18,1.15,0.07,0.00,2.93,102627064,93638000,8965000,26
1.92,1.86,0.08,0.00,4.74,152879886,146856000,5994000,26
1.86,1.81,0.09,0.00,4.64,152049588,147028000,5000000,26
1.86,1.81,0.08,0.00,4.64,149191128,146170000,3003000,26
1.13,1.11,0.05,0.00,2.77,93320562,91196000,2004000,26
3.09,3.00,0.14,0.00,7.40,254172686,248853000,5017000,27
1.51,1.48,0.08,0.00,3.73,126467335,120474000,6023000,27
2.22,2.15,0.11,0.00,5.32,185177891,178139000,7005000,27
2.08,2.03,0.10,0.00,4.94,170573991,165447000,5013000,27
2.07,2.02,0.10,0.00,5.17,178444695,172341000,5977000,27
2.13,2.08,0.10,0.00,5.12,177793502,171772000,5992000,27
3.36,3.27,0.15,0.00,8.21,272015454,266924000,4979000,27
2.34,2.28,0.11,0.00,5.68,194149852,191112000,3001000,27
1.78,1.73,0.08,0.00,4.28,147278160,141243000,6010000,27
2.02,1.97,0.10,0.00,5.15,175727309,169707000,5989000,27
2.05,1.98,0.10,0.00,5.07,169760766,163668000,5987000,27
2.11,2.05,0.10,0.00,5.27,178413410,173351000,5010000,27
2.15,2.08,0.11,0.00,5.38,181751384,177642000,3991000,27
3.34,3.24,0.15,0.00,8.24,271081218,268053000,3000000,27
2.19,2.12,0.11,0.00,5.28,181334487,174301000,7012000,27
2.24,2.17,0.11,0.00,5.57,196683000,184691000,11980000,27
2.02,1.96,0.10,0.00,5.04,170110732,166071000,4001000,27
2.15,2.09,0.10,0.00,5.36,180413963,176380000,4008000,27
3.27,3.17,0.14,0.00,8.05,263877920,258855000,4997000,27
3.37,3.27,0.15,0.00,8.25,271739107,264720000,6992000,27
25.74,25.03,1.01,0.00,57.55,1966841365,1963161000,1000000,28
22.56,21.95,0.90,0.00,51.15,1740205572,1738097000,2000000,28
4.82,4.69,0.20,0.00,11.30,394420775,390433000,3994000,28
1.72,1.68,0.08,0.00,4.13,143440281,140340000,2985000,28
26.38,25.68,1.01,0.00,59.38,1979796760,1977622000,1999000,28
19.65,19.12,0.76,0.00,44.20,1487937401,1461728000,25995000,28
27.75,27.00,1.09,0.00,63.00,2133095614,2109509000,22994000,28
6.52,6.35,0.26,0.00,15.16,517764783,481738000,35980000,28
18.26,17.76,0.71,0.00,41.39,1403499251,1401371000,1999000,28
5.74,5.58,0.23,0.00,13.26,450461065,425406000,25023000,28
8.56,8.31,0.35,0.00,20.02,691000590,686831000,3999000,28
8.22,8.00,0.32,0.00,18.68,629358151,628330000,1000000,28
9.08,8.84,0.36,0.00,20.77,697246922,695215000,2000000,28
5.34,5.19,0.21,0.00,12.32,418938976,416915000,1999000,28
14.69,14.27,0.60,0.00,34.28,1182753357,1180576000,1999000,28
16.56,16.12,0.64,0.00,37.44,1255193295,1252014000,2997000,28
19.03,18.51,0.74,0.00,43.16,1459799826,1430762000,28995000,28
9.10,8.86,0.37,0.00,20.94,714863897,685805000,28991000,28
13.79,13.40,0.56,0.00,31.93,1095885580,1091681000,3998000,28
17.25,16.75,0.71,0.00,40.04,1386249527,1357057000,29001000,28
1.07,1.04,0.05,0.00,2.72,88060536,85722000,1993000,29
0.63,0.60,0.03,0.00,1.66,56491715,52506000,3962000,29
0.93,0.91,0.05,0.00,2.31,74887225,70863000,3992000,29
0.46,0.45,0.02,0.00,1.18,40659433,33545000,7115000,29
1.94,1.87,0.10,0.00,4.91,178373811,123535000,54794000,29
0.54,0.52,0.03,0.00,1.33,44004575,36981000,6996000,29
0.58,0.56,0.03,0.00,1.44,47919536,43897000,3990000,29
0.48,0.47,0.02,0.00,1.20,39018335,34993000,3999000,29
1.04,1.00,0.06,0.00,2.66,87770783,73787000,13959000,29
6.94,6.71,0.41,0.00,18.24,630551889,551569000,78938000,29
5.27,5.10,0.27,0.00,13.62,458047736,404002000,54000000,29
2.68,2.60,0.13,0.00,6.71,235155284,176098000,59033000,29
0.95,0.93,0.05,0.00,2.37,78215678,68141000,10020000,29
0.49,0.47,0.02,0.00,1.24,40812797,35817000,4974000,29
2.27,2.20,0.11,0.00,5.84,214591554,150700000,63873000,29
0.87,0.84,0.05,0.00,2.20,71256830,68213000,3009000,29
1.16,1.12,0.06,0.00,2.89,93598537,87482000,6033000,29
0.61,0.59,0.04,0.00,1.70,60641330,58630000,1987000,29
0.74,0.72,0.04,0.00,1.86,61177685,57139000,4009000,29
0.67,0.66,0.03,0.00,1.67,54439664,49372000,5038000,29
4.49,4.35,0.21,0.00,11.41,363619240,354200000,8979000,30
2.67,2.59,0.12,0.00,6.19,211782873,205735000,6021000,30
3.76,3.65,0.18,0.00,9.26,296698176,289654000,7015000,30
4.94,4.79,0.24,0.00,11.69,404589387,397560000,6992000,30
2.71,2.63,0.13,0.00,6.32,215942697,204917000,10995000,30
2.96,2.87,0.14,0.00,7.05,245573210,212375000,33058000,30
2.33,2.26,0.11,0.00,5.91,192867059,183918000,8947000,30
2.98,2.89,0.17,0.00,7.18,240929265,235891000,4997000,30
4.92,4.77,0.23,0.00,12.23,407854872,400850000,6997000,30
3.50,3.39,0.17,0.00,8.90,296155274,271068000,25006000,30
3.10,3.00,0.15,0.00,7.86,258873701,252831000,5996000,30
7.89,7.64,0.48,0.00,19.98,661387622,609332000,52028000,30
3.94,3.81,0.19,0.00,9.96,327289599,316190000,11006000,30
4.07,3.95,0.23,0.00,9.85,339230128,329213000,10006000,30
6.89,6.69,0.32,0.00,17.38,571067104,530126000,40932000,30
6.43,6.24,0.32,0.00,16.44,544409825,518367000,26018000,30
8.41,8.15,0.41,0.00,21.99,739298271,731253000,8002000,30
3.12,3.02,0.16,0.00,8.12,268705433,230722000,37954000,30
3.41,3.31,0.16,0.00,8.64,276231135,270201000,6004000,30
6.80,6.60,0.30,0.00,17.12,560523802,525468000,35031000,30
6.01,5.84,0.25,0.00,13.99,484821000,483550000,1001000,31
1.23,1.20,0.05,0.00,3.00,104143757,103129000,1001000,31
1.79,1.73,0.09,0.00,4.60,169044355,168040000,1000000,31
2.25,2.19,0.11,0.00,5.61,194280947,192274000,1992000,31
1.24,1.17,0.11,0.00,3.83,143822559,3757000,2504000,31
0.25,0.24,0.01,0.00,0.67,22906225,16911000,5968000,31
3.18,3.07,0.15,0.00,8.04,295026403,294013000,996000,31
2.00,1.94,0.09,0.00,5.06,180288700,178283000,1991000,31
1.83,1.77,0.09,0.00,4.76,176076737,171120000,4974000,31
2.02,1.96,0.09,0.00,5.08,181921433,180909000,999000,31
1.19,1.15,0.06,0.00,3.10,113028402,112020000,1000000,31
5.92,5.73,0.26,0.00,14.52,516661037,515465000,998000,31
3.82,3.69,0.18,0.00,9.82,353908691,352829000,999000,31
1.81,1.74,0.09,0.00,4.72,173447832,172431000,1002000,31
2.35,2.28,0.10,0.00,5.64,195362879,195359000,0,31
2.35,2.28,0.10,0.00,5.57,191495344,190493000,1002000,31
2.67,2.58,0.12,0.00,6.63,237253871,236256000,1001000,31
2.37,2.30,0.10,0.00,5.67,195823282,194824000,999000,31
0.10,0.10,0.01,0.00,0.29,9739418,8684000,964000,31
0.59,0.58,0.03,0.00,1.51,52013506,51035000,1000000,31
