@relation problema
@attribute 'pkg' real
@attribute 'cores' real
@attribute 'ram' real
@attribute 'gpu' real
@attribute 'psys' real
@attribute 'duration_time' real
@attribute 'user_time' real
@attribute 'system_time' real
@attribute 'class' {0,1,2,3,4,5,6,7,8,9,10,11,12,13,14,15,16,17,18,19,20,21,22,23,24,25,26,27,28,29,30,31}
@data
1.53,1.48,0.07,0.00,4.08,131589643,104105000,27027000,0
1.49,1.46,0.07,0.00,3.89,130747692,109736000,20949000,0
1.46,1.41,0.07,0.00,3.95,134906589,111916000,22982000,0
1.49,1.44,0.07,0.00,3.94,130882778,90178000,40629000,0
0.08,0.08,0.00,0.00,0.21,7228804,6196000,1032000,0
0.91,0.88,0.04,0.00,2.53,85598065,63689000,21893000,0
1.41,1.36,0.07,0.00,3.95,137762107,109564000,28144000,0
1.47,1.43,0.07,0.00,3.97,129321209,96154000,33053000,0
0.30,0.30,0.01,0.00,0.76,25392327,25383000,0,0
0.31,0.30,0.01,0.00,0.77,25208102,24178000,1007000,0
0.94,0.91,0.05,0.00,2.60,89055467,57035000,32019000,0
0.32,0.31,0.01,0.00,0.84,25382105,24280000,1011000,0
1.49,1.44,0.07,0.00,4.00,131365374,96260000,35095000,0
0.30,0.29,0.01,0.00,0.80,24403292,23288000,1012000,0
1.48,1.44,0.07,0.00,3.98,130442363,105547000,24893000,0
0.30,0.29,0.01,0.00,0.80,24938999,23932000,997000,0
1.50,1.46,0.07,0.00,4.01,131093073,104185000,26790000,0
0.95,0.91,0.05,0.00,2.59,88202361,56071000,32040000,0
1.50,1.44,0.07,0.00,3.99,130315882,90215000,40095000,0
0.91,0.88,0.04,0.00,2.57,85771094,58851000,26932000,0
0.15,0.15,0.01,0.00,0.40,14293610,13984000,0,1
1.84,1.78,0.10,0.00,5.26,201373921,199356000,1993000,1
1.55,1.49,0.08,0.00,4.19,154301210,153305000,1001000,1
0.44,0.43,0.03,0.00,1.29,47246474,46230000,1005000,1
0.44,0.43,0.03,0.00,1.29,48220130,47219000,1004000,1
0.43,0.41,0.02,0.00,1.24,46099582,46085000,0,1
0.68,0.66,0.03,0.00,1.87,66864897,65856000,997000,1
0.24,0.23,0.01,0.00,0.66,22924092,21916000,996000,1
1.05,1.01,0.06,0.00,3.03,113265762,111247000,2004000,1
0.43,0.42,0.02,0.00,1.25,46354585,45244000,983000,1
0.21,0.21,0.01,0.00,0.67,26387439,26391000,0,1
0.44,0.43,0.03,0.00,1.30,49128726,49124000,0,1
3.36,3.23,0.19,0.00,9.47,368297997,367262000,1000000,1
0.14,0.13,0.01,0.00,0.38,12847333,12733000,0,1
0.45,0.44,0.02,0.00,1.25,45239823,43996000,999000,1
1.84,1.78,0.10,0.00,5.01,188904593,187897000,999000,1
0.48,0.46,0.03,0.00,1.36,48489790,46431000,1975000,1
0.43,0.41,0.02,0.00,1.28,46557288,45475000,988000,1
3.40,3.26,0.20,0.00,10.00,395632384,392632000,2997000,1
0.27,0.26,0.02,0.00,0.75,27718650,26613000,985000,1
0.83,0.80,0.04,0.00,2.09,66544918,62071000,3941000,2
0.37,0.36,0.02,0.00,0.97,33593709,31526000,1970000,2
0.78,0.76,0.03,0.00,1.92,63560989,63541000,0,2
0.40,0.39,0.02,0.00,1.05,34714089,30702000,3961000,2
0.82,0.79,0.03,0.00,2.05,64879832,63846000,1013000,2
0.78,0.76,0.03,0.00,1.94,63545836,61447000,1982000,2
0.32,0.30,0.02,0.00,0.93,35742832,33701000,2042000,2
0.30,0.29,0.02,0.00,0.97,37851057,34852000,2987000,2
0.40,0.38,0.02,0.00,1.05,33763690,30668000,2967000,2
0.80,0.78,0.03,0.00,2.00,65478294,63507000,1984000,2
0.38,0.37,0.02,0.00,1.01,34020960,32924000,997000,2
0.82,0.79,0.04,0.00,2.06,64901273,62861000,1995000,2
0.77,0.75,0.03,0.00,1.94,63212214,60195000,2960000,2
0.85,0.82,0.04,0.00,2.17,68945997,65912000,2996000,2
0.39,0.38,0.02,0.00,1.01,34243532,33089000,1002000,2
0.76,0.74,0.03,0.00,1.94,64186396,63138000,1002000,2
0.79,0.77,0.03,0.00,1.96,64230983,64181000,0,2
0.78,0.76,0.03,0.00,1.97,62718574,61712000,995000,2
0.43,0.42,0.02,0.00,1.14,37165524,36112000,1003000,2
0.38,0.37,0.02,0.00,0.98,32906881,30892000,1993000,2
1.21,1.17,0.08,0.00,3.25,112614749,102374000,9939000,3
1.68,1.63,0.09,0.00,4.38,157369479,152255000,5008000,3
2.41,2.32,0.13,0.00,6.26,228223213,159135000,69058000,3
1.05,1.02,0.07,0.00,2.77,95942721,93849000,2018000,3
1.68,1.63,0.09,0.00,4.43,145582106,139501000,5978000,3
3.11,3.01,0.16,0.00,8.16,282191606,228120000,54028000,3
3.08,2.97,0.16,0.00,8.11,281990504,219909000,61974000,3
2.37,2.29,0.13,0.00,6.27,224013949,159984000,63993000,3
3.11,3.01,0.16,0.00,8.49,284558087,226552000,57885000,3
1.08,1.04,0.07,0.00,2.92,102821788,99742000,3022000,3
2.98,2.89,0.16,0.00,8.31,281127801,223932000,56982000,3
2.24,2.16,0.13,0.00,6.50,227944704,171924000,55975000,3
0.99,0.95,0.06,0.00,2.63,90717794,84718000,5980000,3
3.07,2.98,0.16,0.00,8.38,286394643,236304000,50064000,3
1.03,1.00,0.07,0.00,2.75,96679792,93628000,3020000,3
3.10,2.98,0.16,0.00,8.44,286587398,229555000,56889000,3
1.11,1.07,0.07,0.00,2.94,100769988,94730000,5983000,3
2.39,2.31,0.13,0.00,6.31,225669866,165731000,59903000,3
3.27,3.17,0.17,0.00,8.53,300700964,245550000,55123000,3
0.92,0.89,0.05,0.00,2.45,85022752,78991000,5999000,3
2.20,2.11,0.17,0.00,6.02,208280632,77248000,11035000,4
2.59,2.51,0.17,0.00,6.70,225526980,125343000,15041000,4
1.89,1.82,0.14,0.00,5.04,168191598,77176000,6013000,4
2.66,2.58,0.17,0.00,6.82,223220006,126701000,9976000,4
1.96,1.89,0.14,0.00,5.19,174105887,75656000,13113000,4
2.70,2.61,0.17,0.00,6.90,229103645,138331000,6014000,4
0.99,0.94,0.10,0.00,3.02,115192275,109176000,6009000,4
1.93,1.87,0.14,0.00,5.14,171035225,76528000,9432000,4
1.23,1.18,0.13,0.00,3.55,123221709,116064000,7003000,4
1.87,1.79,0.13,0.00,5.04,167260415,159189000,7959000,4
1.90,1.83,0.14,0.00,5.14,170873343,79552000,6041000,4
1.89,1.82,0.14,0.00,4.99,167728451,72707000,10068000,4
1.83,1.78,0.13,0.00,4.84,164591642,67783000,11788000,4
1.17,1.12,0.11,0.00,3.34,113252844,106168000,6945000,4
1.90,1.84,0.14,0.00,5.19,169646753,70129000,14025000,4
4.53,4.37,0.34,0.00,12.18,421122926,315905000,20558000,4
1.81,1.74,0.13,0.00,4.73,158929108,69218000,4982000,4
1.89,1.83,0.14,0.00,5.11,168956474,72602000,10940000,4
2.66,2.57,0.17,0.00,6.90,227406968,135390000,7020000,4
1.77,1.72,0.12,0.00,4.76,159700888,155678000,3991000,4
2.93,2.83,0.19,0.00,7.72,256282742,128391000,12036000,5
2.75,2.66,0.17,0.00,6.94,230843382,136274000,10020000,5
1.56,1.51,0.15,0.00,4.35,151355431,141313000,10022000,5
1.91,1.85,0.14,0.00,5.06,169885620,73793000,10969000,5
2.72,2.64,0.17,0.00,7.02,230344732,131167000,14017000,5
1.91,1.85,0.14,0.00,5.00,167472867,72679000,10094000,5
1.88,1.82,0.14,0.00,4.97,167309487,73665000,9046000,5
3.15,3.04,0.23,0.00,8.38,282638247,182223000,15964000,5
2.71,2.61,0.17,0.00,6.96,228476607,136830000,6991000,5
1.89,1.82,0.14,0.00,5.09,167300983,73175000,9021000,5
1.95,1.89,0.14,0.00,5.17,172243467,72415000,15086000,5
2.80,2.69,0.24,0.00,7.56,267150587,168315000,14026000,5
1.57,1.51,0.16,0.00,4.50,155643081,142563000,12960000,5
1.89,1.82,0.14,0.00,5.04,170309115,73713000,11953000,5
2.18,2.08,0.24,0.00,6.26,223169719,209985000,12999000,5
2.13,2.04,0.17,0.00,5.76,197604342,105057000,8004000,5
1.92,1.86,0.14,0.00,5.21,173609902,80342000,8104000,5
2.65,2.56,0.17,0.00,6.84,224897571,132710000,7164000,5
1.56,1.49,0.15,0.00,4.36,152492548,143350000,9022000,5
2.72,2.63,0.17,0.00,6.99,230460052,134599000,11049000,5
2.77,2.67,0.18,0.00,7.20,249715291,185556000,62849000,6
3.01,2.91,0.20,0.00,8.06,295590038,277507000,18032000,6
0.82,0.79,0.04,0.00,2.11,68581148,65534000,3024000,6
3.95,3.82,0.22,0.00,10.18,331808168,207231000,9963000,6
0.95,0.91,0.05,0.00,2.41,78796829,76779000,1994000,6
2.93,2.83,0.25,0.00,8.18,300634069,288617000,11984000,6
1.96,1.90,0.11,0.00,5.08,168321592,76051000,6791000,6
1.08,1.05,0.05,0.00,2.83,94406147,91072000,3002000,6
2.53,2.46,0.10,0.00,6.28,197746392,194722000,2995000,6
0.97,0.94,0.05,0.00,2.50,85373136,80332000,5020000,6
0.98,0.94,0.05,0.00,2.55,85023826,79000000,6000000,6
0.95,0.92,0.05,0.00,2.41,78743426,75731000,2989000,6
2.92,2.84,0.14,0.00,7.58,250683900,242639000,8021000,6
3.27,3.15,0.24,0.00,9.15,312923054,293890000,18992000,6
1.37,1.32,0.07,0.00,3.71,130079801,120880000,8991000,6
1.23,1.19,0.09,0.00,3.41,121891892,118857000,3021000,6
2.45,2.38,0.10,0.00,6.10,194395613,191358000,3005000,6
2.42,2.36,0.10,0.00,6.04,193431089,186426000,6978000,6
2.01,1.94,0.11,0.00,5.36,172774772,78443000,8898000,6
2.48,2.41,0.11,0.00,6.20,195960991,190913000,4997000,6
1.31,1.28,0.06,0.00,3.24,113940687,111673000,1994000,7
1.30,1.24,0.09,0.00,3.66,128496885,2777000,3702000,7
4.01,3.83,0.33,0.00,10.27,342405376,182527000,159587000,7
1.60,1.54,0.07,0.00,3.87,134738579,131660000,2992000,7
1.32,1.26,0.08,0.00,3.29,111416850,4024000,22133000,7
2.79,2.68,0.19,0.00,7.34,242527433,111771000,130732000,7
3.29,3.16,0.21,0.00,8.68,287018921,161460000,125580000,7
3.61,3.45,0.31,0.00,9.07,306544629,148646000,157625000,7
3.62,3.45,0.31,0.00,9.14,304768065,143772000,160745000,7
1.51,1.48,0.06,0.00,3.76,116284212,115180000,1001000,7
0.66,0.64,0.03,0.00,1.67,57497555,56489000,1008000,7
3.09,2.97,0.20,0.00,8.31,275913251,156876000,118906000,7
1.06,1.03,0.04,0.00,2.50,82754983,80741000,1993000,7
4.02,3.84,0.34,0.00,10.51,341418991,173587000,167601000,7
2.11,2.05,0.09,0.00,5.48,181087634,179028000,2000000,7
4.11,3.92,0.34,0.00,10.72,356503366,200193000,156150000,7
3.52,3.35,0.31,0.00,9.28,302284167,151008000,151008000,7
3.55,3.38,0.31,0.00,9.31,308608971,140709000,167654000,7
1.07,1.04,0.04,0.00,2.58,86099262,83997000,1999000,7
0.79,0.76,0.03,0.00,1.91,62772296,60622000,1987000,7
2.36,2.28,0.14,0.00,5.91,193844837,183490000,10026000,8
2.12,2.05,0.12,0.00,5.49,180145378,173105000,7004000,8
3.09,2.98,0.21,0.00,8.33,276336124,195217000,81090000,8
0.98,0.94,0.07,0.00,2.61,86146854,77164000,8903000,8
4.39,4.24,0.22,0.00,10.76,365615382,298351000,67078000,8
2.42,2.34,0.13,0.00,6.34,206812141,201617000,5015000,8
1.40,1.35,0.12,0.00,3.51,114249983,105306000,8941000,8
1.44,1.39,0.09,0.00,3.64,121003390,112961000,7997000,8
1.79,1.72,0.15,0.00,4.72,149071502,132705000,16085000,8
1.63,1.57,0.10,0.00,4.09,136375144,124375000,11940000,8
1.82,1.77,0.12,0.00,4.78,156550656,146467000,9963000,8
1.82,1.76,0.11,0.00,4.76,153719815,144685000,8980000,8
1.65,1.59,0.14,0.00,4.39,139922304,130901000,8993000,8
4.89,4.74,0.24,0.00,11.65,399139250,395053000,4000000,8
1.70,1.65,0.11,0.00,4.55,148655024,139650000,8977000,8
2.35,2.26,0.16,0.00,6.34,208728854,196653000,12040000,8
1.39,1.34,0.10,0.00,3.70,120349291,113309000,7019000,8
4.26,4.13,0.22,0.00,11.20,369201357,307115000,62023000,8
1.63,1.58,0.11,0.00,4.45,145501797,138459000,7023000,8
1.35,1.31,0.10,0.00,3.67,119306230,109268000,9933000,8
0.15,0.15,0.01,0.00,0.39,12118261,8763000,2921000,9
0.05,0.05,0.00,0.00,0.12,4058073,4063000,0,9
0.48,0.46,0.03,0.00,1.38,49953570,49954000,0,9
0.03,0.02,0.00,0.00,0.10,3853089,1927000,1927000,9
0.25,0.24,0.01,0.00,0.60,18778457,15796000,2961000,9
1.20,1.15,0.09,0.00,3.49,126047776,2599000,3898000,9
0.16,0.15,0.01,0.00,0.45,15594729,11692000,3897000,9
0.13,0.13,0.01,0.00,0.31,10377285,10379000,0,9
0.51,0.50,0.02,0.00,1.31,41177608,38147000,3011000,9
0.15,0.15,0.01,0.00,0.38,12266568,8168000,4084000,9
0.21,0.22,0.01,0.00,0.52,16803661,15815000,988000,9
0.21,0.20,0.01,0.00,0.51,17597715,16552000,1034000,9
0.49,0.48,0.02,0.00,1.24,39105833,38086000,1002000,9
0.04,0.04,0.00,0.00,0.09,3590436,3571000,0,9
0.15,0.14,0.01,0.00,0.37,12060452,8028000,4014000,9
0.14,0.14,0.01,0.00,0.39,13061319,11050000,2009000,9
0.50,0.49,0.02,0.00,1.24,40357518,39334000,1008000,9
0.14,0.14,0.01,0.00,0.35,11516980,8376000,3141000,9
0.21,0.20,0.01,0.00,0.51,16037008,15004000,1000000,9
0.06,0.05,0.00,0.00,0.15,4641071,3478000,1159000,9
0.75,0.72,0.06,0.00,1.99,67439320,63881000,3041000,10
1.12,1.10,0.05,0.00,2.75,87292504,84258000,3009000,10
1.44,1.41,0.09,0.00,3.71,120669154,113666000,6979000,10
0.92,0.89,0.08,0.00,2.42,80799507,73719000,6973000,10
0.80,0.77,0.07,0.00,2.13,70968302,61959000,8994000,10
1.40,1.36,0.09,0.00,3.56,116946915,102925000,13989000,10
1.15,1.11,0.12,0.00,3.19,116669124,100509000,16081000,10
1.04,1.00,0.05,0.00,2.68,88695727,84680000,3984000,10
1.09,1.06,0.05,0.00,2.77,89781621,83692000,5978000,10
1.42,1.38,0.09,0.00,3.69,121263861,114105000,7006000,10
1.95,1.89,0.15,0.00,5.10,172344050,159186000,13015000,10
1.85,1.77,0.18,0.00,5.23,182422511,175402000,7016000,10
0.53,0.52,0.03,0.00,1.35,43634700,39643000,3964000,10
1.38,1.34,0.09,0.00,3.61,123058027,116015000,7000000,10
1.33,1.28,0.10,0.00,3.57,123760546,110740000,12969000,10
1.11,1.08,0.05,0.00,2.75,89778904,84759000,4985000,10
1.13,1.09,0.05,0.00,2.79,88342287,83256000,4955000,10
0.51,0.50,0.03,0.00,1.29,41445609,35429000,5904000,10
0.52,0.52,0.03,0.00,1.38,44918351,38822000,5972000,10
0.84,0.81,0.07,0.00,2.18,74584017,69421000,5030000,10
0.60,0.57,0.05,0.00,2.09,88693738,86059000,1978000,11
0.73,0.70,0.03,0.00,1.81,61936599,61929000,0,11
0.63,0.62,0.03,0.00,1.58,54093620,54092000,0,11
0.63,0.62,0.03,0.00,1.59,55842583,55736000,0,11
0.64,0.63,0.03,0.00,1.61,54765224,54747000,0,11
0.63,0.62,0.03,0.00,1.61,55740772,55733000,0,11
0.62,0.60,0.03,0.00,1.58,54003428,53042000,982000,11
0.57,0.55,0.03,0.00,1.51,51283743,50266000,1005000,11
0.60,0.58,0.03,0.00,1.51,50795234,48799000,1991000,11
0.64,0.62,0.03,0.00,1.61,55051953,53033000,2001000,11
0.97,0.94,0.04,0.00,2.41,85233897,84238000,1002000,11
4.08,3.97,0.16,0.00,9.36,308112192,306093000,2000000,11
0.63,0.61,0.03,0.00,1.60,53788431,52775000,995000,11
0.62,0.60,0.03,0.00,1.58,53751618,52740000,995000,11
1.20,1.16,0.05,0.00,3.00,104815753,104805000,0,11
7.66,7.44,0.30,0.00,17.62,582415889,581284000,1000000,11
0.63,0.60,0.03,0.00,1.60,54513883,53506000,990000,11
0.67,0.65,0.03,0.00,1.69,57608507,56656000,993000,11
0.76,0.74,0.03,0.00,1.91,65129330,63119000,2003000,11
0.64,0.62,0.03,0.00,1.65,57233477,55154000,2005000,11
2.17,2.08,0.13,0.00,5.85,209175711,200806000,7992000,12
1.18,1.15,0.05,0.00,2.89,91694878,85606000,5972000,12
1.15,1.13,0.05,0.00,2.80,89396031,88377000,1004000,12
2.51,2.43,0.16,0.00,6.49,231669417,199551000,32088000,12
1.18,1.14,0.05,0.00,2.88,89159409,88157000,1001000,12
1.27,1.22,0.05,0.00,3.15,99296212,94257000,5013000,12
0.39,0.38,0.02,0.00,1.02,33464211,32430000,1013000,12
0.40,0.38,0.02,0.00,1.01,32185164,29156000,3016000,12
1.94,1.87,0.10,0.00,5.10,170246849,163215000,7009000,12
2.15,2.08,0.11,0.00,5.55,184007740,171614000,11973000,12
0.40,0.39,0.02,0.00,1.02,32783966,30713000,1981000,12
1.25,1.23,0.05,0.00,3.09,98888275,94878000,3994000,12
0.46,0.45,0.02,0.00,1.17,38876883,35761000,2980000,12
1.05,1.01,0.07,0.00,3.13,123083308,115072000,8005000,12
1.25,1.22,0.05,0.00,3.10,98691329,95575000,2986000,12
0.98,0.93,0.06,0.00,2.75,96273833,90139000,6009000,12
1.17,1.13,0.07,0.00,3.16,110142186,101108000,9009000,12
0.47,0.46,0.02,0.00,1.27,41879880,39805000,1990000,12
1.29,1.25,0.08,0.00,3.57,125981563,116898000,9069000,12
2.07,2.00,0.11,0.00,5.52,185065504,174965000,9998000,12
0.12,0.12,0.01,0.00,0.30,10371567,7293000,2735000,13
0.27,0.26,0.01,0.00,0.68,23115590,22122000,1005000,13
0.29,0.28,0.01,0.00,0.78,26516526,24475000,2039000,13
0.14,0.13,0.01,0.00,0.34,10630944,9653000,965000,13
0.32,0.31,0.01,0.00,0.77,25481503,23438000,2038000,13
0.31,0.30,0.01,0.00,0.78,24219016,23143000,1006000,13
0.31,0.30,0.01,0.00,0.74,24744958,22752000,1978000,13
0.11,0.11,0.01,0.00,0.28,9642926,7719000,1929000,13
0.25,0.24,0.01,0.00,0.71,25986524,23891000,1990000,13
0.27,0.26,0.01,0.00,0.71,23097733,22098000,1004000,13
0.30,0.29,0.01,0.00,0.75,22836117,21830000,992000,13
0.12,0.12,0.01,0.00,0.31,10008261,9008000,1000000,13
0.28,0.28,0.01,0.00,0.68,22770701,21788000,990000,13
0.35,0.34,0.01,0.00,0.88,27790468,26771000,991000,13
0.29,0.28,0.01,0.00,0.73,22698509,20651000,1966000,13
0.29,0.29,0.01,0.00,0.74,23049892,21934000,997000,13
0.33,0.31,0.01,0.00,0.81,25168223,23151000,2013000,13
0.27,0.27,0.01,0.00,0.67,22545690,20591000,1961000,13
0.31,0.30,0.01,0.00,0.78,24988132,22982000,1998000,13
0.29,0.28,0.01,0.00,0.74,22315031,22215000,0,13
0.66,0.65,0.03,0.00,1.69,58450989,54150000,4011000,14
1.62,1.57,0.08,0.00,4.47,157736346,150611000,6981000,14
4.16,4.01,0.26,0.00,10.79,399106882,393112000,5986000,14
1.93,1.85,0.11,0.00,5.03,186151704,168117000,18012000,14
2.23,2.16,0.13,0.00,5.97,212882777,203872000,8994000,14
1.91,1.84,0.10,0.00,4.87,177079388,164022000,13001000,14
2.15,2.07,0.11,0.00,5.57,200067885,192964000,7035000,14
2.01,1.94,0.10,0.00,5.20,189035634,186005000,3000000,14
2.41,2.33,0.13,0.00,6.01,211214960,196985000,13998000,14
1.79,1.73,0.10,0.00,4.66,170030667,163900000,5996000,14
1.18,1.14,0.07,0.00,3.01,104993103,91973000,12996000,14
2.18,2.11,0.13,0.00,5.66,206233604,196166000,9957000,14
1.98,1.92,0.11,0.00,5.06,183481631,170470000,12959000,14
2.43,2.35,0.14,0.00,6.40,228179896,213096000,15006000,14
1.59,1.53,0.08,0.00,4.31,160795898,159785000,998000,14
0.60,0.58,0.03,0.00,1.57,55663797,55661000,0,14
0.92,0.89,0.06,0.00,2.37,82064181,68033000,14006000,14
0.52,0.50,0.03,0.00,1.37,47494692,42541000,4946000,14
1.31,1.25,0.08,0.00,3.35,113316309,103276000,10026000,14
1.87,1.80,0.11,0.00,5.01,180105545,170063000,10003000,14
0.26,0.24,0.02,0.00,0.75,25920308,18503000,2312000,15
0.59,0.57,0.03,0.00,1.57,50868887,44730000,5964000,15
0.59,0.58,0.03,0.00,1.52,51727504,46637000,5069000,15
0.61,0.59,0.03,0.00,1.58,54007468,50987000,2999000,15
0.58,0.57,0.03,0.00,1.51,48973639,45958000,2997000,15
0.58,0.55,0.03,0.00,1.49,47709957,43714000,3974000,15
0.56,0.54,0.03,0.00,1.45,47825133,45823000,1992000,15
0.57,0.55,0.03,0.00,1.47,48044301,44148000,3924000,15
3.71,3.60,0.18,0.00,9.02,291110409,286081000,5001000,15
1.64,1.59,0.07,0.00,4.07,128808628,126713000,1995000,15
0.55,0.54,0.03,0.00,1.43,47534435,45571000,1981000,15
0.53,0.52,0.03,0.00,1.40,47711208,45564000,2025000,15
0.56,0.55,0.03,0.00,1.47,50293946,46248000,4021000,15
1.63,1.58,0.07,0.00,4.07,130215450,127232000,2982000,15
0.60,0.58,0.03,0.00,1.56,52177923,48051000,4004000,15
0.61,0.59,0.03,0.00,1.55,50978645,47963000,2997000,15
0.53,0.51,0.03,0.00,1.52,54310164,54281000,0,15
2.39,2.32,0.13,0.00,6.30,205200322,201168000,4003000,15
0.58,0.56,0.03,0.00,1.51,49752651,46698000,2980000,15
1.66,1.62,0.07,0.00,4.12,130225375,126239000,3976000,15
1.31,1.26,0.09,0.00,3.61,124338349,959000,5316000,16
1.43,1.39,0.07,0.00,3.78,136613558,131589000,4984000,16
1.49,1.43,0.08,0.00,3.93,140481740,135382000,4977000,16
0.87,0.84,0.04,0.00,2.20,74967345,68827000,5985000,16
1.46,1.41,0.07,0.00,3.98,136061008,133045000,3001000,16
1.46,1.42,0.07,0.00,3.86,139851435,135831000,3995000,16
1.43,1.38,0.07,0.00,3.97,136672391,134666000,1995000,16
1.51,1.46,0.08,0.00,3.99,144710091,142692000,1995000,16
1.02,0.98,0.12,0.00,2.67,85437267,80232000,5014000,16
1.47,1.43,0.07,0.00,3.88,136630387,133620000,2991000,16
1.63,1.59,0.07,0.00,4.04,139520105,133512000,5978000,16
1.41,1.36,0.07,0.00,3.77,136836784,132823000,3994000,16
3.70,3.52,0.37,0.00,9.51,320081970,185033000,135024000,16
1.18,1.15,0.05,0.00,2.95,100413446,98302000,1985000,16
1.44,1.39,0.07,0.00,4.04,137896478,135784000,1996000,16
1.54,1.48,0.08,0.00,4.18,152814657,145807000,6990000,16
1.49,1.44,0.07,0.00,4.19,141388764,140337000,1002000,16
1.73,1.67,0.08,0.00,4.35,151990097,145957000,5998000,16
3.10,3.01,0.13,0.00,7.52,255069930,251044000,4000000,16
1.48,1.43,0.07,0.00,3.92,142104217,139041000,3000000,16
3.42,3.28,0.20,0.00,10.43,394976569,391611000,3004000,17
3.64,3.51,0.21,0.00,10.16,397627839,390608000,7010000,17
3.72,3.57,0.21,0.00,10.48,404751796,399668000,4995000,17
3.35,3.21,0.19,0.00,9.46,368863277,366830000,2004000,17
1.91,1.85,0.09,0.00,4.84,167822886,166789000,998000,17
4.51,4.37,0.19,0.00,10.69,363836487,359813000,3997000,17
5.78,5.56,0.32,0.00,15.98,623700802,618651000,4997000,17
3.75,3.61,0.21,0.00,10.43,396520443,393403000,3003000,17
3.16,3.03,0.19,0.00,9.19,364047329,361024000,3000000,17
3.32,3.18,0.20,0.00,9.78,392851695,386714000,5995000,17
3.36,3.21,0.20,0.00,9.80,392661916,387620000,4995000,17
3.05,2.92,0.19,0.00,9.05,363719897,360592000,2996000,17
3.18,3.05,0.19,0.00,9.23,363315492,362235000,1000000,17
3.40,3.26,0.20,0.00,9.81,392722261,387610000,4994000,17
3.41,3.26,0.20,0.00,9.94,395793608,389747000,5996000,17
3.26,3.11,0.20,0.00,10.63,392807364,387610000,4994000,17
3.53,3.40,0.19,0.00,9.55,364720331,362602000,1997000,17
2.53,2.43,0.15,0.00,7.28,289193844,287035000,2000000,17
3.24,3.12,0.17,0.00,8.66,324685993,317643000,6992000,17
3.17,3.04,0.19,0.00,9.15,364898134,361815000,2998000,17
1.72,1.64,0.17,0.00,4.49,149013066,143652000,4987000,18
1.71,1.65,0.08,0.00,4.17,140753958,138719000,2010000,18
1.67,1.62,0.07,0.00,4.14,141113081,138035000,3000000,18
4.18,3.97,0.40,0.00,10.82,364517977,223301000,141190000,18
4.27,4.06,0.40,0.00,10.93,363998986,212918000,150942000,18
0.59,0.57,0.03,0.00,1.44,46429935,43297000,3020000,18
5.56,5.36,0.36,0.00,15.17,501233712,352073000,149031000,18
4.22,4.01,0.40,0.00,11.20,363691164,221799000,141871000,18
0.84,0.81,0.04,0.00,2.23,78335261,76316000,2008000,18
1.95,1.87,0.18,0.00,4.89,158208054,152079000,6003000,18
2.07,1.97,0.19,0.00,5.58,182685534,177647000,3992000,18
1.51,1.45,0.08,0.00,3.86,135353186,130953000,3968000,18
0.82,0.79,0.04,0.00,2.05,67900295,64779000,2989000,18
1.57,1.49,0.16,0.00,4.10,136569197,131444000,5016000,18
1.31,1.27,0.06,0.00,3.27,112920407,109901000,2997000,18
2.83,2.72,0.23,0.00,7.14,237169396,233143000,4002000,18
1.65,1.58,0.16,0.00,4.30,144109041,139085000,5003000,18
3.35,3.22,0.26,0.00,8.90,317076301,312043000,5000000,18
1.57,1.52,0.08,0.00,3.96,136188827,134174000,2002000,18
1.65,1.58,0.16,0.00,4.30,144167740,137197000,6959000,18
1.20,1.13,0.10,0.00,3.76,142480840,1250000,5002000,19
0.90,0.86,0.06,0.00,2.39,78859951,47899000,30935000,19
4.82,4.67,0.25,0.00,11.41,385518833,343547000,41944000,19
3.72,3.58,0.27,0.00,9.43,329225708,265170000,64041000,19
1.10,1.06,0.07,0.00,2.70,90968556,2077000,4155000,19
0.99,0.94,0.08,0.00,2.61,89692011,60699000,28857000,19
1.08,1.04,0.07,0.00,2.76,91605254,1052000,5260000,19
1.51,1.44,0.10,0.00,4.07,133180291,60077000,73094000,19
0.98,0.94,0.06,0.00,2.56,84825412,51871000,32918000,19
1.08,1.04,0.07,0.00,2.98,98221844,66129000,32062000,19
1.59,1.51,0.14,0.00,4.21,144286581,91544000,52737000,19
1.05,1.01,0.09,0.00,2.77,95764102,58840000,36900000,19
1.66,1.58,0.14,0.00,4.19,141182141,80087000,61066000,19
0.93,0.89,0.07,0.00,2.38,80080805,51044000,29025000,19
0.46,0.44,0.02,0.00,1.27,42899222,41880000,997000,19
1.03,0.99,0.07,0.00,2.76,92209875,1008000,5613000,19
1.67,1.56,0.14,0.00,4.18,139373579,78171000,61134000,19
1.42,1.35,0.13,0.00,3.77,127730377,63853000,63853000,19
3.16,3.05,0.19,0.00,7.70,260790917,229930000,30856000,19
3.32,3.22,0.20,0.00,8.18,280191042,241142000,39023000,19
0.08,0.07,0.01,0.00,0.45,20328010,17200000,2866000,20
0.01,0.01,0.00,0.00,0.05,1699950,853000,853000,20
0.35,0.34,0.01,0.00,0.88,28754564,28721000,0,20
0.16,0.16,0.01,0.00,0.40,13392414,11324000,2059000,20
0.31,0.31,0.01,0.00,0.78,25470355,24379000,1015000,20
0.02,0.01,0.00,0.00,0.05,1556779,1561000,0,20
0.18,0.17,0.01,0.00,0.44,14197138,13164000,1012000,20
0.33,0.33,0.01,0.00,0.82,26186011,25054000,1002000,20
0.19,0.19,0.01,0.00,0.50,16058521,14056000,2008000,20
0.44,0.41,0.03,0.00,1.28,47661216,43678000,3970000,20
0.38,0.37,0.02,0.00,0.98,30757694,29650000,1022000,20
0.56,0.53,0.04,0.00,1.61,57429402,54437000,2969000,20
0.01,0.01,0.00,0.00,0.03,1374572,1379000,0,20
0.01,0.01,0.00,0.00,0.03,1415027,1421000,0,20
0.01,0.01,0.00,0.00,0.03,1365353,1362000,0,20
0.21,0.20,0.01,0.00,0.52,17134419,16049000,1003000,20
0.31,0.30,0.01,0.00,0.78,23812555,21718000,1974000,20
0.38,0.37,0.02,0.00,0.95,30059475,30058000,0,20
0.20,0.19,0.01,0.00,0.50,15837624,14772000,1055000,20
0.37,0.36,0.02,0.00,0.93,29883944,27874000,1991000,20
0.05,0.04,0.00,0.00,0.12,3916849,1829000,1829000,21
0.05,0.05,0.00,0.00,0.12,4070590,3028000,1009000,21
0.05,0.05,0.00,0.00,0.12,4601690,3682000,920000,21
1.27,1.23,0.06,0.00,3.15,109817304,108693000,997000,21
1.55,1.50,0.07,0.00,3.91,139913286,139915000,0,21
0.18,0.17,0.01,0.00,0.48,15918476,7943000,7943000,21
3.05,2.95,0.14,0.00,7.56,268747764,267736000,999000,21
1.39,1.36,0.06,0.00,3.42,119433213,117431000,1990000,21
2.56,2.49,0.12,0.00,6.44,225592807,225536000,0,21
0.20,0.20,0.01,0.00,0.56,18531079,12599000,5814000,21
1.55,1.51,0.07,0.00,3.92,138486295,137362000,995000,21
0.56,0.54,0.04,0.00,1.47,49131223,38080000,11023000,21
0.13,0.12,0.01,0.00,0.33,10607146,6742000,3852000,21
0.11,0.11,0.01,0.00,0.30,10303083,7138000,3059000,21
0.05,0.04,0.00,0.00,0.14,4487829,3375000,1125000,21
1.52,1.48,0.07,0.00,3.83,137499263,136495000,996000,21
0.10,0.09,0.01,0.00,0.27,8528501,3777000,4721000,21
1.26,1.23,0.06,0.00,3.17,111277567,110281000,1002000,21
0.05,0.05,0.00,0.00,0.12,3994898,3992000,0,21
0.28,0.27,0.01,0.00,0.71,23916740,19915000,3983000,21
0.12,0.13,0.01,0.00,0.31,10794871,8367000,2091000,22
0.30,0.30,0.01,0.00,0.74,23310591,21179000,2017000,22
0.28,0.27,0.01,0.00,0.67,22158179,22123000,0,22
0.11,0.12,0.01,0.00,0.30,10512246,8563000,1902000,22
0.13,0.13,0.01,0.00,0.34,10454834,9412000,1045000,22
0.29,0.29,0.01,0.00,0.71,23113510,21063000,2006000,22
0.12,0.12,0.01,0.00,0.31,9987138,8974000,997000,22
0.30,0.29,0.01,0.00,0.77,23283878,21246000,2023000,22
0.14,0.13,0.01,0.00,0.35,10389855,9467000,946000,22
0.10,0.10,0.01,0.00,0.25,9804775,8828000,980000,22
0.30,0.29,0.01,0.00,0.74,22949643,21841000,1040000,22
0.12,0.12,0.01,0.00,0.31,10389602,8503000,1889000,22
0.22,0.21,0.02,0.00,0.74,29452110,25374000,4059000,22
0.14,0.12,0.01,0.00,0.34,10476636,8347000,2086000,22
0.29,0.28,0.01,0.00,0.72,23239086,22222000,1010000,22
0.12,0.13,0.01,0.00,0.30,10469994,9424000,1047000,22
0.16,0.15,0.01,0.00,0.40,12402111,9507000,2852000,22
0.31,0.29,0.01,0.00,0.77,23203144,21157000,2015000,22
0.13,0.12,0.01,0.00,0.33,10624129,7750000,2906000,22
0.13,0.12,0.01,0.00,0.34,10333934,8263000,2065000,22
0.38,0.36,0.02,0.00,1.10,40668720,39264000,1033000,23
1.41,1.37,0.07,0.00,3.51,110913123,106809000,3992000,23
1.43,1.38,0.07,0.00,3.51,111696670,105723000,5984000,23
1.41,1.36,0.07,0.00,3.48,110464063,106422000,4015000,23
0.73,0.71,0.05,0.00,1.96,64093513,59028000,5002000,23
0.79,0.76,0.05,0.00,2.11,67558338,63489000,4031000,23
0.69,0.67,0.05,0.00,1.86,59109751,54020000,5001000,23
0.66,0.65,0.04,0.00,1.78,57861919,52850000,4985000,23
0.80,0.78,0.05,0.00,2.11,68265342,54188000,14048000,23
1.45,1.41,0.07,0.00,3.63,115924836,113900000,1998000,23
1.40,1.36,0.07,0.00,3.57,112915410,106879000,5993000,23
0.67,0.64,0.04,0.00,1.78,56136664,52120000,4009000,23
0.64,0.62,0.04,0.00,1.74,54795780,50672000,3974000,23
0.74,0.71,0.05,0.00,2.01,63918876,57869000,5986000,23
1.41,1.36,0.07,0.00,3.58,113501553,109369000,4013000,23
1.18,1.14,0.08,0.00,3.23,107016976,97978000,8998000,23
0.75,0.72,0.05,0.00,2.06,65236015,61196000,4012000,23
1.42,1.37,0.07,0.00,3.65,114459245,108412000,6022000,23
1.11,1.08,0.05,0.00,2.79,88262465,83295000,4958000,23
1.39,1.34,0.07,0.00,3.53,110243328,104195000,6011000,23
0.66,0.63,0.04,0.00,1.71,52456300,45057000,7008000,24
0.71,0.69,0.05,0.00,1.78,58590339,52478000,6055000,24
0.65,0.63,0.05,0.00,1.75,59190268,51282000,7889000,24
0.88,0.85,0.06,0.00,2.33,74168858,69138000,5010000,24
1.33,1.28,0.07,0.00,3.48,115348794,111320000,4011000,24
0.62,0.62,0.03,0.00,1.60,50871175,46858000,3987000,24
1.32,1.29,0.06,0.00,3.32,105506847,101500000,3980000,24
0.68,0.65,0.05,0.00,1.91,65248710,58204000,7024000,24
0.64,0.62,0.05,0.00,1.81,61788646,57771000,3984000,24
1.30,1.27,0.06,0.00,3.27,103967436,98940000,4996000,24
1.33,1.29,0.06,0.00,3.33,104829062,100808000,3992000,24
0.64,0.61,0.04,0.00,1.74,54126117,50050000,4004000,24
0.60,0.59,0.03,0.00,1.61,50984461,49960000,1019000,24
0.60,0.58,0.05,0.00,1.78,65234371,58187000,7022000,24
1.31,1.27,0.06,0.00,3.33,104187790,102143000,2002000,24
1.34,1.30,0.06,0.00,3.42,105587829,96496000,8953000,24
0.68,0.66,0.05,0.00,1.79,58751967,55694000,3037000,24
1.34,1.30,0.06,0.00,3.36,105892484,99855000,5991000,24
0.78,0.75,0.06,0.00,2.12,67613781,54472000,13113000,24
1.33,1.30,0.06,0.00,3.42,106983266,103870000,2996000,24
2.14,2.06,0.13,0.00,5.53,179389788,175053000,3978000,25
0.63,0.60,0.04,0.00,1.69,60560050,54585000,5954000,25
0.74,0.71,0.04,0.00,1.88,60637187,53542000,6940000,25
0.78,0.75,0.05,0.00,2.02,65905833,62842000,3040000,25
0.72,0.70,0.04,0.00,1.89,61319134,57148000,4010000,25
0.81,0.78,0.06,0.00,2.16,69585235,64442000,4957000,25
0.75,0.73,0.06,0.00,2.12,75141121,67104000,8012000,25
1.46,1.41,0.07,0.00,3.67,117508240,108444000,9037000,25
0.86,0.83,0.06,0.00,2.25,74081483,63044000,11007000,25
0.68,0.67,0.04,0.00,1.75,55107097,53003000,2000000,25
0.71,0.70,0.04,0.00,1.91,60330684,52259000,8039000,25
1.50,1.47,0.08,0.00,3.77,121593913,116528000,5022000,25
0.73,0.70,0.04,0.00,1.90,60166971,51079000,9014000,25
0.74,0.73,0.05,0.00,1.94,64504401,56310000,8044000,25
2.01,1.94,0.15,0.00,5.57,190036564,176993000,12999000,25
0.72,0.70,0.04,0.00,1.89,60482921,55431000,4949000,25
0.96,0.92,0.07,0.00,2.55,82822720,68744000,13948000,25
1.49,1.45,0.08,0.00,3.77,120060674,112877000,6992000,25
1.57,1.53,0.08,0.00,4.01,127403850,119347000,8023000,25
1.25,1.21,0.07,0.00,3.10,101313458,99272000,2005000,25
0.62,0.60,0.03,0.00,1.52,49034598,43652000,4960000,26
1.46,1.42,0.07,0.00,3.63,116142541,111018000,5000000,26
1.43,1.38,0.14,0.00,3.80,133374022,125293000,8018000,26
0.65,0.62,0.04,0.00,1.61,51763034,46767000,4975000,26
0.72,0.70,0.05,0.00,1.83,58808855,53806000,4982000,26
0.51,0.49,0.03,0.00,1.45,51167559,47139000,4011000,26
1.28,1.24,0.06,0.00,3.26,101509065,96498000,4974000,26
1.42,1.38,0.07,0.00,3.60,115044867,109976000,5044000,26
0.09,0.09,0.01,0.00,0.27,10147519,9123000,1013000,26
0.61,0.59,0.04,0.00,1.59,52463150,49376000,3023000,26
1.24,1.21,0.06,0.00,3.30,109214340,102143000,7009000,26
0.58,0.57,0.03,0.00,1.49,47506828,43369000,4034000,26
0.62,0.60,0.04,0.00,1.61,51830435,45820000,5976000,26
0.60,0.58,0.04,0.00,1.62,52770499,44775000,7960000,26
0.69,0.66,0.04,0.00,1.83,58605766,49561000,8921000,26
0.65,0.63,0.04,0.00,1.67,54500302,50443000,4035000,26
1.23,1.19,0.06,0.00,3.19,105081418,101017000,4000000,26
1.31,1.28,0.06,0.00,3.33,104391217,98325000,5959000,26
1.23,1.20,0.06,0.00,3.19,104298765,99192000,5009000,26
0.62,0.60,0.03,0.00,1.59,49822885,43734000,5963000,26
0.94,0.90,0.05,0.00,2.35,75534874,71127000,4007000,27
0.91,0.87,0.05,0.00,2.25,74261221,70220000,4012000,27
0.89,0.86,0.05,0.00,2.30,74773315,63783000,10962000,27
0.86,0.84,0.05,0.00,2.24,73384096,71343000,2009000,27
0.92,0.90,0.05,0.00,2.39,77709201,70712000,6971000,27
0.87,0.84,0.05,0.00,2.26,72729501,65693000,6967000,27
2.16,2.11,0.10,0.00,5.40,169956356,164927000,4997000,27
0.92,0.89,0.05,0.00,2.38,76975709,72843000,3991000,27
0.91,0.88,0.05,0.00,2.38,76904554,72650000,3980000,27
0.88,0.85,0.05,0.00,2.28,73681636,72615000,1008000,27
0.86,0.83,0.04,0.00,2.24,70956876,65939000,4995000,27
0.78,0.76,0.05,0.00,2.21,77773766,69853000,7870000,27
0.84,0.82,0.05,0.00,2.22,73354474,69199000,4011000,27
2.13,2.07,0.10,0.00,5.33,170257668,164218000,6007000,27
0.90,0.86,0.05,0.00,2.40,76477581,69409000,6940000,27
0.96,0.93,0.05,0.00,2.49,81613994,75617000,5969000,27
0.88,0.85,0.05,0.00,2.32,73746109,70727000,2988000,27
0.86,0.83,0.05,0.00,2.26,72683307,68674000,3981000,27
2.07,2.02,0.09,0.00,5.21,165193113,161090000,4002000,27
2.18,2.11,0.10,0.00,5.43,171521106,167497000,3988000,27
1.43,1.39,0.06,0.00,3.37,111309426,108482000,995000,28
2.08,2.02,0.09,0.00,4.89,164326089,161207000,3003000,28
1.39,1.35,0.07,0.00,3.73,134172541,131177000,3004000,28
1.52,1.47,0.07,0.00,3.78,125684893,122662000,2991000,28
3.02,2.92,0.13,0.00,7.41,260165537,258152000,2001000,28
2.29,2.22,0.10,0.00,5.68,201879483,165813000,35959000,28
1.97,1.90,0.08,0.00,4.76,162307721,126132000,36037000,28
2.06,1.99,0.10,0.00,5.42,188759868,156782000,31955000,28
1.17,1.15,0.05,0.00,2.81,91419502,89402000,2009000,28
1.91,1.84,0.09,0.00,5.06,174823796,148788000,25963000,28
1.34,1.30,0.05,0.00,3.20,103626463,101592000,2011000,28
1.26,1.23,0.05,0.00,2.93,93903452,92892000,998000,28
1.34,1.31,0.05,0.00,3.15,102533984,100486000,2009000,28
0.73,0.71,0.03,0.00,1.81,59036423,57024000,2000000,28
1.05,1.03,0.04,0.00,2.55,84218021,83101000,1001000,28
1.20,1.16,0.05,0.00,3.00,102611124,101587000,1005000,28
1.77,1.71,0.08,0.00,4.59,154965666,119959000,34988000,28
1.86,1.81,0.08,0.00,4.69,157157774,125113000,32029000,28
1.34,1.30,0.05,0.00,3.31,102026042,99896000,1997000,28
2.23,2.16,0.10,0.00,5.51,183747652,151765000,31950000,28
0.43,0.41,0.03,0.00,1.09,34714677,28311000,6066000,29
0.52,0.49,0.02,0.00,1.26,40359143,33453000,6887000,29
0.44,0.42,0.03,0.00,1.10,34385840,26495000,7850000,29
0.28,0.28,0.01,0.00,0.70,23275770,20146000,3021000,29
1.70,1.64,0.09,0.00,4.74,162190726,99093000,63059000,29
0.31,0.30,0.02,0.00,0.80,24634375,17715000,6889000,29
0.30,0.29,0.02,0.00,0.77,24959752,19917000,4979000,29
0.29,0.27,0.02,0.00,0.74,23497103,15643000,7821000,29
0.72,0.70,0.04,0.00,1.76,52457443,38511000,13824000,29
1.98,1.89,0.15,0.00,5.08,171888164,93904000,77921000,29
1.92,1.84,0.14,0.00,5.41,196093098,134370000,61710000,29
1.89,1.82,0.10,0.00,4.84,172249395,115113000,57056000,29
0.42,0.41,0.03,0.00,1.08,34179714,27125000,7032000,29
0.28,0.28,0.01,0.00,0.70,23426069,21380000,2036000,29
1.70,1.64,0.09,0.00,4.78,166456758,104274000,62163000,29
0.42,0.40,0.03,0.00,1.07,33206434,28153000,5027000,29
0.63,0.61,0.03,0.00,1.62,51066984,45951000,4994000,29
0.29,0.28,0.01,0.00,0.76,23565249,18515000,4872000,29
0.50,0.49,0.02,0.00,1.29,40112066,36080000,4008000,29
0.41,0.40,0.02,0.00,1.20,44422221,40370000,4037000,29
1.57,1.50,0.08,0.00,4.10,130331001,118921000,10901000,30
1.44,1.39,0.08,0.00,3.76,126985025,121027000,5952000,30
1.66,1.62,0.09,0.00,4.12,141741016,135622000,6027000,30
2.41,2.34,0.13,0.00,6.09,194264198,188154000,5973000,30
1.51,1.47,0.08,0.00,3.98,129951123,123929000,5996000,30
2.18,2.11,0.11,0.00,5.44,189614454,159540000,29913000,30
1.37,1.32,0.07,0.00,3.55,114118108,110093000,4003000,30
1.80,1.74,0.12,0.00,4.47,147155679,139867000,6993000,30
2.17,2.10,0.12,0.00,5.67,183856458,177839000,5994000,30
2.41,2.33,0.13,0.00,6.07,212495041,177303000,35059000,30
1.41,1.36,0.08,0.00,3.77,124582932,117584000,6975000,30
4.68,4.51,0.35,0.00,12.70,417500538,378539000,38952000,30
1.79,1.74,0.10,0.00,4.71,154236131,147206000,7009000,30
1.99,1.93,0.14,0.00,5.08,175459510,165413000,10025000,30
2.66,2.57,0.14,0.00,6.63,229609733,187653000,41922000,30
2.87,2.78,0.16,0.00,7.55,252858502,222645000,30087000,30
6.05,5.84,0.32,0.00,16.64,575733099,563713000,11993000,30
1.99,1.92,0.11,0.00,5.41,179810641,149766000,29953000,30
1.42,1.37,0.08,0.00,3.79,124116138,118090000,6004000,30
3.65,3.54,0.17,0.00,9.36,306016989,279988000,25998000,30
2.24,2.16,0.11,0.00,5.79,215725869,214435000,1002000,31
0.78,0.75,0.04,0.00,2.11,76903681,76783000,0,31
1.34,1.28,0.07,0.00,3.53,131673766,130573000,996000,31
1.33,1.28,0.07,0.00,3.50,129424072,128423000,1003000,31
1.31,1.26,0.09,0.00,3.61,124816725,2245000,3986000,31
0.24,0.23,0.01,0.00,0.66,22662718,17700000,4916000,31
2.11,2.03,0.11,0.00,5.72,215437936,215441000,0,31
1.31,1.26,0.07,0.00,3.54,131784382,131767000,0,31
1.40,1.34,0.07,0.00,3.81,140085084,132691000,7036000,31
1.30,1.25,0.07,0.00,3.58,133093086,132008000,1000000,31
0.91,0.87,0.05,0.00,2.49,91403902,91383000,0,31
1.44,1.38,0.07,0.00,3.83,139512199,138427000,1003000,31
1.35,1.30,0.07,0.00,3.64,134552933,132547000,1993000,31
1.33,1.28,0.07,0.00,3.57,133797530,132703000,997000,31
1.46,1.43,0.06,0.00,3.53,120344556,118351000,1989000,31
1.42,1.38,0.06,0.00,3.52,123256948,123245000,0,31
1.52,1.46,0.08,0.00,3.96,144313184,143285000,1001000,31
1.45,1.41,0.06,0.00,3.51,120024352,119002000,1000000,31
0.11,0.10,0.01,0.00,0.29,9641305,9636000,0,31
0.36,0.34,0.02,0.00,0.98,34858924,33849000,995000,31
