@relation problema
@attribute 'pkg' real
@attribute 'cores' real
@attribute 'ram' real
@attribute 'gpu' real
@attribute 'psys' real
@attribute 'duration_time' real
@attribute 'user_time' real
@attribute 'system_time' real
@attribute 'class' {0,1,2,3,4,5,6,7,8,9,10,11,12,13,14,15,16,17,18,19,20,21,22,23,24,25,26,27,28,29,30,31}
@data
3.12,2.51,0.00,0.05,0.00,156104045,128876000,26974000,0
3.07,2.46,0.00,0.05,0.00,153803235,124661000,29154000,0
3.08,2.47,0.00,0.05,0.00,153690673,120773000,32938000,0
0.16,0.12,0.00,0.00,0.00,11287183,9381000,1876000,0
1.73,1.38,0.00,0.03,0.00,89281812,62512000,26791000,0
3.06,2.48,0.00,0.05,0.00,146309173,121430000,24883000,0
3.18,2.56,0.00,0.05,0.00,156475357,131364000,25069000,0
0.66,0.51,0.00,0.01,0.00,38203889,36210000,2011000,0
1.76,1.41,0.00,0.03,0.00,87592716,61425000,26181000,0
0.63,0.50,0.00,0.01,0.00,33508767,33466000,0,0
1.70,1.36,0.00,0.03,0.00,86299187,61219000,25089000,0
0.62,0.48,0.00,0.01,0.00,33993890,31937000,1996000,0
3.08,2.48,0.00,0.05,0.00,150338147,128445000,21905000,0
3.06,2.46,0.00,0.05,0.00,148424139,115315000,33090000,0
3.10,2.51,0.00,0.05,0.00,146519238,122580000,23918000,0
0.63,0.47,0.00,0.01,0.00,38151120,34037000,4004000,0
3.13,2.53,0.00,0.05,0.00,150828161,122895000,27976000,0
1.72,1.35,0.00,0.03,0.00,92421114,66303000,26119000,0
3.05,2.45,0.00,0.05,0.00,151096406,125059000,26012000,0
1.76,1.40,0.00,0.03,0.00,89710514,69571000,20165000,0
0.38,0.27,0.00,0.01,0.00,25963364,24729000,989000,1
5.39,4.28,0.00,0.10,0.00,281388631,279409000,2002000,1
4.91,4.04,0.00,0.07,0.00,218672140,216720000,1988000,1
1.32,1.04,0.00,0.02,0.00,70149068,69175000,1002000,1
1.23,0.97,0.00,0.02,0.00,65423459,64353000,990000,1
1.20,0.95,0.00,0.02,0.00,63669615,62643000,1010000,1
1.76,1.42,0.00,0.03,0.00,86539628,85561000,1006000,1
0.64,0.50,0.00,0.01,0.00,35749817,33819000,1989000,1
3.44,2.75,0.00,0.06,0.00,173769007,172686000,1003000,1
1.21,0.93,0.00,0.02,0.00,70174252,69067000,1000000,1
0.68,0.53,0.00,0.01,0.00,35952671,34976000,999000,1
1.37,1.09,0.00,0.02,0.00,68449096,67463000,992000,1
9.70,7.72,0.00,0.17,0.00,499125176,498146000,1000000,1
0.36,0.27,0.00,0.01,0.00,22786061,22803000,0,1
1.24,0.99,0.00,0.02,0.00,62188542,61209000,1003000,1
5.09,4.16,0.00,0.08,0.00,236364767,235365000,1001000,1
1.35,1.07,0.00,0.02,0.00,69934613,68047000,1972000,1
1.21,0.96,0.00,0.02,0.00,64244033,64255000,0,1
10.64,8.43,0.00,0.19,0.00,558538850,556542000,1998000,1
0.75,0.58,0.00,0.01,0.00,43172516,42182000,1004000,1
1.78,1.42,0.00,0.03,0.00,92121591,88807000,3027000,2
0.75,0.59,0.00,0.01,0.00,41483895,37462000,3943000,2
1.73,1.37,0.00,0.03,0.00,90350538,87294000,2975000,2
0.78,0.63,0.00,0.01,0.00,39538176,37578000,2031000,2
1.74,1.40,0.00,0.03,0.00,86576474,83595000,2985000,2
1.68,1.33,0.00,0.03,0.00,88374255,86382000,2008000,2
0.75,0.57,0.00,0.02,0.00,45040979,40055000,5006000,2
0.76,0.59,0.00,0.01,0.00,41483460,37546000,3952000,2
0.75,0.58,0.00,0.01,0.00,43686434,39629000,3962000,2
1.74,1.39,0.00,0.03,0.00,87958384,83036000,4942000,2
0.76,0.59,0.00,0.01,0.00,42196095,39964000,1998000,2
1.72,1.39,0.00,0.03,0.00,85216272,83089000,2002000,2
1.73,1.38,0.00,0.03,0.00,86513310,83498000,3018000,2
1.91,1.53,0.00,0.03,0.00,94585941,85550000,9058000,2
0.75,0.59,0.00,0.01,0.00,41752651,36779000,4970000,2
1.75,1.40,0.00,0.03,0.00,86576928,83585000,2985000,2
1.82,1.46,0.00,0.03,0.00,88634389,86682000,1992000,2
1.71,1.36,0.00,0.03,0.00,88640726,84666000,3984000,2
0.84,0.67,0.00,0.01,0.00,43405072,37401000,5905000,2
0.73,0.57,0.00,0.01,0.00,41700955,41578000,0,2
2.63,2.09,0.00,0.05,0.00,138028904,131349000,6016000,3
4.26,3.42,0.00,0.07,0.00,210906581,201893000,8995000,3
4.82,3.88,0.00,0.08,0.00,237152321,176119000,61041000,3
2.34,1.87,0.00,0.04,0.00,118691243,113584000,5025000,3
3.88,3.12,0.00,0.07,0.00,192748272,182715000,10039000,3
6.52,5.28,0.00,0.11,0.00,312350763,243242000,69068000,3
7.69,6.38,0.00,0.11,0.00,320273110,258181000,62043000,3
4.60,3.68,0.00,0.08,0.00,230137883,178106000,52030000,3
6.54,5.29,0.00,0.11,0.00,315570648,254643000,60914000,3
2.31,1.84,0.00,0.04,0.00,116578033,111444000,5020000,3
6.37,5.14,0.00,0.11,0.00,309284986,238457000,70838000,3
4.72,3.78,0.00,0.08,0.00,238029165,183019000,55005000,3
2.17,1.71,0.00,0.04,0.00,115409332,102365000,13046000,3
6.57,5.31,0.00,0.11,0.00,317429161,260542000,56900000,3
2.34,1.85,0.00,0.04,0.00,122502725,112559000,9961000,3
6.67,5.37,0.00,0.11,0.00,326413121,261549000,64888000,3
2.52,2.00,0.00,0.04,0.00,129117510,121184000,7946000,3
4.76,3.82,0.00,0.08,0.00,234406840,173564000,60847000,3
6.76,5.45,0.00,0.11,0.00,329937302,277954000,51991000,3
2.12,1.69,0.00,0.04,0.00,106593528,99596000,6971000,3
4.63,3.60,0.00,0.09,0.00,257367705,93034000,16177000,4
6.15,4.94,0.00,0.10,0.00,303982331,176849000,8981000,4
4.43,3.53,0.00,0.08,0.00,220194229,87554000,15919000,4
6.12,4.90,0.00,0.10,0.00,302326877,174421000,10024000,4
4.36,3.45,0.00,0.08,0.00,225990376,94513000,13070000,4
6.28,5.03,0.00,0.11,0.00,309866444,181089000,10060000,4
2.52,1.96,0.00,0.05,0.00,134817300,124826000,9986000,4
4.34,3.43,0.00,0.08,0.00,224600334,91193000,14868000,4
2.91,2.28,0.00,0.05,0.00,152724121,147708000,4990000,4
4.46,3.58,0.00,0.07,0.00,218598565,210452000,7979000,4
4.38,3.47,0.00,0.08,0.00,224196294,92329000,13147000,4
4.25,3.35,0.00,0.08,0.00,221978165,91415000,12054000,4
4.23,3.35,0.00,0.07,0.00,217284499,92401000,5961000,4
2.78,2.17,0.00,0.05,0.00,146387143,137384000,9025000,4
4.41,3.50,0.00,0.08,0.00,223175911,93550000,11414000,4
10.44,8.34,0.00,0.18,0.00,516412143,382667000,14973000,4
4.22,3.36,0.00,0.07,0.00,211271995,82763000,10093000,4
4.40,3.50,0.00,0.08,0.00,220728881,88603000,14167000,4
6.25,5.01,0.00,0.10,0.00,306151043,174742000,12521000,4
4.30,3.44,0.00,0.07,0.00,211952381,205627000,5989000,4
6.46,5.16,0.00,0.11,0.00,325723591,176541000,10441000,5
6.29,5.04,0.00,0.11,0.00,311607313,179112000,14008000,5
3.77,2.98,0.00,0.07,0.00,193515217,179545000,13964000,5
4.30,3.41,0.00,0.08,0.00,221738989,95524000,8850000,5
6.19,4.95,0.00,0.11,0.00,309249407,175720000,14509000,5
4.31,3.41,0.00,0.08,0.00,220393279,92667000,8967000,5
4.24,3.35,0.00,0.07,0.00,219752063,88195000,12882000,5
7.71,6.19,0.00,0.13,0.00,373652087,247244000,15514000,5
6.32,5.10,0.00,0.10,0.00,302831632,174127000,10065000,5
4.24,3.35,0.00,0.07,0.00,220280619,87729000,14953000,5
4.45,3.53,0.00,0.08,0.00,225874817,89594000,17202000,5
6.74,5.31,0.00,0.12,0.00,348714275,217538000,12029000,5
3.84,3.02,0.00,0.07,0.00,197854565,182859000,14988000,5
4.39,3.48,0.00,0.08,0.00,225736629,93032000,14004000,5
5.31,4.17,0.00,0.09,0.00,274260866,261212000,13010000,5
5.08,4.03,0.00,0.09,0.00,257309027,125340000,14673000,5
4.47,3.55,0.00,0.08,0.00,228073946,97565000,11628000,5
6.20,4.97,0.00,0.10,0.00,303619093,169497000,14481000,5
3.72,2.95,0.00,0.06,0.00,187112683,180020000,7000000,5
6.16,4.92,0.00,0.10,0.00,308195053,176988000,11999000,5
5.84,4.68,0.00,0.10,0.00,284723031,225168000,59044000,6
6.75,5.38,0.00,0.12,0.00,344431327,331392000,13015000,6
1.57,1.25,0.00,0.03,0.00,80386220,72486000,7943000,6
8.96,7.16,0.00,0.15,0.00,448762673,272338000,17956000,6
1.95,1.58,0.00,0.03,0.00,93779474,89543000,4024000,6
6.61,5.23,0.00,0.11,0.00,337253953,324272000,12970000,6
4.37,3.49,0.00,0.07,0.00,218463594,88559000,10884000,6
2.13,1.70,0.00,0.04,0.00,107521461,102534000,4977000,6
5.71,4.65,0.00,0.09,0.00,269328440,266334000,2992000,6
2.00,1.61,0.00,0.03,0.00,97313505,93279000,4012000,6
1.95,1.55,0.00,0.03,0.00,99215330,83092000,16017000,6
1.88,1.51,0.00,0.03,0.00,92443492,86479000,5964000,6
7.06,5.71,0.00,0.12,0.00,339664032,329625000,10019000,6
7.73,6.17,0.00,0.13,0.00,382846056,365841000,17039000,6
3.18,2.53,0.00,0.06,0.00,162899756,149805000,12983000,6
2.93,2.33,0.00,0.05,0.00,144670743,136695000,7982000,6
5.64,4.58,0.00,0.09,0.00,265046077,257033000,8001000,6
5.69,4.62,0.00,0.09,0.00,268294713,262273000,6006000,6
4.43,3.54,0.00,0.07,0.00,219193745,89876000,10914000,6
5.56,4.51,0.00,0.09,0.00,262432438,254460000,7983000,6
2.60,2.09,0.00,0.04,0.00,128454439,127271000,1002000,7
2.89,2.26,0.00,0.05,0.00,157750954,2123000,7431000,7
7.75,6.24,0.00,0.12,0.00,353818370,210678000,142782000,7
2.54,2.04,0.00,0.04,0.00,126918779,126922000,0,7
2.89,2.31,0.00,0.05,0.00,143618138,3875000,23872000,7
5.93,4.80,0.00,0.10,0.00,280495516,144213000,136202000,7
7.44,6.04,0.00,0.12,0.00,349586730,219743000,129848000,7
7.88,6.35,0.00,0.12,0.00,359200003,214031000,145021000,7
7.88,6.38,0.00,0.12,0.00,353521575,225231000,128131000,7
4.19,3.41,0.00,0.07,0.00,197661007,194661000,2994000,7
1.98,1.60,0.00,0.03,0.00,97143870,97160000,0,7
6.87,5.57,0.00,0.11,0.00,324179977,184085000,140065000,7
2.69,2.18,0.00,0.04,0.00,128858151,127901000,991000,7
8.74,7.06,0.00,0.13,0.00,394101099,252864000,140924000,7
4.23,3.45,0.00,0.07,0.00,197205194,194123000,3001000,7
6.75,5.40,0.00,0.11,0.00,312170108,177084000,135064000,7
8.10,6.56,0.00,0.12,0.00,360661579,215209000,145141000,7
7.94,6.40,0.00,0.12,0.00,360359625,210109000,150078000,7
2.81,2.26,0.00,0.05,0.00,139866585,138877000,1006000,7
1.97,1.59,0.00,0.03,0.00,97966104,96975000,999000,7
5.18,4.17,0.00,0.09,0.00,251614689,240212000,11009000,8
4.78,3.86,0.00,0.08,0.00,230394182,220381000,9972000,8
6.60,5.38,0.00,0.10,0.00,299040397,238008000,61002000,8
2.39,1.91,0.00,0.04,0.00,119827382,110807000,8984000,8
9.28,7.55,0.00,0.15,0.00,433565877,362676000,70936000,8
5.62,4.56,0.00,0.09,0.00,265092451,254030000,11001000,8
3.51,2.83,0.00,0.06,0.00,165165528,158133000,7005000,8
3.18,2.56,0.00,0.05,0.00,151911920,140975000,10920000,8
4.01,3.19,0.00,0.07,0.00,198445592,180369000,17937000,8
3.47,2.81,0.00,0.06,0.00,163995539,156928000,6996000,8
4.27,3.47,0.00,0.07,0.00,199181235,188177000,11010000,8
4.45,3.58,0.00,0.07,0.00,217193235,207235000,10011000,8
4.07,3.29,0.00,0.06,0.00,188986947,177965000,10997000,8
13.08,10.62,0.00,0.21,0.00,617042231,612033000,5008000,8
4.01,3.24,0.00,0.06,0.00,190788077,181779000,8989000,8
5.99,4.82,0.00,0.10,0.00,287803516,280818000,7020000,8
3.19,2.57,0.00,0.05,0.00,151654114,139702000,11974000,8
9.14,7.44,0.00,0.15,0.00,428488356,363356000,65063000,8
3.87,3.12,0.00,0.06,0.00,186193686,176231000,10013000,8
3.07,2.47,0.00,0.05,0.00,148769085,138770000,9983000,8
0.32,0.24,0.00,0.01,0.00,20597398,17343000,3060000,9
0.09,0.07,0.00,0.00,0.00,6002556,3615000,2410000,9
1.25,1.00,0.00,0.02,0.00,62539669,55565000,6945000,9
0.08,0.05,0.00,0.00,0.00,5267456,3131000,2087000,9
0.48,0.37,0.00,0.01,0.00,29003775,24896000,4149000,9
3.02,2.40,0.00,0.05,0.00,155335683,847000,7631000,9
0.36,0.27,0.00,0.01,0.00,21820226,15875000,5953000,9
0.31,0.24,0.00,0.01,0.00,17765624,15807000,1975000,9
1.15,0.92,0.00,0.02,0.00,56148158,52038000,4002000,9
0.33,0.25,0.00,0.01,0.00,20937586,15716000,5238000,9
0.45,0.35,0.00,0.01,0.00,26560535,23600000,2950000,9
0.47,0.36,0.00,0.01,0.00,27937482,23948000,3991000,9
1.16,0.93,0.00,0.02,0.00,58758579,56713000,2025000,9
0.09,0.06,0.00,0.00,0.00,6130835,4105000,2052000,9
0.30,0.23,0.00,0.01,0.00,19011763,17955000,1056000,9
0.31,0.23,0.00,0.01,0.00,19175855,18173000,1009000,9
1.07,0.86,0.00,0.02,0.00,55616316,53609000,2022000,9
0.29,0.22,0.00,0.01,0.00,18662293,16605000,2075000,9
0.42,0.32,0.00,0.01,0.00,26600611,24635000,1970000,9
0.12,0.09,0.00,0.00,0.00,7198804,6190000,1031000,9
1.72,1.34,0.00,0.03,0.00,92904562,85614000,6968000,10
2.50,2.02,0.00,0.04,0.00,120732484,114649000,5981000,10
3.42,2.75,0.00,0.06,0.00,166762996,158706000,8035000,10
2.17,1.70,0.00,0.04,0.00,113217618,104181000,9015000,10
1.85,1.46,0.00,0.03,0.00,93873302,77845000,15968000,10
3.29,2.64,0.00,0.05,0.00,159961881,148973000,10998000,10
3.01,2.35,0.00,0.05,0.00,158933368,147833000,10987000,10
2.49,2.02,0.00,0.04,0.00,119001085,111853000,6928000,10
2.56,2.05,0.00,0.04,0.00,126076017,124075000,2001000,10
3.37,2.68,0.00,0.06,0.00,169881694,159825000,10051000,10
4.66,3.70,0.00,0.08,0.00,234755524,214634000,20059000,10
4.21,3.30,0.00,0.07,0.00,219629871,202571000,17048000,10
1.10,0.86,0.00,0.02,0.00,59823035,53019000,6872000,10
3.37,2.69,0.00,0.06,0.00,168198545,153189000,15018000,10
3.40,2.71,0.00,0.06,0.00,167983032,153989000,13999000,10
2.52,2.03,0.00,0.04,0.00,124136785,118180000,6009000,10
2.51,2.02,0.00,0.04,0.00,121914003,117925000,3997000,10
1.11,0.88,0.00,0.02,0.00,56575474,46479000,10104000,10
1.21,0.96,0.00,0.02,0.00,61806404,56625000,4967000,10
2.21,1.74,0.00,0.04,0.00,113984151,108917000,5042000,10
1.37,1.08,0.00,0.02,0.00,73925160,71620000,2017000,11
1.26,1.00,0.00,0.02,0.00,67409242,64462000,2975000,11
1.20,0.97,0.00,0.02,0.00,56606629,55447000,1008000,11
1.18,0.93,0.00,0.02,0.00,64379827,63403000,1006000,11
1.18,0.94,0.00,0.02,0.00,61334526,60340000,1005000,11
1.18,0.93,0.00,0.02,0.00,63006132,61076000,2002000,11
1.18,0.93,0.00,0.02,0.00,60915458,59953000,1016000,11
1.08,0.84,0.00,0.02,0.00,60038378,57103000,3005000,11
1.17,0.93,0.00,0.02,0.00,60517969,57492000,2973000,11
1.26,1.00,0.00,0.02,0.00,64203484,63177000,1002000,11
1.96,1.56,0.00,0.03,0.00,100843724,97857000,2995000,11
8.49,6.92,0.00,0.13,0.00,395185107,395214000,0,11
1.15,0.92,0.00,0.02,0.00,59711531,58740000,995000,11
1.21,0.96,0.00,0.02,0.00,60720017,58727000,2025000,11
2.33,1.90,0.00,0.04,0.00,110394252,109414000,994000,11
16.01,13.08,0.00,0.25,0.00,741170628,739125000,2000000,11
1.21,0.96,0.00,0.02,0.00,63330172,62358000,989000,11
1.16,0.92,0.00,0.02,0.00,61342496,59387000,1979000,11
1.53,1.23,0.00,0.03,0.00,73860605,72872000,998000,11
1.19,0.93,0.00,0.02,0.00,62895414,59780000,2940000,11
4.96,3.93,0.00,0.09,0.00,260838331,251534000,9019000,12
2.59,2.10,0.00,0.04,0.00,124258491,123246000,1002000,12
2.51,2.00,0.00,0.04,0.00,129163914,126133000,3003000,12
6.39,5.12,0.00,0.11,0.00,312500134,299460000,13020000,12
2.58,2.09,0.00,0.04,0.00,124531536,119557000,4981000,12
2.72,2.20,0.00,0.04,0.00,131000559,124982000,5999000,12
0.77,0.60,0.00,0.01,0.00,42465808,38414000,4043000,12
0.75,0.57,0.00,0.02,0.00,44659290,41702000,2978000,12
4.65,3.75,0.00,0.08,0.00,227122305,217089000,10004000,12
5.04,4.07,0.00,0.08,0.00,242167123,228158000,14009000,12
0.80,0.64,0.00,0.01,0.00,39281641,37211000,2011000,12
2.71,2.18,0.00,0.05,0.00,133512463,129549000,3986000,12
0.90,0.71,0.00,0.02,0.00,48478666,45436000,3029000,12
2.82,2.23,0.00,0.05,0.00,145638458,140652000,4987000,12
2.74,2.21,0.00,0.05,0.00,132981994,128983000,3999000,12
2.49,1.98,0.00,0.04,0.00,129287619,123269000,6013000,12
2.87,2.27,0.00,0.05,0.00,147897814,132896000,14988000,12
0.89,0.69,0.00,0.02,0.00,48851060,41885000,6980000,12
3.29,2.61,0.00,0.06,0.00,167904709,153802000,14073000,12
5.20,4.19,0.00,0.09,0.00,252874752,239770000,13041000,12
0.25,0.18,0.00,0.01,0.00,16006494,13798000,1971000,13
0.59,0.46,0.00,0.01,0.00,35094436,34152000,1004000,13
0.70,0.55,0.00,0.01,0.00,38672737,35683000,3058000,13
0.26,0.19,0.00,0.01,0.00,17054563,14975000,1996000,13
0.68,0.53,0.00,0.01,0.00,36834229,33850000,2986000,13
0.67,0.52,0.00,0.01,0.00,37013616,35086000,1949000,13
0.67,0.51,0.00,0.01,0.00,38157867,37206000,979000,13
0.25,0.19,0.00,0.01,0.00,15919719,14940000,996000,13
0.67,0.52,0.00,0.01,0.00,36431384,35415000,1011000,13
0.64,0.50,0.00,0.01,0.00,35379237,33443000,1967000,13
0.61,0.46,0.00,0.01,0.00,38028468,36927000,998000,13
0.27,0.22,0.00,0.00,0.00,13699575,12646000,1053000,13
0.63,0.49,0.00,0.01,0.00,35521102,32585000,2962000,13
0.78,0.60,0.00,0.01,0.00,43318828,40306000,3023000,13
0.64,0.50,0.00,0.01,0.00,34255329,32309000,1958000,13
0.63,0.48,0.00,0.01,0.00,39511581,38398000,1010000,13
0.68,0.53,0.00,0.01,0.00,37919521,35925000,1995000,13
0.67,0.53,0.00,0.01,0.00,35565735,34622000,1018000,13
0.66,0.52,0.00,0.01,0.00,35701191,33680000,1981000,13
0.60,0.46,0.00,0.01,0.00,35840432,33904000,1994000,13
1.39,1.08,0.00,0.03,0.00,78145996,70832000,7083000,14
3.28,2.60,0.00,0.06,0.00,173217960,165209000,8010000,14
10.40,8.59,0.00,0.15,0.00,442058926,433999000,7999000,14
4.16,3.30,0.00,0.07,0.00,214718798,204700000,9985000,14
4.70,3.76,0.00,0.08,0.00,234495941,218521000,15965000,14
3.28,2.60,0.00,0.06,0.00,171407291,164386000,7016000,14
4.38,3.51,0.00,0.07,0.00,219166694,215154000,4002000,14
2.94,2.33,0.00,0.05,0.00,153072155,149085000,4002000,14
4.71,3.74,0.00,0.08,0.00,239607226,227590000,12031000,14
3.49,2.76,0.00,0.06,0.00,183371673,172357000,11022000,14
2.62,2.10,0.00,0.04,0.00,127743605,115871000,11884000,14
4.93,3.96,0.00,0.08,0.00,241815753,232823000,8993000,14
4.07,3.23,0.00,0.07,0.00,210268002,196333000,13952000,14
5.08,4.06,0.00,0.09,0.00,253695793,244660000,9024000,14
3.54,2.82,0.00,0.06,0.00,185471317,184479000,997000,14
1.44,1.14,0.00,0.03,0.00,76268323,75285000,1003000,14
2.13,1.70,0.00,0.04,0.00,107421821,89353000,18071000,14
1.24,0.97,0.00,0.02,0.00,67668581,63696000,3981000,14
2.89,2.30,0.00,0.05,0.00,143321962,130296000,13029000,14
3.70,2.92,0.00,0.07,0.00,192184413,178269000,13942000,14
0.52,0.38,0.00,0.01,0.00,36054789,27292000,3898000,15
1.11,0.88,0.00,0.02,0.00,58389705,56330000,2011000,15
1.11,0.89,0.00,0.02,0.00,55695489,49702000,5964000,15
1.12,0.88,0.00,0.02,0.00,61714599,55692000,5967000,15
1.03,0.81,0.00,0.02,0.00,55355443,53401000,1977000,15
1.05,0.83,0.00,0.02,0.00,56922052,54884000,2032000,15
0.98,0.77,0.00,0.02,0.00,54664969,53675000,993000,15
1.05,0.82,0.00,0.02,0.00,57394699,54380000,3021000,15
8.54,6.95,0.00,0.14,0.00,397140916,384147000,12971000,15
3.62,2.94,0.00,0.06,0.00,172899605,170890000,1998000,15
1.09,0.84,0.00,0.02,0.00,62813673,58774000,3984000,15
1.02,0.80,0.00,0.02,0.00,55874592,53868000,1995000,15
1.12,0.90,0.00,0.02,0.00,55660350,53322000,1974000,15
3.70,3.01,0.00,0.06,0.00,175719947,170576000,4987000,15
1.16,0.93,0.00,0.02,0.00,58973931,54687000,3977000,15
1.15,0.90,0.00,0.02,0.00,63575893,58617000,4967000,15
1.13,0.89,0.00,0.02,0.00,59903514,53918000,5990000,15
5.53,4.47,0.00,0.09,0.00,264502896,257339000,6982000,15
1.11,0.88,0.00,0.02,0.00,58805316,55675000,2982000,15
3.74,3.05,0.00,0.06,0.00,175340270,173324000,2003000,15
2.97,2.35,0.00,0.05,0.00,154821791,1009000,8765000,16
4.63,3.69,0.00,0.08,0.00,239781080,233668000,6017000,16
4.97,4.03,0.00,0.08,0.00,238272117,232191000,5979000,16
2.49,1.99,0.00,0.04,0.00,127472732,118564000,8967000,16
4.68,3.74,0.00,0.08,0.00,239948543,236952000,2999000,16
4.71,3.77,0.00,0.08,0.00,239147569,234152000,5003000,16
4.59,3.65,0.00,0.08,0.00,239690357,236761000,2996000,16
4.54,3.60,0.00,0.08,0.00,240102142,238138000,1992000,16
2.93,2.26,0.00,0.05,0.00,133014349,125989000,6999000,16
4.64,3.71,0.00,0.08,0.00,237429531,235266000,2002000,16
4.72,3.76,0.00,0.08,0.00,242304806,237159000,5003000,16
4.65,3.71,0.00,0.08,0.00,236491956,232296000,3987000,16
8.55,6.77,0.00,0.14,0.00,396557397,258702000,137841000,16
3.71,2.96,0.00,0.06,0.00,188602546,184613000,3991000,16
4.62,3.67,0.00,0.08,0.00,239523346,233572000,5989000,16
4.60,3.63,0.00,0.08,0.00,243383313,237370000,6009000,16
4.70,3.76,0.00,0.08,0.00,237832738,232873000,5018000,16
4.90,3.90,0.00,0.09,0.00,252163905,248218000,4003000,16
8.31,6.80,0.00,0.13,0.00,381521587,379525000,2002000,16
4.58,3.64,0.00,0.08,0.00,238013230,234038000,3983000,16
10.34,8.11,0.00,0.19,0.00,567433870,561163000,5991000,17
10.66,8.44,0.00,0.19,0.00,565401153,558404000,6992000,17
10.62,8.35,0.00,0.20,0.00,575863902,570733000,4997000,17
9.37,7.43,0.00,0.17,0.00,491002766,486801000,3998000,17
5.35,4.26,0.00,0.09,0.00,274615558,271569000,2995000,17
8.77,7.22,0.00,0.13,0.00,393175602,386138000,7002000,17
15.00,11.94,0.00,0.26,0.00,773806655,766671000,6987000,17
10.52,8.30,0.00,0.19,0.00,561137672,556916000,3999000,17
9.35,7.36,0.00,0.17,0.00,502920168,499896000,2999000,17
10.43,8.20,0.00,0.19,0.00,561962847,556940000,4999000,17
10.50,8.26,0.00,0.19,0.00,566111026,560043000,6000000,17
9.62,7.63,0.00,0.17,0.00,505303867,502242000,3001000,17
9.63,7.63,0.00,0.17,0.00,506001054,501893000,3999000,17
10.49,8.26,0.00,0.19,0.00,563473006,558464000,4995000,17
10.53,8.29,0.00,0.19,0.00,563594445,559585000,4004000,17
10.48,8.25,0.00,0.19,0.00,562758521,559767000,2998000,17
9.51,7.51,0.00,0.17,0.00,504573737,501553000,2997000,17
6.39,5.04,0.00,0.12,0.00,339384450,337388000,1996000,17
8.25,6.54,0.00,0.15,0.00,429042322,423043000,5986000,17
9.52,7.51,0.00,0.17,0.00,505628654,502623000,3003000,17
4.93,3.84,0.00,0.08,0.00,238783020,233493000,5010000,18
3.58,2.87,0.00,0.06,0.00,181906149,175918000,5997000,18
3.33,2.69,0.00,0.06,0.00,161011021,159997000,999000,18
9.91,7.88,0.00,0.16,0.00,463513849,327344000,136143000,18
9.92,7.88,0.00,0.16,0.00,465887792,335886000,129956000,18
1.15,0.92,0.00,0.02,0.00,59272233,54344000,4940000,18
13.56,10.90,0.00,0.22,0.00,648539091,509571000,138883000,18
9.25,7.33,0.00,0.15,0.00,433312598,297178000,136081000,18
2.50,2.01,0.00,0.04,0.00,124532742,120636000,3987000,18
5.05,3.93,0.00,0.08,0.00,247729127,241585000,5989000,18
6.13,4.79,0.00,0.10,0.00,301527959,296493000,4991000,18
4.32,3.46,0.00,0.07,0.00,218732623,215741000,2996000,18
2.25,1.78,0.00,0.04,0.00,116113667,109948000,5997000,18
4.37,3.39,0.00,0.07,0.00,210086356,201077000,9003000,18
3.58,2.86,0.00,0.06,0.00,181443580,176448000,4984000,18
7.87,6.17,0.00,0.13,0.00,393631618,385623000,7992000,18
4.83,3.76,0.00,0.08,0.00,236635792,230609000,5989000,18
10.90,8.71,0.00,0.18,0.00,518723497,513708000,5006000,18
4.36,3.50,0.00,0.07,0.00,218728093,215663000,2995000,18
4.89,3.81,0.00,0.08,0.00,236371976,231271000,5005000,18
2.91,2.31,0.00,0.05,0.00,151226395,862000,8474000,19
1.94,1.54,0.00,0.03,0.00,98691021,70774000,27911000,19
13.44,11.10,0.00,0.20,0.00,588690810,552668000,35978000,19
9.91,8.07,0.00,0.16,0.00,456725609,393610000,63097000,19
2.54,2.05,0.00,0.04,0.00,123408959,2014000,6959000,19
2.53,2.00,0.00,0.04,0.00,128840949,93886000,34957000,19
2.51,2.01,0.00,0.04,0.00,123742060,3847000,5544000,19
3.30,2.66,0.00,0.05,0.00,161163938,93080000,68058000,19
2.53,2.03,0.00,0.04,0.00,122826316,93888000,28965000,19
2.48,1.99,0.00,0.04,0.00,120934442,94984000,25995000,19
3.83,3.04,0.00,0.06,0.00,188162074,124090000,64046000,19
2.58,2.05,0.00,0.04,0.00,128794084,96830000,31944000,19
3.28,2.60,0.00,0.05,0.00,160504245,101699000,58825000,19
1.97,1.54,0.00,0.03,0.00,101377982,64158000,37091000,19
1.42,1.12,0.00,0.03,0.00,74764558,73748000,996000,19
2.52,2.02,0.00,0.04,0.00,123994095,1146000,8023000,19
3.60,2.90,0.00,0.06,0.00,166150582,104092000,62054000,19
3.28,2.60,0.00,0.05,0.00,159249700,96151000,63099000,19
8.92,7.29,0.00,0.14,0.00,404314379,371275000,33024000,19
6.38,5.21,0.00,0.10,0.00,288908576,253761000,35105000,19
0.26,0.19,0.00,0.01,0.00,17298755,14886000,2126000,20
0.03,0.02,0.00,0.00,0.00,2186914,1107000,1107000,20
0.89,0.74,0.00,0.01,0.00,37203124,36194000,1005000,20
0.30,0.23,0.00,0.01,0.00,18467437,15408000,3081000,20
0.69,0.54,0.00,0.01,0.00,39165667,37176000,2009000,20
0.04,0.03,0.00,0.00,0.00,2499648,864000,1729000,20
0.38,0.29,0.00,0.01,0.00,21774599,19761000,1976000,20
0.75,0.59,0.00,0.01,0.00,41383085,39432000,1971000,20
0.37,0.28,0.00,0.01,0.00,22991173,20046000,3006000,20
1.07,0.84,0.00,0.02,0.00,58456930,55449000,3024000,20
0.77,0.60,0.00,0.01,0.00,43012559,38994000,3999000,20
1.36,1.06,0.00,0.03,0.00,75223810,70206000,5014000,20
0.03,0.02,0.00,0.00,0.00,2274079,1161000,1161000,20
0.03,0.02,0.00,0.00,0.00,2163474,1125000,1125000,20
0.03,0.02,0.00,0.00,0.00,2323122,786000,1573000,20
0.46,0.34,0.00,0.01,0.00,29071525,28138000,970000,20
0.62,0.47,0.00,0.01,0.00,37925604,35940000,1996000,20
0.78,0.61,0.00,0.01,0.00,43237841,41284000,2013000,20
0.38,0.28,0.00,0.01,0.00,25120762,20040000,5010000,20
0.79,0.62,0.00,0.01,0.00,42685868,38573000,4060000,20
0.08,0.06,0.00,0.00,0.00,5110202,3696000,1232000,21
0.11,0.09,0.00,0.00,0.00,5622661,5655000,0,21
0.10,0.08,0.00,0.00,0.00,6252349,4475000,1790000,21
3.22,2.60,0.00,0.05,0.00,159138883,158124000,1000000,21
4.07,3.24,0.00,0.07,0.00,211095151,209973000,999000,21
0.34,0.26,0.00,0.01,0.00,18768583,7890000,10849000,21
4.86,3.89,0.00,0.08,0.00,246351333,245248000,1001000,21
3.29,2.64,0.00,0.06,0.00,163875773,162905000,999000,21
4.11,3.27,0.00,0.07,0.00,212889764,209906000,2998000,21
0.46,0.35,0.00,0.01,0.00,26532330,16329000,10206000,21
3.70,2.97,0.00,0.06,0.00,187024298,185091000,2000000,21
1.25,0.99,0.00,0.02,0.00,63526159,53573000,9920000,21
0.23,0.18,0.00,0.01,0.00,15074546,9472000,5683000,21
0.22,0.16,0.00,0.01,0.00,14695467,11562000,3153000,21
0.10,0.08,0.00,0.00,0.00,7442249,6535000,933000,21
4.22,3.39,0.00,0.07,0.00,210386478,209242000,1001000,21
0.17,0.12,0.00,0.00,0.00,12355325,6686000,5731000,21
3.25,2.59,0.00,0.06,0.00,165862852,164766000,998000,21
0.09,0.07,0.00,0.00,0.00,5916527,4742000,1185000,21
0.61,0.46,0.00,0.01,0.00,36715630,30593000,6118000,21
0.29,0.22,0.00,0.00,0.00,13043414,9849000,2954000,22
0.64,0.49,0.00,0.01,0.00,36273403,34364000,1963000,22
0.62,0.49,0.00,0.01,0.00,34657917,34678000,0,22
0.27,0.22,0.00,0.00,0.00,14077776,13043000,1003000,22
0.27,0.20,0.00,0.01,0.00,17397655,15362000,2048000,22
0.66,0.51,0.00,0.01,0.00,37736946,36741000,993000,22
0.26,0.21,0.00,0.00,0.00,11819455,11811000,0,22
0.66,0.52,0.00,0.01,0.00,37204940,35205000,2011000,22
0.27,0.22,0.00,0.00,0.00,12566849,10578000,1923000,22
0.39,0.34,0.00,0.00,0.00,11893498,11851000,0,22
0.64,0.50,0.00,0.01,0.00,34555643,31627000,2965000,22
0.25,0.19,0.00,0.01,0.00,15856686,13870000,1981000,22
0.62,0.47,0.00,0.01,0.00,37881925,35871000,1992000,22
0.26,0.19,0.00,0.01,0.00,16890563,13736000,3169000,22
0.64,0.49,0.00,0.01,0.00,36704288,34741000,1985000,22
0.28,0.21,0.00,0.01,0.00,16265270,13212000,3049000,22
0.32,0.24,0.00,0.01,0.00,19075365,18102000,1005000,22
0.64,0.50,0.00,0.01,0.00,36362304,36355000,0,22
0.29,0.22,0.00,0.01,0.00,16256541,14239000,2034000,22
0.26,0.19,0.00,0.01,0.00,15925860,13923000,1989000,22
0.82,0.63,0.00,0.02,0.00,47571012,45267000,2011000,23
3.06,2.47,0.00,0.05,0.00,149427046,141447000,7968000,23
3.86,3.22,0.00,0.05,0.00,157241700,154234000,3004000,23
3.07,2.48,0.00,0.05,0.00,149410755,141418000,7967000,23
1.61,1.27,0.00,0.03,0.00,85696740,73721000,11954000,23
1.73,1.38,0.00,0.03,0.00,88386549,82435000,5959000,23
1.58,1.25,0.00,0.03,0.00,81714378,75743000,5979000,23
1.43,1.15,0.00,0.02,0.00,71018008,64945000,5995000,23
1.81,1.45,0.00,0.03,0.00,85775997,74795000,10970000,23
3.24,2.62,0.00,0.05,0.00,156323247,149304000,7014000,23
3.31,2.68,0.00,0.05,0.00,158215867,150117000,8006000,23
1.41,1.11,0.00,0.03,0.00,74205117,69188000,5013000,23
1.41,1.12,0.00,0.02,0.00,72698935,70632000,2018000,23
1.63,1.29,0.00,0.03,0.00,84183362,78154000,6011000,23
3.18,2.57,0.00,0.05,0.00,153757884,148812000,4993000,23
2.70,2.15,0.00,0.05,0.00,135311533,124219000,11019000,23
1.67,1.32,0.00,0.03,0.00,85978708,80976000,4998000,23
3.29,2.66,0.00,0.05,0.00,157328566,150313000,7014000,23
2.42,1.94,0.00,0.04,0.00,121409231,118459000,3011000,23
3.21,2.62,0.00,0.05,0.00,148644611,140641000,7979000,23
1.36,1.06,0.00,0.03,0.00,73445688,68228000,4944000,24
1.54,1.22,0.00,0.03,0.00,79085825,69051000,10007000,24
1.44,1.11,0.00,0.03,0.00,80308114,75233000,5015000,24
1.87,1.48,0.00,0.03,0.00,95433563,90459000,5025000,24
3.09,2.49,0.00,0.05,0.00,151007933,143967000,6998000,24
1.28,1.01,0.00,0.02,0.00,66657792,61598000,5049000,24
3.01,2.42,0.00,0.05,0.00,148811310,142776000,5949000,24
1.66,1.32,0.00,0.03,0.00,85206145,78284000,6936000,24
1.56,1.24,0.00,0.03,0.00,78034919,73021000,5001000,24
2.94,2.36,0.00,0.05,0.00,145453122,142457000,3009000,24
3.06,2.48,0.00,0.05,0.00,145391186,138294000,7014000,24
1.40,1.11,0.00,0.02,0.00,70616078,68547000,2016000,24
1.25,0.97,0.00,0.02,0.00,70422319,61462000,8922000,24
1.54,1.23,0.00,0.03,0.00,76830682,73742000,3030000,24
3.04,2.45,0.00,0.05,0.00,149382427,144304000,4976000,24
3.06,2.47,0.00,0.05,0.00,146434752,141364000,5012000,24
1.49,1.17,0.00,0.03,0.00,78444154,72408000,6034000,24
3.03,2.45,0.00,0.05,0.00,147604357,141608000,5983000,24
1.78,1.40,0.00,0.03,0.00,90996799,83908000,7076000,24
3.02,2.42,0.00,0.05,0.00,149974058,143936000,5997000,24
4.63,3.71,0.00,0.08,0.00,230808869,224467000,5985000,25
1.44,1.16,0.00,0.02,0.00,69862891,66834000,2992000,25
1.51,1.18,0.00,0.03,0.00,81369294,76436000,4963000,25
1.73,1.37,0.00,0.03,0.00,88599205,77651000,10950000,25
1.56,1.24,0.00,0.03,0.00,80472319,72426000,8047000,25
1.89,1.51,0.00,0.03,0.00,93570434,84592000,8956000,25
1.89,1.50,0.00,0.03,0.00,95078190,82969000,11995000,25
3.35,2.71,0.00,0.06,0.00,162643934,156574000,5983000,25
1.87,1.48,0.00,0.03,0.00,95164757,80133000,15025000,25
1.43,1.13,0.00,0.03,0.00,73807243,68954000,4925000,25
1.56,1.24,0.00,0.03,0.00,81027819,74042000,7004000,25
3.31,2.66,0.00,0.05,0.00,161643078,154497000,7022000,25
1.55,1.23,0.00,0.03,0.00,80270434,75285000,5019000,25
1.67,1.32,0.00,0.03,0.00,86486849,79465000,7041000,25
4.34,3.45,0.00,0.08,0.00,221400108,210341000,11017000,25
1.59,1.26,0.00,0.03,0.00,81630624,76585000,5038000,25
2.16,1.72,0.00,0.04,0.00,106672102,92599000,14091000,25
3.34,2.67,0.00,0.06,0.00,165717978,156644000,9037000,25
3.59,2.89,0.00,0.06,0.00,173768011,163714000,9982000,25
2.52,2.02,0.00,0.04,0.00,125731362,118652000,6979000,25
1.21,0.95,0.00,0.02,0.00,65558625,59236000,6024000,26
3.32,2.68,0.00,0.06,0.00,162458646,157438000,5013000,26
3.10,2.45,0.00,0.05,0.00,156519966,143470000,12952000,26
1.33,1.06,0.00,0.02,0.00,68716235,58790000,9964000,26
1.47,1.16,0.00,0.03,0.00,76304600,64414000,11891000,26
1.20,0.95,0.00,0.02,0.00,62178704,57249000,4935000,26
2.95,2.39,0.00,0.05,0.00,140661180,136685000,3990000,26
3.24,2.61,0.00,0.05,0.00,158506970,154495000,4012000,26
0.22,0.16,0.00,0.00,0.00,14011993,10298000,3744000,26
1.36,1.07,0.00,0.02,0.00,70851332,62025000,8860000,26
2.94,2.37,0.00,0.05,0.00,143113997,133981000,8998000,26
1.24,1.00,0.00,0.02,0.00,62268760,55225000,7028000,26
1.37,1.08,0.00,0.02,0.00,71081314,65075000,6007000,26
1.36,1.08,0.00,0.02,0.00,71559014,66511000,5038000,26
1.48,1.17,0.00,0.03,0.00,75717850,70671000,5047000,26
1.41,1.11,0.00,0.03,0.00,74608550,69614000,5044000,26
3.04,2.49,0.00,0.05,0.00,139466558,136510000,2989000,26
2.96,2.39,0.00,0.05,0.00,142086412,136036000,6001000,26
2.92,2.35,0.00,0.05,0.00,141301349,135287000,6012000,26
1.36,1.09,0.00,0.02,0.00,68675304,62705000,5971000,26
1.96,1.55,0.00,0.03,0.00,100900893,92556000,8048000,27
1.89,1.51,0.00,0.03,0.00,95478259,86436000,9045000,27
1.99,1.59,0.00,0.03,0.00,98941881,89936000,8993000,27
1.89,1.51,0.00,0.03,0.00,96153202,90147000,6009000,27
2.04,1.63,0.00,0.03,0.00,101660925,96589000,4978000,27
1.97,1.57,0.00,0.03,0.00,97839506,91782000,6051000,27
4.94,4.00,0.00,0.08,0.00,237623962,230625000,6988000,27
2.02,1.62,0.00,0.03,0.00,101612710,98567000,3017000,27
1.91,1.53,0.00,0.03,0.00,97079118,89163000,7925000,27
1.93,1.54,0.00,0.03,0.00,96898310,88877000,7988000,27
1.95,1.56,0.00,0.03,0.00,97184438,90177000,7013000,27
1.90,1.51,0.00,0.03,0.00,96145105,87168000,9017000,27
1.90,1.51,0.00,0.03,0.00,96915021,89949000,6996000,27
5.03,4.10,0.00,0.08,0.00,233544081,228515000,5011000,27
2.03,1.62,0.00,0.04,0.00,102258102,95232000,7017000,27
2.06,1.64,0.00,0.04,0.00,104649268,98683000,5980000,27
1.88,1.49,0.00,0.03,0.00,96714162,90721000,5981000,27
1.91,1.52,0.00,0.03,0.00,96115168,89081000,7006000,27
4.81,3.91,0.00,0.08,0.00,226358221,217332000,9013000,27
4.89,3.96,0.00,0.08,0.00,233102739,226121000,7003000,27
3.48,2.84,0.00,0.06,0.00,163703571,156850000,3035000,28
6.43,5.25,0.00,0.10,0.00,299671026,296679000,2996000,28
2.86,2.32,0.00,0.05,0.00,138652744,135582000,2990000,28
3.44,2.76,0.00,0.06,0.00,171986063,165999000,5999000,28
10.85,8.71,0.00,0.18,0.00,543999617,539036000,5000000,28
4.12,3.33,0.00,0.07,0.00,199548577,165628000,33923000,28
4.42,3.61,0.00,0.07,0.00,206279611,177252000,29041000,28
4.73,3.85,0.00,0.08,0.00,221903737,189861000,31976000,28
2.47,2.01,0.00,0.04,0.00,115930449,113938000,1998000,28
3.95,3.18,0.00,0.07,0.00,194743534,175667000,19072000,28
3.42,2.83,0.00,0.05,0.00,148382447,147313000,995000,28
3.34,2.74,0.00,0.05,0.00,151483899,149480000,2006000,28
3.32,2.72,0.00,0.05,0.00,152970395,150985000,1999000,28
1.58,1.28,0.00,0.03,0.00,75501216,73515000,1986000,28
2.76,2.22,0.00,0.05,0.00,136214577,134100000,2001000,28
2.85,2.30,0.00,0.05,0.00,140308698,137338000,2985000,28
3.53,2.87,0.00,0.06,0.00,167751567,142775000,24960000,28
4.39,3.59,0.00,0.07,0.00,202831428,176731000,26108000,28
2.79,2.27,0.00,0.04,0.00,131325459,125390000,5970000,28
3.74,3.04,0.00,0.06,0.00,175996391,146991000,28998000,28
0.87,0.67,0.00,0.02,0.00,49036987,36811000,11938000,29
1.06,0.84,0.00,0.02,0.00,55041459,49140000,5896000,29
0.89,0.71,0.00,0.02,0.00,45056928,38035000,7006000,29
0.58,0.44,0.00,0.01,0.00,34380525,29495000,4915000,29
3.34,2.70,0.00,0.06,0.00,161883180,98854000,62907000,29
0.59,0.46,0.00,0.01,0.00,34266222,30213000,4028000,29
0.59,0.44,0.00,0.01,0.00,36503668,28355000,8101000,29
0.63,0.49,0.00,0.01,0.00,34829232,27650000,7168000,29
1.36,1.07,0.00,0.02,0.00,67443955,56335000,11065000,29
4.15,3.33,0.00,0.06,0.00,190863383,109910000,80933000,29
4.76,3.80,0.00,0.08,0.00,237622023,184696000,52913000,29
3.71,3.01,0.00,0.06,0.00,175857969,120224000,55641000,29
0.90,0.70,0.00,0.02,0.00,47236042,39184000,8037000,29
0.60,0.47,0.00,0.01,0.00,33510284,27384000,6085000,29
3.21,2.59,0.00,0.05,0.00,157860418,105156000,52578000,29
0.85,0.66,0.00,0.02,0.00,45878005,35943000,9984000,29
1.43,1.14,0.00,0.02,0.00,70205837,59165000,11030000,29
0.60,0.46,0.00,0.01,0.00,33360270,29427000,3923000,29
1.11,0.88,0.00,0.02,0.00,56346496,51311000,5030000,29
1.06,0.84,0.00,0.02,0.00,55921861,50930000,4993000,29
3.12,2.50,0.00,0.05,0.00,155957750,146583000,9035000,30
3.12,2.51,0.00,0.05,0.00,153845968,147815000,6033000,30
3.57,2.87,0.00,0.06,0.00,174249645,168254000,6009000,30
6.21,5.18,0.00,0.09,0.00,253395243,245379000,7979000,30
3.40,2.74,0.00,0.06,0.00,166240957,161251000,4976000,30
4.30,3.49,0.00,0.07,0.00,203324321,173297000,30051000,30
2.85,2.31,0.00,0.05,0.00,134366874,126344000,8021000,30
3.91,3.15,0.00,0.06,0.00,187436790,181464000,5982000,30
5.05,4.09,0.00,0.08,0.00,239814575,228844000,10992000,30
4.82,3.90,0.00,0.08,0.00,232426236,201306000,31047000,30
3.11,2.51,0.00,0.05,0.00,149193604,140169000,8946000,30
10.50,8.44,0.00,0.17,0.00,497946887,457942000,39994000,30
3.99,3.22,0.00,0.07,0.00,191681570,183655000,7985000,30
4.50,3.59,0.00,0.08,0.00,221536192,209509000,12029000,30
5.62,4.55,0.00,0.09,0.00,265021870,240002000,25000000,30
6.19,5.02,0.00,0.10,0.00,289822916,257791000,31974000,30
16.76,13.70,0.00,0.26,0.00,766052161,754050000,12000000,30
4.01,3.23,0.00,0.07,0.00,194237309,159223000,35049000,30
3.23,2.61,0.00,0.05,0.00,152160766,143148000,9009000,30
8.01,6.51,0.00,0.13,0.00,375535570,347356000,28028000,30
5.18,4.14,0.00,0.09,0.00,266019830,264809000,1006000,31
1.81,1.42,0.00,0.03,0.00,100196202,98222000,2004000,31
3.79,3.13,0.00,0.06,0.00,165782958,164788000,998000,31
3.31,2.66,0.00,0.06,0.00,164366934,162405000,1992000,31
3.05,2.45,0.00,0.05,0.00,150657824,912000,6386000,31
0.55,0.41,0.00,0.01,0.00,35503097,32524000,2956000,31
5.86,4.79,0.00,0.09,0.00,272622542,270652000,1997000,31
3.34,2.70,0.00,0.06,0.00,162568330,162411000,0,31
3.49,2.82,0.00,0.06,0.00,170776541,160857000,9929000,31
3.38,2.71,0.00,0.06,0.00,168655277,166656000,1995000,31
2.25,1.81,0.00,0.04,0.00,109072662,107968000,999000,31
3.57,2.89,0.00,0.06,0.00,174284870,172223000,1991000,31
3.54,2.86,0.00,0.06,0.00,172506179,171530000,997000,31
3.46,2.79,0.00,0.06,0.00,169428052,168462000,996000,31
3.29,2.64,0.00,0.06,0.00,165569300,164604000,997000,31
3.35,2.71,0.00,0.06,0.00,162626832,162632000,0,31
3.63,2.93,0.00,0.06,0.00,175595193,174599000,1003000,31
3.33,2.68,0.00,0.06,0.00,163829138,162879000,999000,31
0.26,0.20,0.00,0.01,0.00,14945517,14974000,0,31
0.97,0.77,0.00,0.02,0.00,49915317,48936000,998000,31
