@relation problema
@attribute 'L1-dcache-loads' real
@attribute 'L1-dcache-load-misses' real
@attribute 'branch-instructions' real
@attribute 'branch-load-misses' real
@attribute 'branch-loads' real
@attribute 'branch-misses' real
@attribute 'cache-misses' real
@attribute 'cache-references' real
@attribute 'cpu-cycles' real
@attribute 'dTLB-load-misses' real
@attribute 'dTLB-loads' real
@attribute 'iTLB-loads' real
@attribute 'iTLB-load-misses' real
@attribute 'instructions' real
@attribute 'page-faults' real
@attribute 'power/energy-pkg/' real
@attribute 'power/energy-ram/' real
@attribute 'duration_time' real
@attribute 'user_time' real
@attribute 'system_time' real
@attribute 'perf_time' real
@attribute 'class' {0,1,2,3,4,5,6,7,8,9,10,11,12,13,14,15,16,17,18,19,20,21,22,23,24,25,26,27,28,29,30,31}
@data
255507372,315668,156472570,715053,155161054,718696,200160,2902657,502008329,118173,251029244,10019,106878,779643382,129,1.56,0.09,168586242,130846000,37241000,233299936,0
245237332,392062,151379370,705179,156652027,717007,191160,2324637,501294026,113312,253168696,10222,108096,759748645,716,1.63,0.07,135990541,103532000,32165000,149918684,0
250369595,306276,154299819,570445,154495303,570466,146162,2246131,507312619,115509,252501636,29728,206292,768829082,128,1.61,0.07,138416680,107341000,30811000,152545023,0
250010791,302998,154431423,636803,154485928,634717,144735,2237279,512346143,115346,252771211,307098,105340,769199430,130,1.66,0.07,139468270,111157000,28039000,153551471,0
250767207,295960,154540771,673839,154508287,668892,148722,2148250,504382303,115246,252239642,8129,105603,769447022,131,1.64,0.07,136040651,108597000,27149000,150031382,0
247824327,290523,153949602,709251,154007162,709158,161994,2147932,505661503,115060,249450195,11769,105373,768246246,130,1.65,0.07,135952334,109651000,25917000,149807882,0
68670667,210300,44965999,183428,45155758,186280,169358,887962,98612580,4314,72047751,2195,1949,245646398,136,0.34,0.01,26114176,22814000,2975000,40141702,0
92750099,272728,61715871,431737,62049913,429630,129451,1592080,337919316,110931,93051319,38888,103796,322488935,134,1.02,0.05,91713303,67323000,24115000,105880099,0
247923842,299151,154215484,692880,154160071,696867,151556,2129646,503851407,114953,249440679,10302,105440,768155791,131,1.6,0.07,136943367,98733000,37897000,150999625,0
68141547,183806,43640493,184294,44643970,199960,166425,898947,94892270,5567,70605061,2797,1919,252186079,331,0.32,0.01,25704380,25495000,0,39827225,0
69102367,186658,44497185,181301,44496144,180906,138867,799508,95116392,3889,71332885,2699,1497,244735765,136,0.33,0.01,25649879,25387000,0,39750163,0
68552826,203356,44466847,181282,44231566,180965,143780,793687,96167425,3856,71436484,2189,1509,245985658,135,0.33,0.01,25727413,25370000,0,39756591,0
68082720,220785,44409821,183999,44442761,183793,135489,792891,96719250,3872,71842091,2104,1522,245013692,134,0.33,0.01,25955929,24705000,988000,39886521,0
251295527,268376,154554705,667124,154589682,665666,144543,2145407,502254287,115472,251770853,33832,105061,769346292,129,1.63,0.07,135713313,107293000,28076000,149740446,0
58969017,141123,56827580,169452,56691999,167180,136460,925409,102274787,5221,59072516,3831,1456,294681004,131,0.36,0.02,28329877,27001000,1000000,42347526,0
247732269,307812,154258468,708127,154120290,703534,145861,2118225,505033018,114728,249127880,11137,106029,768393117,129,1.64,0.07,136085840,102886000,32963000,150030077,0
248371881,284564,154082356,647682,154102106,648409,152575,2141816,507116327,114391,249424483,246662,104962,766471722,129,1.64,0.07,137033948,100559000,36201000,150921375,0
251081998,301585,154910638,673904,154845753,671890,148785,2089710,502842584,114242,251960494,15159,410079,769360695,128,1.63,0.07,135762488,107520000,27875000,149734523,0
248266377,298036,154333471,639019,154354212,640434,159495,2160006,509039852,114954,249947803,309754,105156,767127989,129,1.64,0.07,137774547,110601000,26903000,151849277,0
247849149,316362,153948141,699643,153880824,694967,135527,2125955,506447649,114810,249971814,11961,105638,768883584,130,1.64,0.07,136837255,110646000,25917000,151107961,0
252276040,251819,154625721,649507,154573430,649115,150005,2144633,506584632,114875,252634370,216675,105231,769460437,129,1.64,0.07,137470163,99175000,38067000,151672329,0
249121065,254115,153878209,687130,153913179,683488,135721,2135039,501802351,115347,249450115,10543,105221,767376962,129,1.6,0.07,135862518,101440000,34148000,150045038,0
251272424,262445,154482070,817082,154522995,817173,140783,2066759,506674972,114193,252438169,7894,105055,769203069,128,1.64,0.07,136853142,103460000,33147000,150801288,0
97541572,482977,65167579,424755,64659470,422638,359550,1820632,352714775,112732,96535609,46583,107610,341636992,1892,1.06,0.05,95113609,56896000,37930000,109241481,0
247782442,304603,153970755,638996,154028044,640392,137651,2178617,509457082,115010,249640723,309414,105002,766614512,131,1.64,0.07,137246181,101002000,36000000,151165004,0
250282442,305769,154514033,661328,154495065,656131,132708,2072575,504195388,114652,251978089,50379,105737,769133476,129,1.63,0.07,135895313,103720000,31914000,150132071,0
99266866,275988,65759196,422048,65734869,421499,153320,1639071,354009929,111480,99903672,308127,103947,341487744,134,1.06,0.05,95859028,62733000,32860000,109767364,0
251723085,269264,155140484,721783,155076417,717516,134998,2068282,501896500,114228,251816799,9768,105248,769372235,129,1.63,0.07,135907153,109477000,26114000,149945383,0
247365048,303329,154011276,635697,153847013,635624,135717,2150425,508247601,114606,249601045,308499,106114,765859684,130,1.62,0.07,137497371,108198000,29053000,151656532,0
250275719,298087,154514477,643633,154653086,644071,138049,2140641,508524873,114731,252884374,216457,104913,768052099,128,1.65,0.07,137385365,110109000,27026000,151590337,0
243068563,332415,152597010,709336,157981983,714984,212723,2371423,507259821,115665,251200428,180415,109635,754411231,324,1.62,0.07,136120175,109873000,25970000,150198060,0
67626692,220285,44845738,185997,44868422,186036,130564,787876,95944921,3554,71542230,2434,1531,242660696,137,0.32,0.01,25784744,25427000,0,39858418,0
250585822,293634,154662052,638318,154725159,639136,143871,2135023,509529689,114782,252335547,306151,105035,767057678,128,1.64,0.07,137456577,96112000,41048000,151549755,0
68137178,213560,44558643,184324,44547971,184506,143746,796985,96209637,3800,71000482,2947,1484,240444811,136,0.32,0.01,25672691,23462000,1955000,39687815,0
247194885,297635,154172334,633970,154373098,635042,132900,2104691,508824459,114382,249828252,308298,104784,766523100,130,1.63,0.07,137510363,113212000,24045000,151757586,0
248503969,276782,153900788,635678,153991394,629748,129814,2091924,499555064,114509,248592522,39209,104984,765392684,129,1.61,0.07,135198772,99851000,34948000,149219366,0
66792427,217452,44969599,182794,45035283,184405,128145,804699,95911760,3535,71259957,2563,1414,241341558,136,0.33,0.01,26050607,24823000,992000,39920989,0
250647593,302145,154972132,660534,155628764,656543,145458,2130111,501421509,114513,251964920,7612,104854,768797424,130,1.6,0.07,135257864,127938000,6996000,149394786,0
248196470,330232,154195661,698991,154095889,699687,219034,2309346,506626341,116079,249909665,48912,105402,771096051,129,1.63,0.07,136620911,118618000,18094000,150862499,0
68548885,199132,44612030,185048,44575416,184754,141917,817985,96832033,4159,71070779,2855,1521,242313051,136,0.33,0.01,25917100,23707000,2061000,40062328,0
250426303,305934,154812914,645397,154702958,645314,157887,2196152,511324608,115371,252148444,306788,105381,767814884,130,1.64,0.07,137652119,81477000,56330000,151634002,0
250465392,315178,154532744,675299,155208960,671480,144023,2047921,501186097,114722,251395482,8125,224231,767279500,130,1.61,0.07,134984640,99002000,36001000,149091257,0
71407058,164295,45018322,186015,45154225,188436,200237,936400,96032549,5353,72149778,2560,1555,247211175,135,0.33,0.01,25630760,23326000,2028000,39792907,0
67095407,223930,44455925,179008,44474187,179265,135892,792612,96487643,3827,71342062,2790,1601,243847533,135,0.32,0.01,25939186,23759000,1979000,39911689,0
250655649,297937,154590289,664389,154622292,660733,146302,2113076,504517834,114695,252163946,19486,105274,770023961,127,1.63,0.07,135771187,118763000,16966000,149750907,0
250184089,302258,154702802,635203,154696531,631780,140916,2090061,501754738,114772,251777531,26323,105447,768865905,130,1.59,0.07,136180270,128249000,8015000,150368193,0
249948971,303647,154570251,650192,154659458,651412,160229,2274574,510519802,115264,252571261,307295,104925,768256666,129,1.6,0.07,138805061,102585000,36206000,152975652,0
250012261,303735,154862897,638799,154900839,636099,155349,2155285,508421751,114641,252145679,219816,105008,770538184,129,1.63,0.07,136727441,102594000,34198000,150815766,0
251274588,266428,154317386,614042,154372035,611491,146757,2081454,501260072,114606,251779325,37948,105075,769086203,129,1.61,0.07,135418063,83246000,52154000,149521983,0
241218652,341968,152467783,706198,157913943,721572,273140,2346777,513566354,114616,251575808,263760,109462,755402121,324,1.66,0.07,137007524,109827000,26957000,151009249,0
70114265,172053,44677062,182427,44570916,182543,133583,832270,94204141,4536,71444242,2608,1505,245659589,135,0.34,0.01,26075717,23767000,1980000,40304777,0
252503592,266736,154778934,541840,154710549,541418,167404,2210566,508343925,114736,252930421,307464,105593,772424697,130,1.63,0.07,138289928,97126000,41053000,152398666,0
67648863,219935,44447373,139436,44429464,141212,136248,776458,95500198,3655,71186641,3049,1570,245125902,137,0.33,0.01,25473042,24201000,1008000,39440441,0
226875733,209346,135855223,466436,137741434,481474,171239,1496612,260093247,11089,233824734,8403,6956,694507099,325,0.91,0.04,71393649,69156000,2004000,85730176,0
247368140,295362,153862899,636586,154129798,633214,133988,2025966,503515427,115178,249399508,10951,105322,768407744,130,1.64,0.07,135511692,104272000,31081000,149497125,0
247952478,298619,153871974,633091,153839755,632565,151910,2160079,502445138,115296,249823663,11431,105231,768980623,128,1.59,0.07,136511007,99295000,37110000,150629482,0
222518987,270910,136004924,475399,137977300,484913,166773,1516114,264845351,7943,232077739,6940,2916,692347768,326,0.95,0.04,71490858,70309000,1004000,85658901,0
67149587,222628,44748886,185069,44370607,185726,132231,787498,95409737,3872,70954876,2571,1507,244744357,137,0.32,0.01,25776690,23536000,2046000,39802665,0
68967596,195557,44579998,183235,44666547,183542,152403,834897,96314826,3938,71085471,2551,1539,241987506,136,0.33,0.01,25662586,25460000,0,39822723,0
248975411,273795,154413109,691081,154372854,698301,259601,2297739,507655113,115231,249104503,25467,105219,768461200,131,1.62,0.07,135868253,105312000,30089000,150033134,0
250654957,310837,155124114,769313,155156820,770103,148541,2267689,517026137,114792,252665647,32820,206456,769094300,129,1.67,0.07,139775185,109508000,30139000,153786581,0
245191715,308201,153584626,640187,153970375,638922,155868,2158173,498623649,115043,246755685,10847,105006,761290201,128,1.61,0.07,134652949,107420000,27105000,148523829,0
72000367,197415,46917948,141535,46969351,142557,154692,904379,100843075,6120,74210515,2308,1252,260798151,139,0.34,0.01,26987097,26790000,0,40910049,0
67851638,218296,44733821,182903,44819157,183148,141715,797732,96903954,3674,71663556,2575,1547,243065291,136,0.33,0.01,25914137,24695000,987000,39995738,0
250942315,310369,154914098,644196,154714271,635837,155919,2152345,509301114,114839,252172777,307420,106368,767681644,130,1.63,0.07,137811557,107726000,29924000,151701283,0
93686761,221586,62060413,421970,62036943,419993,142731,1603335,346743900,111021,94036759,308210,104823,326026734,136,1.05,0.05,94356478,24038000,70111000,108479215,0
250675216,300237,154601464,638353,154635082,639647,149192,2196623,512434482,115254,252283045,510430,114868,766797554,129,1.64,0.07,137925518,109820000,27954000,151991928,0
248142717,298441,154331712,637737,154278355,638039,135548,2154847,508929997,114515,249500542,309160,105148,767206553,131,1.62,0.07,137334649,104122000,33038000,151346009,0
247584330,300181,153896039,700376,153883423,696402,137673,2131792,502704342,114564,248580395,11001,147540,766048465,131,1.62,0.07,135947914,106830000,28953000,150099989,0
247847029,302068,153911510,585867,153871091,586321,133989,2154132,510184002,114858,249425322,311971,106151,766540777,130,1.63,0.07,137415342,107185000,30052000,151609947,0
250333331,345677,154828417,719968,155150993,716117,157483,2273195,506618350,115307,252037910,8750,104992,769508891,129,1.64,0.07,135770361,112644000,22927000,149992720,0
95150463,235545,62434124,423539,62612201,421628,155148,1617423,336350190,111136,95459209,6464,104861,329327325,136,1.02,0.05,91616856,45190000,46194000,105711448,0
249937191,306897,154654104,669709,154676954,665076,142367,2154798,502791672,115475,251772875,19176,106131,767353197,130,1.58,0.07,136701857,101392000,35136000,150722137,0
251159750,269707,154508116,669047,154516343,664484,143969,2107848,501877068,114883,251999590,7936,105623,769077631,128,1.61,0.07,135558648,103580000,31871000,149527763,0
67786044,215901,44620834,182836,44486945,184169,141602,804460,96727173,3579,71248666,2316,1570,244547806,137,0.32,0.01,26103289,24771000,990000,40145752,0
252227410,237580,154527990,635243,154508383,635219,151936,2116537,511026209,114589,252694593,305991,105365,769202553,129,1.64,0.07,138394739,96090000,42039000,152398399,0
248129138,298690,154421986,631147,154499415,633436,147629,2130659,508104324,114689,249712313,311470,104918,767527631,128,1.61,0.07,137254087,105036000,32011000,151204185,0
67215801,218322,44930163,140201,45031057,139889,142214,814754,98269253,3326,71044181,3025,1600,243403463,135,0.33,0.01,26429511,25227000,1009000,40486691,0
250319449,303500,154788786,638266,154648006,637840,141829,2169647,510974085,115074,252217017,306386,105063,767176142,129,1.64,0.07,137875932,111516000,26120000,152181639,0
250653681,287876,154554015,634852,154605249,634140,147406,2052806,511546061,114332,252803629,307273,105156,769178449,129,1.64,0.07,137745009,114532000,22906000,151813770,0
2268919,297813,21056667,266476,21316106,265754,155846,3861671,978743870,27740,2553765,2509,6777,218442101,133,2.7,0.15,282825853,280408000,2002000,347016523,1
1400111,107693,5643603,102768,5603272,113882,56751,923901,180885172,5976,667535,984,1662,121519538,66,0.47,0.02,49461697,48200000,1004000,63758474,1
1212051,147451,3432829,70165,3433665,70245,100910,993457,152652938,4195,280138,507,1047,137106770,130,0.42,0.02,41146346,40870000,0,55341953,1
538707,103950,5552168,139347,5497176,143568,108087,798523,97954273,3026,175642,290,751,98566567,128,0.28,0.01,26534062,26160000,0,40682461,1
1286807,176374,3566890,78560,3327130,78320,92957,1143297,235799965,7079,854508,1145,1989,227104499,134,0.69,0.03,63814237,61560000,1985000,77560567,1
1847643,235006,20869906,119582,20736278,117803,102007,2003375,494770912,13586,1244709,2007,3624,313396019,132,1.42,0.07,134478621,134218000,0,148600360,1
32683469,233820,62760036,132935,62761790,133251,130566,2282019,525228851,15042,32388506,1797,3333,563042231,137,1.35,0.07,142635914,142373000,0,156765230,1
1341588,182935,5983439,168689,6027572,158534,156747,1400678,151817560,4583,403991,550,2189,87796635,194,0.41,0.02,41135948,40869000,0,55084331,1
3455921,470872,210492590,286742,210529688,287122,164527,5228444,1448389255,35403,2437658,4511,9434,1991560193,128,3.79,0.2,390686669,389399000,1001000,404983676,1
1469460,229977,4735462,127725,4727631,124755,107289,1984193,505875124,12527,1008301,1608,3916,73642206,133,1.42,0.07,136919457,134663000,1995000,151047379,1
1421064,152582,3313478,67665,3221998,66797,99925,1031558,180003310,5839,780162,1040,1743,140741527,139,0.51,0.03,48578019,48374000,0,62600525,1
2779745,296288,56314036,144340,55689161,144449,202651,1946286,448701727,14396,1555478,4085,7813,669558656,132,1.08,0.06,123254990,121997000,999000,137474911,1
3782113,459137,210964830,283912,210946759,280347,200031,5152159,1447433727,36198,2738634,3628,10235,1996097663,128,3.76,0.2,391911668,391293000,0,405946378,1
1564591,175568,2798532,72139,2431110,67058,80310,841648,133175358,5193,703541,1298,2524,31865733,133,0.36,0.02,36030699,34827000,995000,50264486,1
554497,113799,4576372,142194,4636712,119486,105550,839073,102455613,3405,207416,357,655,74853774,136,0.29,0.02,28155511,27858000,0,42094978,1
589346,114428,3272323,51416,3047383,46537,85518,648625,70107244,3240,537500,727,1003,88786917,132,0.18,0.01,19677144,19400000,0,33799589,1
1297324,209030,6711333,163209,6586479,171040,108740,1924352,439870215,12742,1266545,2001,3389,76872961,133,1.25,0.06,118471996,117156000,1001000,132446614,1
70765585,416162,129765968,234545,129719815,236072,170123,4304760,1193392763,29864,70028057,3134,7515,1638888949,129,2.98,0.17,323260315,321861000,999000,337573880,1
430194,106124,3669317,63667,3622773,63679,112435,851374,109860328,3929,228260,348,713,85246620,134,0.31,0.02,29983481,29609000,0,43831877,1
3650526,473576,210587216,281264,210548080,277013,148952,5220390,1447805527,36536,2635763,4713,10258,1990831030,129,3.67,0.2,391120601,389858000,999000,405300851,1
250368,86641,2374418,50909,2371367,50597,95144,641314,50666082,1983,123174,173,337,65603726,133,0.15,0.01,14343274,13168000,940000,28534481,1
898515,141571,3260576,63814,3207892,62353,91886,987103,177682209,5463,709321,931,1678,145310367,129,0.5,0.02,47957990,45701000,1987000,62002785,1
1376167,203919,6643040,180889,6759190,188072,115481,1880431,429997136,12149,1172868,1786,2869,68577077,134,1.19,0.06,116266052,115009000,1000000,129991221,1
3690175,457684,210644007,280565,210680942,283709,205115,5124778,1449294339,34915,2577313,3145,10089,1992875737,129,3.71,0.2,390877086,390555000,0,404831645,1
869125,135680,4596078,109099,4592139,118544,99618,829906,108957512,3174,294222,326,740,82908952,137,0.29,0.02,29559733,28285000,1010000,43634921,1
1365758,154245,4477368,147421,4372089,104613,81182,666072,77438843,3187,470997,747,1072,59925553,132,0.23,0.01,20995536,18768000,1975000,35225557,1
1316623,165366,3505019,75343,3507097,75238,88137,1009403,179770163,4880,341823,1067,1779,110051177,129,0.4,0.03,53295307,52031000,1000000,67262585,1
4234490,255480,107494180,164551,107389081,162381,117386,2745136,712590245,18603,4019447,2777,5335,1102853519,131,1.74,0.1,193226824,191927000,999000,207512414,1
654199,151346,3345122,73232,3242833,77399,90599,1185251,224631499,6756,791340,1131,2007,48736806,132,0.63,0.03,60783579,58520000,1983000,74958663,1
1251416,111934,4803967,92153,4809599,103065,59767,939685,178285584,5558,575741,917,1633,118780162,66,0.47,0.02,48310079,47059000,1001000,62223830,1
7402685,610784,84498346,4476003,84091742,4469377,315857,4593145,1218453711,33601,6946727,10792,12594,434976249,1810,3.51,0.17,328693277,324282000,4003000,342924567,1
8458737,486321,217454755,304847,217567842,309077,178443,5622088,1549665386,40176,8053143,5830,10426,2326109046,135,3.85,0.21,418272049,415972000,1999000,432327390,1
818734,145778,5622487,114108,5682820,126266,169106,1153229,185548712,7760,1027098,1837,2681,122937754,134,0.5,0.03,49816579,49512000,0,63908287,1
738277,130830,3394019,70502,3302129,68324,91426,1033478,181080363,6012,691291,1248,1662,110858964,133,0.51,0.03,48830463,48618000,0,62782316,1
777218,134943,3544111,75181,3484809,68676,90489,972763,187567616,5642,701017,829,1678,126113832,127,0.5,0.03,51433058,51190000,0,65652065,1
2370941,294391,106742460,176626,106752273,175446,119979,3048227,787510176,20909,1519105,2434,5290,1124529658,134,2.0,0.11,212594270,212525000,0,226633575,1
1085264,128689,3611290,60036,3416536,59922,91198,839491,110396670,4220,318401,332,852,84300201,135,0.31,0.02,29979633,27759000,1982000,44075138,1
974899,120217,4787820,130619,4723340,138583,87386,640943,62629072,3099,624986,275,554,87862464,128,0.17,0.01,17329715,17077000,0,31481194,1
942558,161534,3469887,80768,3485716,80342,101978,1191707,212376690,6173,528018,672,1424,141993166,134,0.59,0.03,57504192,56276000,1004000,71347753,1
338920,94950,3607544,59556,3534965,59773,97451,810164,109056824,4117,228579,241,719,85087918,132,0.31,0.02,29865301,29653000,0,43876586,1
107270367,367187,156598362,239751,156573659,238979,143558,4247208,1144884555,29632,105096981,4633,7669,1933710243,132,3.18,0.16,309667333,309518000,0,323839580,1
4821019,112631,13137285,210385,12705167,138282,98662,846776,115095297,4490,4030058,392,764,119686555,134,0.34,0.02,30629631,30420000,0,44620069,1
3633863,294094,118868475,512598,118772708,523329,132685,3110516,799695157,22210,3706223,4082,6264,1161221480,132,2.02,0.11,216948363,215818000,999000,230914571,1
544316,80595,3230802,63006,3236746,59835,92551,663598,88535054,3407,215066,665,1112,97133909,129,0.26,0.01,24098574,22855000,993000,38310407,1
349958,64257,4426730,103362,4312663,112300,93268,653109,55622504,3684,306656,211,421,64941181,128,0.16,0.01,15953566,15650000,0,29973833,1
1496072,146913,5838215,709344,5723827,733542,87114,638904,87521542,3219,584234,736,1079,69585123,132,0.25,0.01,23573557,23319000,0,37686371,1
1633838,204626,5302253,94684,5238703,94261,106104,1580765,338055582,9587,1060050,1583,3087,236987839,135,0.97,0.05,91324994,90132000,1001000,105232176,1
67991815,388593,124534915,245140,124589412,238339,137492,4349645,1175880634,30686,68073891,5309,8417,1386624067,135,2.97,0.16,317537474,316444000,998000,331503530,1
1415690,142953,3195433,49887,3035639,45081,80978,669646,67316015,3158,610296,728,1064,81442209,133,0.15,0.01,19840846,18640000,981000,34144262,1
903321,163786,3565656,73713,3385572,71526,105678,1029182,181702408,6216,728682,1105,1658,110201307,137,0.48,0.03,49651806,46435000,2963000,63769494,1
1212723,117766,4726699,50344,4730291,51380,95741,651917,57920235,2578,252323,197,386,74899082,127,0.15,0.01,16057335,14934000,933000,30026820,1
1201342,124851,2399483,51339,2397309,52122,98628,639368,54029962,1423,105052,164,368,60486413,133,0.16,0.01,14351203,13118000,1009000,28539451,1
1344086,143035,3387951,61716,3370501,61590,91520,690440,94965654,2726,293273,732,1143,92187209,132,0.28,0.01,25499928,24255000,1010000,39697113,1
609876,114006,3375873,63051,3377673,62823,99908,822016,98137021,3072,266667,339,783,97490942,132,0.29,0.01,26631821,26374000,0,40725078,1
1251471,162533,3497415,79591,3500297,83394,119275,1240878,199274514,6294,468984,871,1822,181420312,134,0.51,0.03,56661421,55376000,1006000,70871380,1
1131981,139310,4300865,62707,4424240,62466,107129,718392,97247198,2705,315247,316,1120,68436239,132,0.27,0.01,25974519,24741000,989000,40187913,1
701085,105139,3570232,77265,3539975,70181,95044,1012209,186793924,6375,644391,1045,1699,135248523,133,0.53,0.03,51084409,49888000,997000,65087943,1
1171452,147552,3265641,63449,3259526,55134,84382,649886,88154137,2362,508277,737,1091,80264527,133,0.23,0.01,24016952,22778000,990000,38242795,1
871467,155464,3512272,75126,3307517,69466,105254,1008524,189820591,6273,794123,1127,2032,135776924,132,0.48,0.03,51064061,49836000,996000,64879746,1
9741776,581333,9883126,162195,9949039,166133,537066,3116650,659426655,28533,8399141,19417,8466,132005112,4041,1.79,0.1,180868868,173720000,6988000,194928024,1
1192620,124074,2347824,52404,2400697,52194,99232,662873,52817488,1644,249077,171,361,53845385,134,0.14,0.01,14137177,13868000,0,28363261,1
1444392,164200,3529965,74526,3306492,68721,95071,972065,189499348,5779,737784,857,1687,134682162,133,0.53,0.03,50866250,48648000,1985000,65098038,1
1117558,192992,53768095,107783,53737706,105448,109301,1702131,368347470,10448,804360,1185,2504,590299035,129,0.99,0.05,99543793,97385000,1987000,113517708,1
5601309,352488,112273901,206600,112318585,207896,159092,3712330,985988032,24219,5349098,2674,6343,1301266442,132,2.6,0.14,266012891,263913000,1999000,279986752,1
778156,140323,3560975,80210,3560875,80178,113143,1014155,188812231,5224,445099,1098,2133,130650436,132,0.48,0.03,52481906,52227000,0,66550913,1
35258551,205620,55592048,107834,55566269,104046,115396,1652184,367989493,9472,34939323,1182,2737,312586855,133,1.08,0.05,99417599,98201000,1002000,113629474,1
1302362,141098,3360317,61141,3360851,61300,97233,673593,92853891,2404,231705,688,1007,93056888,127,0.25,0.01,25099097,23896000,995000,39173266,1
3507071,443884,210435903,279651,210409322,281464,173419,5125747,1457618354,36132,2631005,3141,9072,2005975573,134,3.65,0.2,394181305,393024000,1000000,408308028,1
1084830,152146,3324150,67625,3226020,66037,97616,1024788,175608781,5517,708378,961,1668,135971018,128,0.47,0.02,48256475,47051000,1001000,62188649,1
1284673,239807,4132492,124609,4156150,117625,196188,1971433,431832667,12852,1503425,2336,3699,60628538,133,1.2,0.06,116208677,114860000,998000,130267272,1
2577192,166116,5991346,137162,6139222,144617,113211,1407180,272765302,8481,2625898,1559,1697,49538597,129,0.77,0.04,74074894,72845000,997000,88024361,1
33846471,501448,124059519,350949,124282507,348728,281277,5876394,1573688666,40875,33337770,5398,10255,1216416277,132,4.16,0.22,423662526,422400000,1000000,437923495,1
1031997,150839,3335605,67350,3207279,64789,98242,1031553,179415115,5778,781512,1044,1703,110693496,134,0.52,0.03,48254054,47008000,1000000,62349361,1
1259745,135711,4863187,534789,4704502,523423,89015,644406,72614700,2994,562751,735,1073,83034918,132,0.21,0.01,19840147,18555000,1030000,33678149,1
1197214,153141,3357300,68357,3268721,65569,95035,1028640,178164202,5733,695404,894,1693,117075560,133,0.5,0.02,48362828,47122000,1002000,62437983,1
408860,112861,3287964,65265,3206250,69466,99647,1022727,170487302,5895,706399,1029,1474,102844264,130,0.44,0.02,46569805,46317000,0,60823042,1
8618167,701962,7210810,67716,8532362,70953,540322,2059796,114285030,13868,10710607,17241,4829,115783131,3859,0.31,0.02,31494935,25175000,6042000,45888218,1
2668029,316569,4336330,158870,4312325,153563,120998,2578873,666487138,16913,1658131,2583,5368,99857648,132,1.89,0.09,179940473,177710000,1996000,194178611,1
1585860,148883,3300559,67566,3199925,70166,97144,1042457,173603782,6106,755048,1186,1756,133577550,133,0.49,0.03,47719356,47487000,0,61788770,1
979388,143749,6105890,148356,5987138,107194,86699,651025,88007152,2456,541267,771,1002,111799951,128,0.25,0.01,23790839,22564000,981000,37847018,1
194431873,707155,129873426,991355,128087064,1052487,253281,2672514,247046999,19593,177482742,13133,7116,575286961,910,0.72,0.05,95889425,87407000,7946000,162211179,2
192449129,500196,121253843,1457492,120698250,1474954,193346,1830924,253474501,9073,192655891,9218,4185,587567243,1004,0.87,0.04,68438699,66216000,2006000,82605144,2
131583350,6699375,89081984,1772442,91478020,1488767,1209862,7511763,336550910,103211,144585164,13928,5522,441127907,2869,1.05,0.06,90852491,86548000,4025000,105030681,2
66105500,500006,46075581,1550868,49045547,1429515,157610,1223554,133185069,7863,72886017,1710,1766,241108600,524,0.42,0.02,36060116,34806000,994000,50088164,2
80872705,415936,68518055,1476879,68494598,1438123,172253,1411552,158036847,5874,81476518,4022,1955,330408919,522,0.54,0.02,42871580,40577000,2028000,56842797,2
193355140,471609,118332178,1412416,117788946,1623623,178507,1571959,244941328,7374,196543524,9568,2466,589880695,521,0.86,0.04,66301942,63953000,1998000,80455082,2
194990647,892836,122285513,1490260,122378091,1474940,287818,2546987,262501669,12065,192657028,22077,7911,581284487,1908,0.93,0.04,71248357,67894000,2995000,85169607,2
194357018,501181,121609712,1466155,121289207,1451774,222378,2024993,254500860,10287,194075200,12908,4022,591036399,1004,0.87,0.04,68657756,65345000,2970000,82791699,2
66227806,881701,43037592,1567903,46235331,1442078,218231,1763210,132733831,6955,72543904,1735,1621,246469210,918,0.43,0.02,36239110,31965000,3995000,50471572,2
68511162,812558,47725492,1533442,45106016,1689304,189802,1657432,133958717,7203,75665897,7054,3574,252285035,1432,0.44,0.02,36514964,33206000,3018000,50785056,2
91173360,1206787,86707888,2289362,91159938,2341041,432455,3169448,254648523,11455,96637146,9959,6970,430750483,2334,0.81,0.04,68912557,60744000,7966000,83006551,2
197610496,434438,124462306,1120371,124615707,1267711,148527,1659294,248164822,8190,184465940,9687,2719,585172470,521,0.86,0.03,67255587,65957000,999000,81460206,2
193724981,795968,121108532,1503367,119685765,1475874,348252,2514924,258008279,15911,198706336,5834,2095,591336634,959,0.9,0.04,69280738,64909000,3994000,83315805,2
193831882,430218,121327655,1507193,120878903,1455332,210678,1783898,252478204,12703,196580797,10682,2238,582906665,518,0.79,0.04,71846486,70639000,994000,86086292,2
68267656,766796,43491252,1624538,45263948,1498051,224894,1783213,127812412,7534,72884776,1495,1685,248495242,918,0.42,0.02,35048853,31699000,2971000,49129610,2
87584986,489838,51543718,1631868,47040270,1982085,138736,1325254,133287583,6946,79279279,4440,2927,291874229,783,0.43,0.02,36522712,36173000,0,50796716,2
71089853,778970,47202240,1823512,48345727,1622591,270784,1745922,124704524,12543,73957775,1642,1479,252982476,915,0.41,0.02,34037219,31765000,1985000,48098555,2
62993990,461415,47217680,1741053,49392727,1500848,162335,1299183,124213127,4833,71064798,3557,2623,235401356,524,0.4,0.02,33912604,30556000,3055000,48231226,2
79149721,651170,47006168,2043761,43785909,2109748,246268,1912226,125755687,8336,82276800,4319,2042,284325718,916,0.41,0.02,33885406,31504000,1969000,48022826,2
206571237,1047541,128863950,1420422,128919510,1401795,414377,2822812,267074243,13750,207785752,12456,2262,633963120,1300,0.88,0.04,72490337,70207000,2005000,86631472,2
197737713,715486,122860279,1400074,121491587,1511548,249870,2133175,246291059,14606,192921721,5282,2311,591575677,908,0.84,0.04,66736918,63354000,2969000,81018214,2
194010938,444203,121149066,1386069,119713852,1700544,160613,1574585,244645177,10008,197265798,12208,2440,587496878,522,0.83,0.04,65781331,63494000,1984000,79877659,2
82124293,424702,52657877,1505943,51228735,1721774,167782,1216049,140817626,4833,89290842,1239,1632,280287750,526,0.45,0.02,37806379,36542000,987000,52050358,2
192095266,480675,121949188,1396280,120134584,1693189,147407,1526463,243407154,7113,194291153,11872,2723,581693597,520,0.82,0.03,65726956,62484000,2975000,79590015,2
191873665,474517,121253854,1394047,121887841,1374151,185136,1826502,245053146,9431,191506346,11978,2261,578000554,518,0.77,0.04,69886964,67555000,2016000,84156578,2
209042908,425647,128265134,1514310,128255728,1574274,168675,1838256,260693292,8239,197325390,9434,2426,593484639,522,0.9,0.04,71208776,69911000,998000,85377183,2
194174323,429949,119080056,1456720,119209110,1461386,198043,1666503,250028195,7371,196223653,9129,2620,590462828,520,0.85,0.04,67716570,65340000,1980000,81811967,2
69447977,446483,44182178,1755016,45271751,1559534,164597,1332292,127564553,6900,72585308,1578,1612,249500397,527,0.42,0.02,34784801,32603000,1975000,48902411,2
321497982,622635,227683562,2147212,228470753,2134842,155018,2450704,453751748,12185,332920180,10805,4262,1228819395,543,1.57,0.06,122574307,122299000,0,136653559,2
195128640,505632,122001949,1462848,121540800,1453041,202723,2002632,256328798,9433,192700849,17889,3064,592364110,1003,0.87,0.04,68797536,64473000,4029000,83009837,2
119160760,6961488,82922373,1733521,85332104,1606335,1277177,7652244,330827698,102094,136841850,21018,4340,405929560,2867,1.02,0.06,89803120,84421000,5025000,103989787,2
191252431,462557,120628007,1473653,120476977,1471827,279964,1895476,255435591,12431,198784557,14849,4286,584172644,518,0.86,0.04,68745379,67401000,1005000,83025450,2
73205172,699453,48108795,1866612,46743475,1675993,255496,1901347,125488735,13602,73467033,2942,1472,254165064,916,0.41,0.02,34327354,32060000,2003000,48641535,2
190274665,456318,120727526,1476364,121253803,1490063,181488,1602705,252460897,9561,199177382,11136,2368,577872516,518,0.87,0.04,67984407,65759000,1992000,82316545,2
196307953,885842,131978462,1760851,132634776,1748504,238831,2466198,265466455,9613,206678458,14597,4862,615126598,949,0.92,0.04,72201532,68968000,2998000,86465483,2
190448173,757518,121921464,1421649,121763891,1391223,235223,2096386,246889433,7677,190629170,12319,3184,581030192,908,0.82,0.04,68335428,65109000,2959000,82323172,2
84020778,742440,52684737,1475594,50764984,1602248,234332,1663260,144645746,6641,89675731,1620,1691,282773519,916,0.48,0.02,38846569,37596000,989000,52987469,2
68411304,578088,46171332,1792995,47784125,1626595,165990,1404039,131640986,7975,72343729,6944,4119,247413685,1012,0.42,0.02,36073136,33838000,1990000,50372542,2
67637064,779253,45341236,1515630,43143720,1561110,234177,1592167,131357746,6588,72900058,1406,1679,248814895,916,0.35,0.02,37942466,33726000,3967000,52161057,2
194693291,495231,122322698,1408407,121817700,1491138,199637,1879153,249725716,10234,191430349,12127,4791,588534787,1002,0.84,0.03,67076753,63845000,2992000,81493062,2
195368278,940913,122001922,1482322,121639672,1481590,288146,2641692,262752481,12179,192540175,18304,4606,586396945,1908,0.91,0.04,70781663,67506000,3022000,84888107,2
68900555,465405,43820088,1752476,45929713,1585758,177137,1364351,126717871,7028,72827120,2042,2717,248606647,525,0.41,0.02,34753555,32471000,2029000,48979037,2
66620723,438964,46463572,1824272,48816033,1638835,158719,1238518,123920409,5256,71778471,4404,1827,237576919,525,0.41,0.02,33922376,31711000,1981000,47946600,2
66416165,544657,45556051,1766861,49059298,1570471,134821,1298803,133173610,4982,75590323,3580,2447,280914006,529,0.44,0.02,36188340,33941000,1996000,50460916,2
258951283,7761735,165908239,1334544,161489572,1589886,2768494,12589458,497204714,241993,256812311,33518,6995,782818189,2667,1.56,0.09,134392476,131118000,3002000,148546863,2
198544917,402909,120576633,1398661,119230773,1389748,188593,1678146,241749187,8500,189545412,11346,2304,590604957,520,0.79,0.04,68092921,66768000,996000,82464803,2
66335845,466439,48066970,1614586,49042870,1459876,142268,1144971,130872967,5955,71461809,4006,2143,237339564,524,0.43,0.02,35622880,34361000,1010000,49795184,2
65372384,508747,45826892,1580686,49260358,1449449,158081,1202681,131783940,6524,72059862,1536,2514,235233432,527,0.43,0.02,35772721,34423000,983000,49822735,2
97636247,269464,59916981,1408483,53641290,1788052,138389,1133122,141824258,4468,94978334,1428,1703,299685694,335,0.46,0.02,38495934,36170000,1955000,52693471,2
192662766,438935,118311262,1470001,118495813,1565117,164308,1571478,247028884,7796,196500490,9789,2440,585630733,522,0.87,0.04,66791223,63453000,2974000,80878821,2
192097847,795186,121690834,1411811,121599554,1383007,226219,2041923,257001121,7792,192078291,17679,3167,584626230,909,0.86,0.04,67905680,64547000,2979000,82344704,2
198949536,674171,125256384,1112935,123869780,1602601,212153,2150795,246970806,12004,186135991,11608,4482,593769665,910,0.86,0.04,66806168,64466000,2014000,80956023,2
65385385,455170,46579350,1794170,48800568,1634451,158464,1267534,127292189,5185,71670436,4175,1888,235750996,526,0.41,0.02,34537791,33307000,1009000,48730230,2
67809923,441147,46175761,1874719,47750113,1680949,149497,1338529,125710563,6738,75207435,1731,1774,244637683,524,0.38,0.02,34607559,33246000,1007000,48590851,2
254743509,7794814,153706011,1401715,151595701,1731276,2707757,12352582,486113655,219888,251569977,33389,6740,772901866,2669,1.54,0.09,131472068,127097000,4003000,145920071,2
194616894,488421,122062138,1397152,121227801,1351435,193149,1829329,247927155,9195,191261248,10499,3572,596315822,1003,0.84,0.04,67638410,62362000,4949000,81648749,2
194966317,734596,118694076,1446387,117008170,1438873,302004,2301613,251994439,10371,194736572,9749,2946,597621542,912,0.84,0.04,68292194,66998000,999000,82440742,2
193815770,434423,118464598,1369312,117672492,1624721,168824,1571269,245451682,7567,196291597,13255,2412,593056612,521,0.87,0.04,65982085,63617000,1988000,80097922,2
67094265,769372,50274806,2467916,52010612,2135226,258040,1903097,157672119,6708,82260772,1264,1675,273549525,915,0.51,0.02,42872913,40568000,2028000,56903009,2
65611103,441830,45928051,1791700,48768068,1603739,163769,1262948,126819779,5074,73025604,3384,2023,242276662,523,0.4,0.02,34006860,31666000,1979000,48098426,2
193846929,429221,122005212,1446860,122575371,1575006,166513,1602898,246934642,10681,195537205,11987,2262,586104746,517,0.85,0.03,66669750,62359000,3959000,80877950,2
81201436,377228,68996584,1485500,68336206,1439649,165771,1395736,158300008,6101,80919796,3715,1690,330524644,521,0.54,0.02,43458365,43106000,0,57667146,2
196892109,718850,121928971,1425848,120106640,1400250,248498,2177544,247650524,14854,192599313,5869,2766,596974721,910,0.83,0.04,67529942,64177000,3008000,81613966,2
66452981,476912,46898669,1604381,49097844,1459232,159775,1165330,133841961,8235,72857875,1543,1460,243067074,522,0.44,0.02,36292873,33941000,1996000,50245799,2
70163588,812339,44617667,1715720,43872604,1533254,222780,1781571,131004872,7830,72630340,1729,1606,253690351,917,0.42,0.02,35599440,35271000,0,49765975,2
190412874,876518,122788246,1473125,121901306,1429502,318484,2553532,263417092,12603,192344935,22370,4569,579714560,1905,0.88,0.04,71087613,66771000,3986000,85233484,2
69522653,430852,44446599,1770473,44843207,1588763,158259,1336237,127495990,7015,72676384,1407,2285,251918650,525,0.41,0.02,35127386,31790000,2980000,49420066,2
189075114,463376,120215487,1467964,120689599,1464044,175490,1548137,252431205,7007,195945341,13460,2680,573114303,523,0.87,0.04,68056042,65810000,1994000,82161072,2
194597578,430803,121219445,1381183,120248868,1655731,161523,1570271,244387009,10810,195473140,12129,2299,585174444,519,0.84,0.03,65893227,64632000,994000,79899647,2
124297065,6715202,83954776,1740307,85416700,1533724,1238313,7707780,330914831,100040,135632252,13892,5234,420788820,2870,1.0,0.06,89400118,84108000,5006000,103567093,2
76205754,1054417,51576428,1444141,50527056,1452424,430880,2022694,149020824,11124,74690672,12711,5377,267334093,3087,0.48,0.02,39920712,34656000,4950000,54071643,2
134941922,6550462,93457137,2051843,92680089,2099868,1236509,7823575,357531984,78329,133098755,19800,4480,456026962,2868,1.08,0.06,97446097,94194000,3006000,111671836,2
193414888,435876,121274916,1425545,121026633,1655206,166653,1608219,246397128,10557,196436294,10885,2309,587671708,517,0.85,0.04,66247228,63010000,3000000,80316334,2
197461631,714986,119966207,1437775,117538979,1421076,324829,2217810,250062699,9913,193186847,4265,2709,598862243,911,0.87,0.04,67987907,65665000,2020000,82083338,2
115351215,6754566,79167003,1562778,79862917,1635803,1047278,7364969,322704141,88921,128543790,20835,5224,394832801,2674,0.96,0.05,87076308,84797000,1995000,101427498,2
190240560,455783,121463260,1485163,121989508,1497865,157313,1553080,250178224,7072,195910713,11065,3180,571603095,520,0.86,0.04,67380012,65120000,2003000,81515453,2
192244040,746248,122302823,1414371,122877391,1461955,207869,2066118,246765521,7637,192539729,10520,3146,579005732,910,0.83,0.04,67160799,62891000,3993000,81176905,2
66152269,534805,47479266,1573721,49623669,1436556,205375,1239330,132285136,8069,71592428,1659,2351,241559809,523,0.42,0.02,36649252,35389000,1011000,50892312,2
74662968,1355825,55642180,3186240,55935208,3179940,184279,3900166,210216991,8135,78814447,8065,3924,321459759,1010,0.69,0.03,57149746,53893000,2994000,71489340,2
117966201,376781,92403346,1073714,83279701,1482403,183978,1637651,165533427,7747,98899371,1424,1242,358839296,530,0.55,0.02,45220807,43910000,1021000,59279829,2
151912215,5237389,101195172,945025,99596426,937531,1664458,10600553,376904174,166405,166125584,23746,10083,510599331,3386,1.15,0.07,107704540,99111000,8009000,155947924,3
158477515,5042081,116432100,2423949,117213979,2483925,1583443,11719856,416548820,202890,145082920,10920,8201,506385561,2481,1.34,0.07,112160255,103898000,7992000,126001177,3
133301547,4780266,91920625,811379,92919888,820388,1387396,9937727,352590156,186651,128870878,13174,12170,420788209,2479,1.04,0.07,96264071,89936000,5995000,110547832,3
197157770,5025868,145913032,2913884,146696949,2900798,1623260,12195522,946978209,384579,199960469,55237,207083,680118423,2477,2.85,0.15,255466137,197380000,57818000,269747410,3
356341874,5057555,224219700,1047471,227179994,1033861,1606965,11024774,596131570,174356,363562498,28739,8641,1078494904,2668,1.95,0.1,160875514,153491000,6976000,174923331,3
383700425,5041897,240760153,1566894,241734114,1575370,1433498,12402425,1090770038,388852,389446384,79420,206667,1175453898,2473,3.31,0.17,294828246,230378000,64105000,308980358,3
212551987,4651953,154773899,2988481,155472336,2984923,2446805,12798224,993849310,523581,215414042,423767,212336,733128035,3259,2.83,0.16,271482020,195120000,76047000,285727084,3
406153245,5707608,257329407,1522858,257950804,1532421,1576738,12938013,1123435610,397502,409842672,469824,211096,1264999073,2475,3.38,0.17,303633209,236506000,66860000,317707204,3
405325078,5764696,253459579,1533055,259715369,1535521,1746554,13138331,1129162474,401203,420729608,283160,425145,1255296914,2666,3.37,0.17,304535829,246253000,57824000,318467480,3
144003641,5009660,98697862,846733,103266336,830963,1506157,9680514,384390912,158787,156647686,17097,10542,482941300,2481,1.15,0.07,103836760,101458000,2009000,118021654,3
139888106,5048830,100667788,822208,109398307,773530,1440080,9318474,377655867,168795,151366274,20295,5648,469438207,2868,1.13,0.07,101823239,96552000,4976000,116063516,3
408141313,5392768,259623602,1888974,260005937,1905005,1879952,14612081,1170858942,416593,413603977,37858,710542,1269048539,2610,3.52,0.18,308762673,251443000,56874000,323103162,3
150674513,4756623,111466924,2532214,109224226,2561303,2595630,11334172,454630109,309679,159495260,22985,7798,529643275,3651,1.4,0.09,123107488,113793000,8983000,137345829,3
194333387,5019589,133335609,1310437,138770756,1301374,1562779,11827171,895986805,385782,202794312,593756,213617,650291560,2870,2.58,0.14,242483831,174439000,67782000,256785432,3
412757015,6452828,258906267,1513834,259539303,1529193,1636653,12905003,1125940993,392516,418053296,580065,817951,1272394196,2473,3.43,0.17,303351065,249963000,52992000,317522446,3
197271767,5271549,130585538,1323981,134143043,1319502,1759631,11862887,903873860,379346,212860228,546878,211563,670133657,3258,2.61,0.14,244143409,180901000,62965000,258194014,3
210266529,4790804,139199862,1366432,139029034,1381561,1839486,12792061,896947622,385341,210662837,615111,213101,703482275,2869,2.63,0.14,242621179,166175000,76080000,256645036,3
144044102,5250741,101171402,2581558,108368418,2533895,2323893,11352452,442189200,294934,154784297,26583,18558,478163645,4170,1.33,0.09,119932329,113626000,6033000,134134410,3
133728844,4868788,92440108,814014,92567240,825239,1604023,10190077,358952951,187285,129491638,16217,5267,417504274,2872,1.04,0.07,97368053,92079000,5004000,111275297,3
143809875,5026419,99185259,839961,103703637,821973,1438384,9954785,380253041,159630,155671356,14535,11109,479983022,2482,1.15,0.07,103083039,98782000,3991000,117341191,3
143568839,5016050,101315692,831651,105976090,813853,1506545,9902995,378433838,163339,153465163,21363,5539,476245070,2480,1.14,0.07,102352313,94952000,6996000,116618971,3
189540902,5026320,127436117,1287406,133059141,1286265,1532317,11633886,890599202,378997,200083082,711285,410383,628791587,2676,2.61,0.14,240644624,182267000,58085000,254908957,3
406894561,5100930,256988046,1532686,257771829,1531654,1554951,12946488,1129878629,405426,409972546,29729,366598,1263137801,2471,3.38,0.17,305411008,236128000,69037000,319659103,3
402907491,5024556,256824621,2071415,258561645,2082028,1585691,13459692,1141058406,404775,407481505,232844,614001,1250865668,2474,3.44,0.18,307536815,242174000,65046000,321681864,3
253300824,9551975,170092230,3684480,166791078,3742574,6282139,25735519,1205022276,885746,249302750,410351,226065,856798567,5017,3.42,0.23,326315746,263019000,63004000,340541883,3
418081078,9233457,271202828,1917888,272191584,1921024,5127771,22636491,1340509084,919137,420286315,96038,218291,1311992623,4820,3.97,0.24,361182102,293915000,66980000,375382976,3
139257361,4791055,100647452,808503,102585600,817064,1376650,9866139,365182315,179310,136601973,12357,5683,439351744,2479,1.09,0.07,99059442,94766000,4032000,113107735,3
333369679,5141082,209144651,1053365,213669706,1041656,1597869,11119071,583055822,172295,348118705,27168,12464,1003026503,2863,1.9,0.1,157869324,150486000,7022000,172264986,3
411109848,5163719,258616832,1540757,259093847,1533937,1595984,12925910,1109510996,385542,416230071,30243,213774,1266991367,2472,3.34,0.17,300622152,230221000,70067000,314888844,3
335238908,4932698,213309227,1013901,214146484,1019517,1592780,11153388,572701486,191621,338324008,32975,7645,987295285,2668,1.82,0.1,154488770,149153000,5005000,168605329,3
142888239,5060950,101597934,834000,105885712,812336,1504552,10086816,379390799,168742,152333189,11570,7204,473477923,2871,1.12,0.07,102999375,97772000,4988000,117136017,3
144354711,5144843,100004444,826833,104907034,806986,1594452,10042578,382681128,164698,155336299,19335,11078,479560896,3262,1.19,0.07,103390914,97068000,6004000,117714468,3
341410885,4907636,230628354,2853509,234935068,2841685,1655889,11260373,632308170,181341,347878700,24383,8137,1039437721,2866,2.04,0.11,171159999,163837000,6993000,185255893,3
144694996,5000110,98431623,837473,103000861,823623,1513663,9883057,381336769,163300,156996919,12531,12545,484255681,2479,1.14,0.07,103512016,95139000,8011000,117934680,3
415459062,5570112,269141399,3133456,270848291,3144283,1709850,14585807,1156039255,400746,411240680,27165,218486,1267740237,2670,3.51,0.18,312660664,246292000,66078000,326887277,3
144429995,5028595,102402318,815172,107118434,799991,1555556,10088294,377136469,173205,150933681,17946,11235,473776431,2871,1.14,0.07,101798168,92432000,9042000,115883163,3
183500162,5119759,127272942,861870,131395413,835941,1547689,10446226,435864413,168206,191418074,20976,10896,593144842,3259,1.31,0.08,117619875,112266000,4967000,131826166,3
142754361,5005191,99794717,841617,104420812,822011,1431886,9793869,377114785,160931,154733070,14721,9693,475860210,2480,1.1,0.07,103564339,102212000,1002000,117813847,3
447967968,5086785,282770893,1614341,283519323,1617024,1565810,13307536,1181135233,399227,450996326,28539,210729,1380315069,2474,3.62,0.18,321261951,257924000,62981000,335530649,3
404455340,5050031,267880035,3155207,268660662,3178182,1628216,13465910,1169301899,393816,410162186,330110,215453,1267284073,2473,3.6,0.18,316032314,248769000,66937000,330315516,3
171155930,5104776,121127226,803497,122370682,818743,1731579,10492492,419311747,178774,175933600,14985,10498,552566930,3264,1.29,0.08,113495154,109156000,4005000,127586847,3
382650527,5037057,241683249,1551607,242441266,1553126,1556208,12744103,1088043666,401148,387489620,328489,213474,1176052107,2474,3.31,0.17,294140663,241857000,51969000,308440822,3
142199048,4938909,102014874,827618,106701638,806173,1408039,9801361,379151791,164813,150588409,18343,10140,472738857,2479,1.18,0.07,102225510,96924000,4996000,116432119,3
143274396,4893957,103162977,808595,107717125,797624,1407772,9998732,378145340,177057,146553920,13628,6828,471921858,2480,1.15,0.07,102271138,98971000,2999000,116398473,3
410211823,5134598,253057561,1877395,253845837,1887551,1731048,13287381,1130543732,398477,427620102,23243,218422,1267914285,2865,3.41,0.17,304970572,240727000,63927000,319296643,3
411984193,5093200,257793537,1564009,257977599,1559605,1627400,12765205,1113424218,385121,416502065,70677,209988,1266119758,2473,3.35,0.17,300683083,243213000,57050000,314859053,3
132443002,4799562,91730039,811465,92794154,821298,1426995,10163288,352607135,185761,129283133,13224,9673,428837587,2481,1.06,0.07,95183836,85999000,8999000,109439663,3
144308577,4884869,103065896,806709,108351266,798186,1388276,9902270,373066259,173938,147000594,16086,10250,466661404,2482,1.11,0.07,101014800,92797000,7982000,115177054,3
473956867,10578463,308636953,4333325,308054591,4338968,6360271,26726956,1484041765,1036500,475254115,113868,528931,1483468189,5600,4.47,0.27,400824081,324551000,75895000,414929522,3
131445895,4761022,90937554,821977,91774074,832712,1452715,10133496,358432602,192298,128991634,12689,9719,420618230,2479,1.07,0.07,96769185,86537000,9946000,111000387,3
202702927,4933209,135440407,1307403,136148905,1314716,1673087,12019633,885305521,393581,205020331,17421,210430,673889946,2477,2.6,0.14,239059506,163707000,74866000,253178237,3
145590524,4856595,104877964,808059,109980606,801469,1400798,10187244,374717291,176289,145653898,17654,6257,469895665,2478,1.13,0.07,101448665,94146000,7010000,115741125,3
390259988,6537784,253106342,3057725,251961746,3134728,2793922,15544435,715077703,452735,385715381,27688,17340,1190283482,4037,2.27,0.13,192889003,186494000,5983000,207121321,3
161876064,5347963,117983767,861665,123725018,889028,1806103,10696829,407545327,192035,165347343,30450,11688,540758460,4434,1.26,0.08,109848422,101514000,8040000,123847138,3
143659506,4850608,103789752,805416,109270084,799513,1353982,9838531,373903526,170280,147065533,18243,6337,464676808,2478,1.15,0.07,101336682,92055000,9005000,115523736,3
144593907,4988985,102012293,831553,106385351,806697,1548334,9947143,380406656,168522,149513709,17390,11042,475732083,2479,1.13,0.07,102667300,96195000,6012000,116802517,3
412291293,5140904,258571210,1520713,258945585,1525649,1607689,12944817,1113729118,387454,417643170,35720,209469,1270200736,2670,3.38,0.17,300399630,237080000,63021000,314342350,3
196942684,5163113,134434561,2992140,135339288,3008694,2389735,12729998,922818306,515851,199134417,336125,217123,667844577,3259,2.66,0.15,249920857,181457000,68171000,264008605,3
415527092,6974100,258423308,1607038,259144229,1617455,1755862,13413539,1122847296,404318,416069577,270283,213832,1271302293,2862,3.39,0.17,304089900,239843000,63958000,318321052,3
200547710,5003762,134331710,1309896,135177523,1304218,1488814,11730114,901617490,379915,204581364,21483,211634,668807078,2479,2.58,0.14,243035276,177771000,64916000,257448124,3
146259126,4983098,99563370,844161,104210982,833514,1493399,9888281,382255364,159801,157584305,9337,13332,485655875,2480,1.16,0.07,103433998,96124000,7009000,117786924,3
131193601,4783351,91656722,817981,92534872,834074,1480826,10060997,351996575,188657,130464366,10809,6053,422766433,2480,1.05,0.07,94865136,90598000,3982000,109182442,3
163624152,4732984,107127693,851256,103713076,892547,1697169,10479199,372057567,167748,154790912,21687,8845,523058796,3261,1.12,0.07,100747300,92355000,8030000,114749487,3
198816228,5235936,129940646,1321372,131173121,1313553,1782858,12095813,894869548,365707,214610440,328665,212332,677758971,2870,2.55,0.14,243528223,163064000,80031000,257839032,3
142138387,4978098,101928794,826587,106796061,803227,1403246,9746436,374740882,162919,151214873,12628,7414,471718919,2480,1.16,0.07,101895775,99600000,2012000,115895589,3
189580229,5184815,131362155,2578555,136436722,2539665,2275543,11325295,491014941,298772,202553484,12453,13615,616013748,3260,1.5,0.09,133427285,123192000,9934000,147706036,3
201447642,4825440,134332508,1293095,135171392,1302168,1438274,11845024,880208520,403523,203959478,22542,211147,670484945,2478,2.53,0.14,237465206,168131000,69054000,251801721,3
411940585,5044421,258238487,1507388,259063674,1520589,1580328,12881709,1123159744,393821,416588907,623709,211112,1266906046,2472,3.45,0.17,303274689,228975000,73992000,317210807,3
140222026,4950124,101242622,824347,106120579,805679,1511734,10078783,380963452,169691,150710013,16285,10591,466634338,2481,1.13,0.07,102399441,98129000,4005000,116583012,3
415484591,5185664,259881260,1557793,260221501,1549590,1665260,13049008,1115984899,383998,417130220,324855,210530,1275621674,2474,3.42,0.18,301466318,235113000,66031000,315612787,3
145104511,5107412,102062106,825108,107054757,807508,1524457,9917326,380336765,166251,152468337,18909,12206,474688383,2872,1.16,0.07,102923484,100604000,2012000,117040224,3
190789529,4958324,127521679,1315730,128249351,1317624,1567520,11783481,852471044,376442,193654376,19564,213794,645420899,2478,2.45,0.14,231476243,168151000,63056000,245367365,3
355633584,5091757,226341138,1062516,226416261,1068622,1793422,11570758,604532188,175996,367378440,34268,14506,1085721120,2929,1.93,0.1,163456714,158030000,5000000,177761737,3
404030536,5397588,254530090,1522809,259603430,1512878,1569802,12717599,1111187317,382912,418629897,33084,213881,1251561579,2678,3.39,0.17,299390494,236086000,63023000,313609226,3
143045457,5052600,100907124,841950,105379695,818593,1460829,10061163,378210746,162835,154092888,15441,9119,474794182,2479,1.14,0.07,102844586,96553000,5972000,117051346,3
201588304,4927558,135062489,1300895,135968165,1308696,1457638,11790891,885095188,391220,204892454,21706,209609,672603459,2478,2.57,0.14,239085788,177832000,60942000,253272442,3
132573556,4769119,91868955,816036,92743366,824112,1456586,10067451,356392001,189235,129034960,12612,5115,419997663,2479,1.06,0.07,96659042,92403000,3974000,110686427,3
407307894,5130568,257596973,1519625,258141967,1535503,1628731,12909755,1120954522,389495,411049141,29247,210199,1263882352,2475,3.4,0.17,302967409,246371000,56084000,317111340,3
142724005,4889534,103561216,820785,108474653,810145,1379024,9813306,376799446,170101,147510995,18721,11149,465989936,2479,1.13,0.07,101979912,93704000,7974000,116282201,3
202615591,5134204,136002637,1314545,136405433,1309112,1557132,12127267,896535736,373595,205234164,122943,214356,679804023,2478,2.59,0.14,243881535,177745000,65905000,257871874,3
136152561,5644346,92700233,776630,92944552,741582,5975439,13520164,428919519,481745,136230237,61914,70670,473364603,8585,1.16,0.13,146926346,126247000,20199000,213311424,4
134308991,6333423,92481275,681519,88312882,678951,5460972,16653236,455036870,675577,137664208,16982,6971,491739222,3461,1.32,0.12,122837136,116475000,5973000,136663942,4
374511595,6350490,239976631,1178431,234244115,1200562,7489165,18137635,763389078,695468,353611840,48257,61605,1139999398,7965,2.37,0.18,206016286,192751000,12983000,220285442,4
173917555,7916301,125950819,708630,127329203,699317,10077304,19295040,606671879,1077488,174779902,56536,17505,638273908,13171,1.81,0.18,163279064,134877000,27974000,177428096,4
350250317,6387537,222298035,1161526,219026792,1030900,5670292,13845611,687146835,617978,351680781,40131,111881,1084654891,5993,2.14,0.15,185284446,173970000,10998000,199149634,4
126898194,4483209,90334488,657479,86664014,668260,4104694,10862509,417121471,515905,127278859,12032,11387,452446523,2875,1.21,0.1,112272262,104981000,6998000,126286337,4
123675123,4907478,88089040,749241,87814898,729538,4930677,13177171,391385254,443555,126747511,42363,10027,445246100,6343,1.15,0.1,105667262,90472000,14913000,119880627,4
346854928,6681187,219231771,1182650,217694260,1163057,6408292,17444730,692957168,677021,348724211,46774,56657,1059085442,5451,2.13,0.16,187406883,176097000,11006000,201546551,4
127923059,5958237,87018798,693919,82473445,704070,5787519,16735858,461248692,737494,130728255,24346,10143,455317778,3455,1.32,0.12,124075218,119781000,3992000,138223740,4
348773987,6549232,220434517,1193532,217806201,1213875,6699550,18071041,694244938,672391,345420735,34525,45957,1061130259,5499,2.15,0.16,187676845,178358000,9018000,201999443,4
341014410,4964243,219161471,1300859,219587807,1208596,4194993,11285848,634445873,422291,341693340,47745,72841,1051200171,5955,2.01,0.13,171013776,163785000,6990000,185204873,4
124552333,4388476,88612925,741018,87568103,722935,4598170,11351648,385922320,445143,125573614,36624,27108,440935461,6342,1.11,0.1,104269711,93973000,9997000,118395600,4
118937320,4510834,83559607,916571,85494006,970400,5298148,13227841,443054104,576914,127438609,24804,8059,422242217,4168,1.27,0.11,119608834,112217000,7013000,133805695,4
374421063,5833219,239013090,1258795,233331923,1264310,7276895,17799183,757156937,688100,358293893,55933,28478,1151489857,7575,2.32,0.18,204370832,189078000,15006000,218246341,4
132610689,4504139,90546890,649788,86798869,653830,4292459,11453320,413197144,561828,130538643,18881,4893,466048163,2880,1.19,0.1,112512412,105223000,7014000,126863134,4
129793423,5511863,92773090,637815,90595496,606403,5441933,13496031,426990837,668729,124417140,32723,51561,446884902,6117,1.22,0.12,115338569,100046000,15006000,129509018,4
131238311,5418986,93661836,820257,88576885,736854,5467265,12757640,464941555,616765,129227538,51510,117563,461530169,5992,1.32,0.12,126830441,111614000,14948000,141110459,4
130245733,5926851,92929652,855148,92763969,775820,5702106,13058050,478310371,622608,129593741,32795,109068,457103402,6773,1.33,0.13,129218168,111916000,16987000,143447084,4
153989038,7338640,107544576,885378,101471837,919126,8550508,18282482,566102666,848070,154434668,38551,12687,548573565,8589,1.59,0.16,153451897,138144000,15015000,167685058,4
351364102,5439028,224633910,990419,223365300,914937,5207557,14174511,644919097,526846,341098636,51761,95747,1057027583,7160,2.03,0.14,173506818,154061000,19007000,187807176,4
125621454,6626059,90585248,1006522,90284839,885178,5938300,15616782,480863345,676578,126003218,40580,78478,437856748,5457,1.35,0.13,130494342,115128000,15016000,144590626,4
376419490,9206824,247046757,1567322,246626198,1475745,10846843,23669695,992512258,1030150,371246876,53691,101254,1158483599,8475,2.92,0.24,268328972,249016000,19001000,282507465,4
149598320,6580194,105741420,846456,101961388,871087,7785735,17825915,539045393,674659,152270485,50901,11802,533975799,7969,1.51,0.15,145309245,127035000,18005000,159442746,4
355879401,5754191,224098798,1060480,221149753,1042701,5057611,13657490,682078117,619087,349223085,51481,83253,1096368462,6780,2.15,0.15,183970677,171708000,11979000,197941688,4
150702154,4862989,105645219,667532,99149029,631013,4917068,12773681,448062059,416489,144047471,43734,294665,542941981,6967,1.31,0.12,120841200,109525000,10952000,134938007,4
129260374,6298057,88250721,940764,88955130,839807,6437429,14511620,492114144,704340,135113980,41500,38560,448023543,6506,1.39,0.13,133266940,117954000,14994000,147540530,4
121819103,4743105,87345321,679759,86344266,676690,4710775,13487067,427282843,613737,122611571,19460,11586,424877922,3261,1.21,0.11,115726691,109411000,6022000,129987567,4
346302555,5442556,219852862,1363373,219650203,1353306,6129484,15435893,717206371,591411,352780031,56300,29402,1064125535,9024,2.24,0.16,193885497,177668000,16060000,208318934,4
137697267,4519091,100055849,620164,102462105,624550,4765005,12179515,427344608,448922,148342077,30666,9390,498610043,7578,1.27,0.11,115610010,106362000,9030000,129706441,4
123845670,4865189,86194259,849533,85257201,853269,5376771,13296158,456606979,596432,131003704,40027,41612,451319655,5215,1.27,0.12,123262061,113011000,10000000,137519455,4
137061090,4354419,101703385,624468,103179553,644127,4680349,10946303,423141286,424924,147591231,63552,9024,496330835,7187,1.25,0.11,114453299,102198000,12023000,128552811,4
347705311,5080136,221025368,1094463,215777058,1105979,5338321,13844588,676511337,748121,338645004,25793,11644,1051386772,3256,2.07,0.15,182468972,178338000,3985000,196862537,4
197549708,22220710,148884487,7188406,151604233,7146792,17615267,50378510,1371360053,2569013,202785762,73539,22597,695931115,10538,3.86,0.35,370448186,351388000,18967000,384680308,4
147842210,5053358,104726906,676194,101318841,680040,5339051,12823592,455823961,489882,149325682,30465,10799,534724455,9235,1.33,0.12,123669254,106446000,17071000,137830212,4
130544265,6421671,93202628,1028338,92665086,997017,6626340,14796319,486223842,591986,130429725,39076,43994,464191326,6787,1.37,0.13,131981967,114814000,16972000,146161002,4
349961120,5361700,224878761,1042253,222479893,983533,4572397,12163090,626540554,533772,337243128,60227,68401,1045813532,6732,2.0,0.14,170216623,158002000,12000000,184317348,4
157601393,5812318,119933822,686253,125372350,689347,7812077,15512831,516869634,583824,162627689,82814,17108,580193930,10539,1.54,0.14,138974055,119807000,18969000,153029595,4
344922238,4525566,215784443,885565,213544442,879017,5050614,14892170,644567965,636714,345242085,27800,7566,1048472987,3059,1.99,0.14,173725348,168555000,4986000,187884216,4
146445035,4495402,103616470,657168,102458770,640727,5206279,12146193,445618326,427509,148992428,36526,10933,534620813,9039,1.32,0.12,120011469,105641000,14085000,134395101,4
119464566,3824445,83572683,705214,84452059,671270,4266355,11197822,396599014,494829,127313283,12592,6674,430266416,2870,1.15,0.1,106815999,99610000,6972000,121053753,4
347931186,4146261,216785871,923334,213685050,930287,4600730,13125068,605229816,450236,346047323,37058,27381,1070084337,6337,1.94,0.13,163581071,154450000,8968000,177815072,4
148430874,9918254,110793010,1048610,115949536,1097564,11738857,24479449,800951767,1092225,166759096,46414,16361,537722481,7894,2.17,0.22,215559656,201283000,14019000,229674027,4
184983546,13164475,143788869,745472,143389573,758458,12211252,29856452,741182216,1059054,186232884,142385,50508,743119825,23567,2.13,0.21,199570876,172253000,27039000,213731178,4
137265000,5814439,98779817,894850,97241445,905214,6626917,15552494,501904371,614870,137689896,46669,17220,501163062,8397,1.41,0.13,135887118,118784000,16969000,149874326,4
350628354,4256225,220949807,833531,215683718,929228,4685254,13419730,617122520,496742,349726647,40111,43732,1074343951,6955,1.98,0.13,166792899,154425000,12033000,180857989,4
347589210,4398110,218632773,1046308,216478828,1065556,4654704,12863080,634119455,600031,340040237,25891,10589,1059810748,2871,2.0,0.13,171213465,163974000,6998000,185464359,4
130689800,5837907,92341596,2837771,87666728,2480599,6241458,15501004,508606094,678172,135750234,19836,35133,462893406,4563,1.45,0.14,138186099,125940000,11994000,152655262,4
122125859,4903418,86207393,758116,85702259,748652,4789474,13283724,399332357,447047,128189208,20549,8270,437530205,6214,1.16,0.1,107823098,99602000,7968000,122064686,4
130509125,6221915,91065896,747571,89539866,684517,6767446,14916161,449057889,663856,135143511,63083,64315,474797100,7515,1.31,0.13,120808530,109341000,10934000,135050147,4
349866034,4202988,218540664,1049561,215681838,1053934,4759069,13556035,641995012,578980,341991818,21597,10315,1065222179,2869,2.02,0.14,172650334,167454000,4983000,186750317,4
129355087,5919556,93709951,921461,92599327,929641,7191475,15737909,484613882,682305,122835874,39500,47821,448599403,5994,1.38,0.13,131503095,123248000,8016000,145856636,4
192287278,12680195,139397931,1336843,134301867,1296540,13526828,28619034,811699994,1192270,187268440,71708,41613,735412675,11091,2.24,0.25,221723206,200475000,21049000,235965723,4
129112675,5864399,93206606,790463,87791690,692862,5626738,14021803,465754833,665223,128308918,28524,57850,456671624,5604,1.3,0.12,126344050,116083000,10007000,140624567,4
348107981,4001315,218222902,918774,215599068,928209,4764228,12888081,603217273,423057,346765160,38118,16481,1069937171,5947,1.91,0.13,162525332,149259000,13022000,176720592,4
352512118,5727831,222053247,1148389,218775630,1047876,5949915,14157611,684204027,624364,346394053,42477,83664,1074133027,5989,2.12,0.15,184899418,176589000,8026000,199072011,4
118552640,4453676,83663941,825117,86569765,899871,5225508,13063113,442993191,586022,127939939,25060,20225,422313426,4170,1.25,0.11,119843505,112561000,7035000,133901869,4
179332890,4773727,130399596,685091,131814536,675312,5332275,12828403,496324269,430505,187338785,54768,13271,695573444,9655,1.51,0.13,133923232,116689000,16954000,148286399,4
129876612,6681473,93700337,777677,91292269,852584,7907752,17513488,524309039,943467,127422452,36426,47460,447061870,5993,1.48,0.15,141862414,132617000,8974000,155975482,4
129633482,6695791,93717409,774841,91190487,846453,7950709,17607304,525247472,946281,127578929,25438,44557,447391836,5995,1.47,0.15,142008577,128786000,12978000,156257347,4
352053538,5522230,222374399,1155730,220288080,1114364,6121888,14936747,692576023,616330,341631599,49880,67569,1067453671,5987,2.13,0.16,187430266,175187000,12012000,201425354,4
145279769,5125481,101350837,681510,100319834,663303,5189079,13624108,453987237,487838,149315737,30192,12906,526915949,7968,1.29,0.12,122561921,105250000,17040000,136539061,4
149561675,6382466,104429372,764872,100355280,775111,7413549,17257660,557660853,956045,151799956,47635,58178,537513918,7126,1.58,0.15,151135273,134800000,16095000,165222495,4
400150488,14518602,257806019,5730972,257767231,5664092,8631036,33477958,1110303310,1084445,400604409,48186,15141,1235247288,8292,3.22,0.25,302630608,288375000,14018000,316692097,4
130042777,5412386,91858539,699893,88123213,691995,6011464,15766560,453418016,655762,126554726,24957,8855,455308358,4489,1.3,0.12,122580772,115288000,7017000,136705373,4
149054352,4545127,105113914,667414,102302053,649423,5160269,12300979,451075421,463200,152804361,46155,10933,531530303,9037,1.31,0.12,121600617,102220000,19041000,135614337,4
358792636,5380317,222816894,1135256,219298703,1320801,6745871,15712462,720450666,669666,356226684,44864,96525,1094924532,7550,2.22,0.16,194580065,174343000,20039000,208541558,4
128356320,6002768,92771203,948259,92281034,950575,7155564,15965191,487278957,672547,123600378,45724,22082,445633151,5604,1.35,0.13,132270406,118992000,12999000,146682860,4
124217563,6338409,87841934,1042671,87055174,1029020,7921329,17032577,487294415,743543,125939257,31083,44395,434573006,5127,1.38,0.14,131546330,124266000,7015000,145713286,4
133761414,4306384,98240809,617793,100681210,646816,4489986,10531367,419372593,403779,145400979,38204,9081,482478260,6570,1.22,0.11,113422327,100083000,13010000,127236873,4
123118721,4183293,89465238,695553,89176440,652798,4299056,10450367,383253336,424022,124495356,33716,52287,443193833,5952,1.13,0.1,103202696,91835000,10980000,117311118,4
370247628,5385332,234872964,904988,227776098,885274,5376094,14277938,661169363,482057,362116866,51066,14561,1143006391,8188,2.09,0.15,178894425,158583000,19947000,193249496,4
148240065,5313594,104239281,641826,105077495,651361,5961472,13723077,476645054,692893,153150914,33640,10815,528571797,8000,1.36,0.13,128620335,110226000,18037000,142673923,4
168658821,9011143,125759110,823637,129082475,846351,10091217,21172330,744521716,906909,185151763,98995,22818,617209723,13185,2.09,0.2,200540706,177397000,22922000,214849133,4
120941462,4560496,88464263,685850,87560743,682415,4805195,13132467,426102894,623507,122061644,24105,6051,426444072,3257,1.18,0.11,115445352,108155000,7010000,129726112,4
344544462,3932437,216537701,922543,214513384,930403,4604106,12157492,596829734,418503,345630524,29973,23227,1056734120,5331,1.86,0.13,161393553,147097000,14009000,175278734,4
127980847,5899886,90781949,920455,87669200,817012,6236380,14456608,474313952,689262,126745062,34557,29848,440652608,4994,1.35,0.13,128293659,117144000,10920000,142744210,4
129880726,6262375,92003751,1021341,89961055,1034531,7786096,16878608,512587048,688807,135832507,39641,11031,470559577,7555,1.44,0.14,137902217,115489000,22093000,152258401,4
124453648,5183723,90902910,644595,89394107,647776,4861088,14294406,424832900,616907,122292807,22306,5216,442837626,3071,1.19,0.11,115274358,111855000,3023000,129424341,4
399105250,4643676,254416130,886524,242954980,888920,4932501,11949261,681350849,418373,402654545,50166,10194,1266020465,7376,2.16,0.15,183914534,168623000,14966000,198123066,4
133026869,6455461,93393085,992757,94978369,871940,6366670,14980413,490607692,659846,132954170,36836,149279,461184754,6580,1.38,0.13,132429179,116139000,16019000,146611306,4
215329807,7554801,162349194,995142,158822243,1053961,9059331,21228776,650799068,739821,201711149,72605,49915,804523025,12768,1.81,0.19,207756359,185307000,21918000,274122884,5
166190971,10536608,121774127,1307449,125312874,1290108,10167047,20491876,687358142,1035495,171378747,81922,146006,590301520,12639,1.92,0.19,186553535,161259000,25040000,200689841,5
444237293,8292622,290668136,1141416,286082130,1196036,9041978,21243432,896373161,722055,447816514,82840,24841,1465170892,12761,2.81,0.21,242323285,219020000,23002000,256627970,5
188102938,8051372,134270581,1439222,131410350,1511918,10884404,26202092,757459240,899972,188591071,94059,148114,685699976,9484,1.99,0.18,177182974,157878000,18985000,191175311,5
164361726,8043320,120246787,1208069,119132524,1225333,9416627,19961603,631837149,901469,165467005,30669,49295,579237983,7365,1.75,0.17,170990816,158734000,11979000,185486323,5
384217137,6329531,243320771,1173793,241988325,1212764,7427158,19384823,769409542,727753,394253735,35045,17931,1219650848,6425,2.37,0.18,207829526,192470000,15036000,221777016,5
214059884,8085806,162699683,938509,163068473,973413,8928968,20973521,677897789,777172,204257620,84717,29178,792704252,14528,1.97,0.18,182622061,157349000,25055000,196917001,5
157628546,7270786,111722708,947335,110469375,954707,7374642,17172501,527216784,705908,167581368,29583,34099,564281176,6429,1.5,0.14,143200116,130888000,11989000,157330241,5
156858040,6961134,105903090,1091213,105591381,1198392,7620882,19061282,586360539,816558,175057728,23215,45455,573300554,4735,1.68,0.16,158667344,149325000,8959000,172696968,5
201998499,9680637,140704774,936615,139135458,929672,11451314,24258820,691318866,1201715,199390016,59215,57750,747542347,12589,1.99,0.2,186330434,158049000,28008000,200495626,5
227200622,11654613,169588776,1013647,167958378,997447,14590881,27103501,799247136,1615733,217059919,66644,66547,835910836,13241,2.34,0.24,216437212,189211000,26887000,230694569,5
188335997,7249572,129895399,941605,129123810,915240,8297744,18950568,592472764,787424,193759638,43271,28420,696220458,9358,1.73,0.16,159949011,143524000,16058000,173986885,5
166853998,5737953,118276280,795861,112390996,802593,5941524,16504496,557423541,818478,160159779,13421,14448,576603993,3656,1.57,0.14,150343584,144078000,6003000,164327878,5
201809074,9536174,141687639,911735,135996675,853958,11574562,23533632,660050555,1273807,186593072,51239,80644,717512530,10138,1.9,0.2,178049226,154795000,22969000,192293215,5
270435716,7591814,190207773,1032718,186331503,1128524,11185590,23791954,759744731,989383,269156123,48313,54343,1004350954,10428,2.23,0.21,205727289,187284000,18027000,219825985,5
394520520,8110198,248240616,1092168,245525834,1085017,8488143,25366847,900037019,1181590,388097026,31518,9925,1230083278,3449,2.67,0.2,242956884,233737000,8989000,257098229,5
384619713,6367210,242795269,1033244,239353336,1019867,6948333,20437679,803884855,952728,382941336,24903,13001,1207168099,3451,2.45,0.18,217271574,209912000,7030000,231632332,5
167707625,6972511,112270694,984124,107641389,990663,8038232,21179108,544558229,779418,169280654,30216,28500,620428851,6625,1.57,0.15,147148267,132765000,14081000,161466023,5
386767196,6407853,243951067,1034420,239994386,1016936,6948669,20537408,800898485,954576,382439722,83347,11418,1209230435,3451,2.44,0.18,217271718,209903000,6996000,231530284,5
223968251,7792755,157750269,982221,149354028,957908,9075408,19796258,654039401,705614,214170412,76904,22018,832093090,12770,1.9,0.18,177138581,157866000,18983000,191249937,5
153318638,6658341,108969979,826390,111455157,825712,6219142,17647399,572399672,955532,156434495,14477,45726,548760292,3461,1.56,0.15,154607054,149308000,5010000,168557258,5
165054652,8285881,119630747,1200029,120704284,1094948,8604029,18791566,622015063,911406,159487977,43349,135325,599220545,7163,1.73,0.17,168044672,154679000,12973000,182268434,5
459439744,11201063,310871692,1324638,311494975,1325928,15014380,28706713,1134995491,1390786,449813260,114031,33703,1481805510,14725,3.35,0.3,307044937,282757000,23979000,321268807,5
171845830,6724978,109309548,1025492,106234415,964961,7890618,18852504,598785728,851270,175105142,26399,63094,619600729,5410,1.64,0.16,162226396,156787000,4993000,176492332,5
188277844,8778572,146130950,818971,145680301,857444,10981863,24130257,683450365,1100723,183781573,44791,28505,703541913,7466,1.93,0.2,184885138,172636000,11974000,199088294,5
161502366,8527642,111747195,1356406,110043849,1375457,10087738,21100541,690953847,987378,181477845,36355,107587,588174206,6389,1.91,0.19,186409389,174230000,12015000,200264272,5
360079797,5354983,234436052,1363344,236715245,1334327,6085898,17418834,805522701,832449,352903580,17086,14198,1134237592,3255,2.43,0.17,217406170,212473000,5011000,231735122,5
390727783,6750117,247734026,1089804,247500027,1091402,7243249,19777532,857780885,981605,393009356,31277,10844,1257961223,3459,2.53,0.19,230873360,223873000,7027000,245172035,5
399374277,10227381,253749791,1540422,250290537,1198306,9767263,21650011,904876713,1047440,387176252,55972,214433,1225328358,8334,2.7,0.22,243184783,233214000,10052000,257235485,5
149458015,8755548,130948548,1163769,130710466,1225850,8868218,23060646,706405480,1024603,161566246,26237,80525,672927893,5687,1.95,0.19,190488158,179451000,11027000,204843262,5
226920008,11081349,169438760,909056,169416381,798781,12058872,24519752,786468013,950316,225341739,64043,124036,830248271,13169,2.23,0.23,212506535,189348000,23042000,226589835,5
189472116,10616479,125814391,932538,121697670,1014501,12915555,27528858,772746699,1230761,185185289,34429,247095,632675051,9120,2.15,0.23,207952058,188844000,18984000,221977637,5
202707562,6773762,137587488,838489,132533046,917079,8844413,17975441,615345770,875981,198690936,44966,51740,715206596,9553,1.75,0.17,165965034,149825000,15981000,180196273,5
169542859,5487698,113746735,814570,107387835,814560,6219776,16997733,555340662,798670,161981425,18988,38829,596145808,3459,1.58,0.14,149434806,142226000,7011000,163524896,5
446257763,8229486,291659175,1166793,285731859,1217783,9192801,21577742,893836677,725129,445109152,83958,40872,1467520002,12763,2.78,0.21,241683951,212748000,28965000,255704166,5
165423301,7954173,112176043,1144210,113207017,1248020,12319585,23123105,648542520,1006462,176819251,43517,18379,627313347,7946,1.78,0.19,175319833,160100000,15009000,189431955,5
396798103,10291893,253672402,1731958,247014513,1568574,9330029,25112755,935169552,1121299,383220594,36538,100440,1228163532,5692,2.71,0.22,253242875,245150000,8037000,267277076,5
159429368,6727151,113179096,934743,111567067,949976,7181669,16235683,523697808,734944,164186127,35145,25212,557628456,5993,1.47,0.14,142278080,133021000,9001000,156614447,5
179651270,8021952,114360828,1299166,110482070,1279122,9823043,23059544,643308446,968669,182149920,29013,24845,641192545,6581,1.81,0.18,174605661,162429000,12031000,188973448,5
218600600,7911115,145484277,900503,141578428,937584,9216318,21702447,650072451,798162,221030976,50975,39368,786138349,10871,1.91,0.18,175518030,155295000,20038000,189763595,5
169019969,7212419,122257357,844179,120963853,870513,7886744,18329617,566642116,856559,162536054,31602,125411,594265285,8089,1.62,0.15,152449047,130002000,22000000,166586286,5
155545245,6997000,111311317,973148,111372490,977902,7125525,16690731,528604325,747047,166414055,29878,15779,555844328,7015,1.5,0.14,143331880,132062000,11005000,157467453,5
160696889,7323421,113610511,812415,115287537,816865,8420029,19699353,618866034,1073182,157568046,22546,19030,571947564,4826,1.72,0.17,167490660,161425000,5978000,181582449,5
388021840,6545138,243862074,1042594,240214839,1024501,7004412,20648399,810294939,952339,383574316,30230,21198,1217945098,4039,2.51,0.18,218764783,211606000,7020000,233121258,5
159958464,7737718,114534400,851399,116114321,851988,8593044,19312385,625351081,1152389,155320823,21630,21609,563316956,4436,1.74,0.17,168430957,162064000,6002000,182611452,5
165118559,7278346,113640088,895768,112770120,878355,7789648,19140164,536675256,802805,172922533,25253,21156,596546481,5554,1.55,0.15,145345793,138145000,7007000,159468756,5
219988715,9005313,164380779,948019,162052311,986864,11409126,23211759,716570809,966969,203980809,74945,74234,802860360,14426,2.08,0.21,194792214,176568000,18058000,208852331,5
295021367,12780705,193517617,1523995,192111705,1351448,12135400,35435288,1073242672,1252586,297528126,38833,24226,1050188765,6953,3.12,0.28,290739519,281609000,9019000,304911412,5
164542084,11011613,118210565,1592104,118598976,1566806,11563956,24388733,734008699,1225773,162089878,24337,131249,582348032,6677,2.02,0.21,198254986,186092000,12005000,212591800,5
302292259,31720586,227004477,11772463,223403229,11818580,26461876,74138450,1997328044,3761700,291616780,89546,114624,1062347076,16136,5.46,0.51,539721467,511734000,27985000,553894257,5
157962067,7463736,115729842,841704,117011832,838052,8801435,20305884,636529681,1139537,156501100,49092,28979,544070684,5217,1.82,0.18,170471249,164234000,6008000,184695270,5
402553712,9109731,255602295,1518038,248356649,1443991,10855497,23561141,934433086,1100744,391528641,49560,195652,1259057835,7163,2.83,0.23,253289883,244040000,9001000,267659019,5
180350521,7147357,127490137,858785,126430023,850160,7506741,17478171,583742705,773246,192552872,37711,27430,648367581,9160,1.72,0.16,157746928,143366000,14035000,171903546,5
396527233,6006209,252535229,1234198,246439954,1255932,6935969,17190006,834806931,1014335,384291704,34104,31670,1226098016,4428,2.58,0.19,224583051,217442000,6982000,238828793,5
161809461,7911127,114326147,1282529,115342917,1181631,8509507,17561368,623812896,1013354,155898204,31295,102020,568947129,6400,1.79,0.17,168174181,157706000,10045000,182257966,5
158049246,7144166,111199869,974684,114272073,983817,6711489,15966329,527690231,668750,161248118,30035,66945,562831115,6431,1.53,0.14,142368103,134025000,8001000,156643504,5
322438934,8864052,220272997,2264913,219456515,2016551,8929508,22421050,1659432095,1380305,320260595,41483,538427,1141440197,7845,4.71,0.32,447726476,437504000,10011000,462055699,5
474851960,17873425,325868441,1044218,331686556,1054368,21400257,40122379,1312451600,2515037,479840801,101468,78929,1609162066,20776,3.95,0.38,354274295,330181000,24013000,368536302,5
392058892,7911608,248970950,1387825,245725865,1294406,8820019,20639659,847232026,912203,387362677,39946,88436,1231324255,6378,2.59,0.2,228197693,214018000,14001000,242647234,5
489942824,14451657,321005869,1889976,326535016,1899412,14317516,39358352,1316745590,1650587,487477790,70445,51969,1599359885,11635,4.02,0.33,354981854,337846000,16992000,369350059,5
386503180,6381267,245640674,1163728,242269561,1223289,7427573,19387578,770235099,728540,392024723,38875,18793,1227356952,6621,2.39,0.18,207940963,192760000,14981000,221958045,5
166109684,6950264,111679694,1010865,109332140,894801,7877964,17734076,545792750,816884,174579027,27959,41739,624262155,7211,1.6,0.15,146826914,135636000,10970000,161065953,5
382412189,7259553,244126532,1832380,245639588,1871554,8322478,21457377,910816693,1005679,383955822,34232,391604,1178359817,4990,2.78,0.21,246180192,236991000,8999000,260153631,5
164858298,7540815,114884233,1143792,114378461,1042112,8210950,18563258,617929084,935939,159510889,30386,67889,566025472,5778,1.78,0.17,166125890,153668000,12052000,180330579,5
390354315,6633523,246177395,1208865,241296943,1231174,7490387,19267930,769563668,750800,387659862,39412,23418,1230763147,6425,2.42,0.18,207350872,198078000,9003000,221301072,5
395754680,10363459,251011343,1276906,250164422,1268931,8412335,27748190,935368787,1095328,396914944,49086,68050,1253725169,6490,2.76,0.21,254254565,242103000,12005000,268273003,5
177011225,7505753,116611951,1247078,114424864,1258826,10308171,22699078,649527770,895374,185435663,40519,18810,654009607,8149,1.82,0.18,175517267,158252000,17027000,189776337,5
401857445,9836998,249789125,1218692,247264682,1166059,10060536,24845206,911681022,1066907,396645114,38493,222201,1248348596,7161,2.74,0.22,245644923,234429000,11020000,259882726,5
161979171,7579152,112096949,990927,111119866,1001363,7837665,18805570,536158319,696715,174436838,33076,30986,601608462,7064,1.56,0.14,144928538,132607000,12055000,159174369,5
176639950,5813378,120825415,766115,113200820,953865,8285102,19685811,553026047,814490,168615332,34575,121934,624273498,7655,1.61,0.15,149567642,135302000,14031000,163747373,5
168054895,8018161,118330135,1092711,118041556,999170,8106590,19296992,621278992,904073,163408349,31062,152361,587521958,6581,1.75,0.17,167059979,153841000,12986000,181524736,5
156925567,6781613,140047599,901428,134898731,1016423,7319209,18574481,566256169,760317,158698904,25074,45724,701099247,7645,1.69,0.15,152822465,135640000,16955000,166937546,5
187435180,8195351,126906051,936785,126586794,897604,8419982,19689535,597599243,794066,195348597,43900,83654,702706292,8964,1.78,0.16,161264688,141049000,20007000,175540088,5
393366423,6983166,251447398,1251554,247724414,1230111,7816250,18461961,797613989,837814,383005271,42664,85203,1222127657,7449,2.48,0.19,213938869,197708000,16057000,228046590,5
165084381,10734170,121866492,1239314,123926834,1047872,12841488,25280039,727817704,1435377,155766071,37032,121370,577252406,8144,2.01,0.22,196557043,183303000,13021000,210597648,5
493463672,13526871,333991476,4442079,330198556,4217240,11884548,32581006,1216648196,1090918,491527875,81819,26108,1629285216,13036,3.73,0.29,328717947,299493000,28951000,342925695,5
251180596,8753872,189348634,779666,189563714,902388,11722650,24641720,775153806,887726,257457597,91503,71486,978241162,18231,2.34,0.21,209366696,179036000,30006000,223373163,5
163275777,8349931,115932634,1253066,114896991,1256021,9491672,20009964,631688758,895503,168096443,34730,50356,575221782,7364,1.79,0.17,171050174,149799000,20971000,185093762,5
223040506,8225048,160721255,962804,156516064,973715,9426690,21065138,697971989,744038,224438023,100657,38033,845207337,15647,2.07,0.19,188804166,160496000,28086000,203146731,5
172474052,6271706,114781445,844342,111631253,843216,7854359,18663529,539559806,765766,172935290,30971,26219,646510288,6583,1.52,0.15,147033210,135722000,11058000,160999996,5
758547230,2474469,449174419,3584472,451149325,3420611,1177766,7229820,948066976,41257,747723047,40810,22690,2272654049,3256,3.3,0.14,259542787,248011000,11000000,312974248,6
644930727,1194205,399556784,3301294,398858213,3416548,388088,3730761,748202731,22606,650342060,25430,12156,1896293093,1559,2.69,0.11,202085189,195817000,5994000,216206842,6
208726374,2439626,130823295,1651140,121018368,1808426,535768,3490378,300709098,23106,206988159,10857,5343,646808658,1694,1.01,0.05,81103805,77798000,2992000,95387532,6
285674022,16149406,211321280,9793033,207789963,9666238,13777833,39934902,1289566490,1656308,279661896,72163,39660,957544396,9844,3.73,0.31,348145720,330834000,16991000,362289427,6
326070632,14800209,232864711,11499923,231134304,11239340,13020790,37842839,1329030956,1495241,325253764,52209,40767,1051574504,9822,3.84,0.31,359125281,342879000,15994000,373158454,6
682637517,9921013,464494571,2756442,469312047,2562016,842131,6350556,963566235,37007,695848876,49438,13743,2137436385,3840,3.24,0.14,259820597,252520000,6986000,274132926,6
656523198,3121122,419825307,5119461,414727889,5391051,574307,5360313,847210652,36866,662457714,43538,17341,1967729540,4281,2.94,0.12,228646973,226370000,2003000,242929546,6
238305765,7205023,170102416,2615650,171763074,2680909,5115512,15954910,525919828,183754,244847532,36918,29139,828768614,8068,1.69,0.12,141913718,123643000,17948000,156338154,6
226734026,9433588,191135085,2332374,190752049,2346306,722643,4180087,506306635,22431,229790153,21043,9512,859280291,3846,1.54,0.08,136358025,130021000,6000000,150565233,6
686371756,9958680,464441945,2794936,468670119,2562160,794571,6740790,961142776,35878,695668383,49400,13180,2140736480,3839,3.24,0.14,259767462,248486000,11021000,274016779,6
204190442,10149970,156354721,6517363,154082393,6563443,4292448,27499431,605282126,229177,200141767,30162,16472,748466635,7618,1.85,0.12,163548150,148234000,15023000,177818522,6
217751546,9968099,172454126,2127515,170138426,2160170,1038385,5293428,502830538,24685,217855140,23660,98900,742496595,4430,1.52,0.08,135879059,130520000,4981000,150049581,6
145003841,2039206,150565802,3197410,146148093,3175258,815913,4681712,314239799,13009,140880248,8402,4625,676477973,1888,1.02,0.05,85031670,80703000,4035000,99140045,6
224636741,2302777,145286069,3607362,140450374,3989006,1403899,5087984,406695967,22311,215752902,18641,16255,709704818,4946,1.31,0.07,109517180,96168000,13022000,123752889,6
625776159,1050326,392916653,3487315,394618210,3199834,342304,3907277,739371597,23814,643358506,22203,8524,1874219449,1104,2.59,0.1,199861931,196546000,3008000,213898322,6
723439027,28411696,461352363,2771372,457277438,2998719,1059493,7231609,1097956428,42098,721594550,49391,18214,2131045382,4579,3.56,0.16,297618087,288331000,9010000,311812669,6
174728509,1781753,133762423,2518690,131807055,2548808,934735,4541990,328087258,22089,174554959,27819,22671,606856753,4797,1.05,0.05,89154883,75653000,13113000,103469836,6
660078122,5844772,422568537,3454869,424752138,3429319,3466261,15437443,1049888286,433971,662520692,47854,13640,1934096767,4428,3.4,0.18,285771611,274439000,10977000,299867649,6
173882547,1022662,123952835,1711443,123623259,1647394,383453,3194895,283758584,14595,167830103,16792,12540,568310389,2365,0.93,0.04,76933703,73489000,3020000,90858373,6
283062671,16894804,212619586,9320350,213726102,9441527,13356283,40286291,1296543277,1627573,279731819,68722,31078,939467304,10100,3.74,0.31,350997017,340603000,9988000,364993266,6
187188870,5852642,141804210,2583044,144196377,2524991,3635209,12543686,406901691,152175,181984276,30805,8233,637418622,3651,1.32,0.09,109927923,104522000,5025000,124213907,6
751181000,16204284,486251361,9988471,484942573,10076502,13503649,40305256,1759029076,1596859,752944854,91153,50969,2262292763,10093,5.38,0.38,475448870,454130000,21006000,489575723,6
249257000,14479161,174961604,1958762,170283241,2003123,1078978,5285222,556899857,35498,248468395,24420,9151,804223028,4431,1.66,0.09,150443338,136154000,14015000,164837233,6
697029777,8015731,430478875,3236248,429793025,3114785,1154465,5783596,979210304,39188,703421100,39148,17425,2059883466,4233,3.25,0.15,264999006,256594000,8018000,279235154,6
748555165,16804542,483402751,10282522,483421713,10291308,13707502,41393683,1765757636,1623346,747983788,88913,37590,2250568895,9701,5.44,0.37,474301752,450996000,22999000,488452616,6
749339086,15936699,486249457,9914603,486447098,10027124,13703745,40646173,1765265199,1609175,751966670,92280,54686,2253192090,10091,5.39,0.38,477324917,459170000,18006000,491678725,6
750720570,15836889,484211167,10086336,482789665,10008237,13637222,39584148,1753924271,1599972,757183821,78992,43428,2260380439,10091,5.4,0.37,473209128,452048000,21002000,487431848,6
172780242,1103939,126900684,2247786,125643545,2471422,463843,2900426,292437204,11793,165409104,4727,3300,590188610,1308,0.95,0.05,79149772,76920000,1997000,93141665,6
279090205,16283871,211657488,9386124,212808484,9482601,15530987,38920467,1354260942,1935051,277323451,51887,34856,924842588,11772,3.88,0.34,365958035,339745000,25980000,380312068,6
288096303,16566733,214819422,9441509,214508629,9506289,15464671,39889476,1351551868,1958975,277369495,55046,43039,955563439,11774,3.81,0.33,364824961,337592000,27047000,378748708,6
1172580913,6741795,839886135,3158098,836012573,3175239,4772673,18558164,1452916631,181299,1160616566,37180,17093,3805143988,3646,5.23,0.25,391398780,387214000,4002000,405666594,6
160752239,2492315,115362040,1572324,114822261,1893906,481298,3141894,260839837,9240,172947855,15412,7199,551459815,2085,0.87,0.04,70288726,68018000,2000000,84303471,6
253924398,25979139,196369747,4360887,196024824,4359610,1397058,8113632,709539585,39485,260139968,36646,27757,836290802,6316,2.1,0.11,191518804,178238000,13017000,205839622,6
739949072,14488307,482236742,12758890,482672512,12731102,10620278,36166002,1702024616,1290306,742976079,65834,40188,2243770242,7403,5.35,0.34,460232339,446961000,13028000,474596435,6
304950886,23411382,229393054,7603565,233572644,7167006,19487595,39121458,1349095468,961827,304135527,80072,54859,1025999567,14491,3.84,0.33,364470024,340241000,24017000,378635382,6
170525858,1956278,112662080,1618969,106862513,1691892,509772,3825567,287227241,12618,174407976,5640,4124,572520648,1700,0.93,0.04,77523607,73265000,4014000,91417513,6
176873741,1507481,120322413,1564827,118732585,1535408,407018,3722732,274055310,11703,174998397,8238,6922,568433147,1306,0.9,0.04,74888872,69553000,5040000,89135166,6
273147026,16185623,206762659,9408251,212076907,9467645,15810358,40303822,1362889605,1917551,280387551,69695,47483,913242125,12515,3.88,0.34,368480676,343238000,25017000,382665206,6
344320981,27071255,259122028,7583729,264285700,7530131,17152597,45683738,1493741964,1160072,357445546,65473,24115,1162842475,10369,4.33,0.35,402462276,384194000,18009000,416644655,6
754288311,15987951,492852526,10006765,489992494,9986845,13723424,39920830,1759258552,1662897,740049854,75246,44394,2254808210,10091,5.49,0.37,473750438,455538000,17981000,487902439,6
173131687,1206253,119472719,1571618,118432561,1589981,379677,2676568,260298997,9212,171204295,5663,4720,569441950,1111,0.86,0.04,70786070,67579000,2981000,84896561,6
748993825,15896220,485682756,9897583,486577062,10007584,13842563,41247214,1767958325,1605846,752975407,84112,36444,2251718365,10092,5.46,0.38,477645484,456387000,21017000,491887768,6
282827395,16522648,208834589,8184565,209256909,8263734,16698190,39901802,1384582317,2104491,284001411,57713,401608,947323854,11773,3.86,0.35,376583379,355340000,21020000,390801320,6
642329552,1313654,399312970,2260998,399016711,2075461,416460,3695971,725424878,21798,651556273,23943,6885,1907481879,1106,2.59,0.1,196015719,191702000,3993000,209992174,6
171042361,1596077,133742521,2176801,132727614,2189612,521965,3752797,307360244,12731,172684168,19964,12802,627784012,2848,1.01,0.05,83173414,78841000,3991000,97270656,6
669499302,4532071,430788519,3927275,427493854,3858609,4486833,13079280,942935939,437944,662165059,58229,35776,2001924313,9332,3.23,0.17,253555653,235118000,18009000,267802806,6
667829787,5513453,430765569,4365611,432336099,4241470,4198617,15888836,903889056,128601,658290579,42982,22173,2010407028,3450,3.16,0.16,244147921,235881000,7995000,258372489,6
681427024,9372214,434955896,2734138,433437576,2640260,5171964,19744883,947532385,179567,701927332,60875,18123,2087154524,7992,3.31,0.18,255744954,244328000,11014000,269986357,6
566696558,21732899,408351790,8070669,410075129,7931245,7273218,22502401,1416610027,247029,578579927,95287,53183,2060748278,15749,4.34,0.26,381007300,351732000,28977000,395300111,6
308047559,16528461,227522248,11356240,224994234,11385527,14595020,37832751,1382361932,1591378,317201851,96144,68605,1039462014,20354,3.98,0.33,374653528,343405000,31036000,388836104,6
208384719,1978895,129015397,1460492,132313612,1491916,902597,4629538,329198115,18038,205734025,19610,17444,613526922,4108,1.11,0.05,89517735,80353000,8928000,103633814,6
676554631,2149168,406442293,2235404,407766326,2324728,810826,6109265,784746369,30238,672529028,43506,21073,1927465141,4102,2.8,0.11,212575303,202265000,10013000,226591513,6
240622318,8476374,178947363,1727705,177007981,1564337,3475531,15302476,453655708,158935,241060214,17581,10404,883574162,3260,1.5,0.1,122892205,116578000,6029000,136981056,6
638655242,1810934,405031421,2850804,402793232,3047549,597072,5356365,760902094,30194,629404856,40039,14283,1886096041,3200,2.7,0.11,205378813,198074000,7002000,219546336,6
677830176,7911386,555152797,1743229,550206201,1724613,4518561,20247324,952158997,195728,661033384,29240,11433,2428091490,3260,3.29,0.18,257301717,252012000,5000000,271299760,6
215442093,1846988,135015497,4419380,128224394,4251919,947245,4676501,376099660,21485,215873446,18174,8991,675011718,2870,1.25,0.06,101613003,94336000,7025000,115908395,6
640129421,2742643,406305932,2215660,405644070,2358446,885017,6445783,772502684,32090,641611116,63549,22475,1918366539,5785,2.73,0.11,208976542,198607000,9980000,222844204,6
654358728,1823790,399017524,2341797,402825750,2269275,624889,4618983,769231189,28248,661473198,34486,15068,1917412220,3445,2.71,0.11,207418633,200142000,7004000,221857045,6
243702124,9781408,176088425,3381618,182771263,3146889,3656159,16500732,494560236,153595,252433039,21394,26259,855523762,4752,1.66,0.1,133829896,125501000,8032000,147953346,6
750717038,16053791,486409926,9970106,485472074,10083921,13665803,40323653,1762830939,1612263,752339378,93689,44691,2259652675,10092,5.48,0.38,475579273,457245000,18009000,489814020,6
278413807,16705324,211836809,9206891,213970618,9311122,13989082,41693886,1309638919,1622677,278907868,65647,33212,934868264,10097,3.74,0.31,353568481,340317000,13012000,367818953,6
206123449,10791600,162814744,7134466,160314177,7311194,4197616,26427776,626334916,259918,206464394,46289,36163,769967789,11289,1.96,0.13,168928359,148519000,20070000,183170715,6
188080980,5727260,134413990,2560799,139423698,2384579,3270568,12904498,405110659,142638,187683344,20220,13480,627555403,3261,1.34,0.09,107842124,99529000,7962000,121966732,6
697953471,10422455,437601199,2568837,439344342,2424811,782256,5830118,972783924,38862,704736441,36162,19496,2056974741,3841,3.27,0.14,261983548,252555000,8984000,276378224,6
688300725,8518663,443245619,2442593,445567823,2237763,5027093,20261726,905786259,218042,672205266,58479,29127,2094506751,5599,3.2,0.17,245036517,236575000,8019000,259298359,6
641151393,1789393,405881694,3031154,404123078,2915781,1205450,6249336,787951463,36477,635559917,40814,18150,1903605606,4794,2.79,0.12,212457899,199955000,11997000,226610921,6
329028867,19528938,235014032,2219358,232598438,2249686,21849628,48868570,1561449220,2793702,327498421,97876,35035,1170587703,18074,4.36,0.42,420518189,383155000,37015000,434642114,6
203529337,6232845,148112760,2649750,146984009,2558116,2996065,11170574,409604651,120666,205701486,20384,7906,722406705,3259,1.34,0.09,110769754,104313000,6018000,124814296,6
167499325,992376,121347961,2421436,119980699,2598377,294957,2279124,287098117,12269,168895402,9870,7087,565690333,1500,0.95,0.04,77677738,73397000,3967000,91696928,6
283380075,16032415,207498326,9234667,210718290,9163148,16452338,41587093,1381343232,1841199,292801133,78689,49803,963978812,11663,3.92,0.34,373362668,344950000,27996000,387513140,6
170659346,1340424,126112805,2271036,124001968,2269282,596954,3377986,305903453,11105,167842885,4835,6714,590568120,1893,0.99,0.04,83271673,77975000,4935000,97410429,6
204848911,7129991,170959369,10662643,170323496,11070738,1141359,18102673,624428314,26143,202077823,34449,20228,828231983,4811,1.91,0.1,168557065,158193000,10012000,182635646,6
180268988,1585831,129401861,1754316,127871922,1684203,632151,4645479,287904900,13358,176494903,7248,4560,621324198,1696,0.95,0.05,77904821,75631000,1990000,92148601,6
362105942,16203213,263739102,12249225,261279147,12115687,20270107,41213167,1417272589,2300167,365135848,62096,35509,1184484127,9549,4.24,0.37,383512334,364074000,19003000,397717519,6
169710445,1565584,125052211,2412290,121475898,2502360,540757,3027686,297294768,12012,166627387,6818,3277,584744578,1698,0.98,0.05,80078922,77651000,2016000,94175656,6
681382392,10044007,467153452,2721834,469788728,2534385,971227,5849726,954898758,36942,693446346,43896,14389,2133329460,3841,3.28,0.14,258257853,248863000,8995000,272424202,6
342885668,22077070,245931791,6543549,243430742,6806592,2207830,9015077,972457223,51959,338742288,36220,19674,1098101186,7376,2.87,0.16,263018182,257587000,5011000,277104953,6
169635840,1001798,122517750,2406736,121761303,2403888,476027,2771537,304833849,10613,168951196,3009,3736,591533207,1502,1.01,0.05,82504318,81088000,1001000,96753600,6
175360567,2046508,127950181,1596997,126635478,1718740,742264,4124679,301219309,17137,177252912,25674,21365,601912147,4110,1.02,0.05,81328697,68916000,11985000,95398810,6
229791405,10447944,192557420,2291420,191526585,2298161,986599,4981683,506005185,36185,232237831,18982,13403,865727459,4431,1.61,0.08,136378085,126996000,8999000,150764008,6
306735214,6490630,202597903,109080,200268556,106847,114500,13381925,318169524,12785,301888532,3173,3128,1434885176,232,0.99,0.05,103906058,102325000,1003000,153170716,7
647005661,28576850,301455228,464586,301630738,456570,18014356,54564517,1332313448,297660,646749828,579226,123114,2103778640,98340,4.54,0.34,360013928,195611000,163674000,374267331,7
644830791,28593136,302089239,450742,303148204,450920,18498340,52549786,1327670104,295574,643450498,593612,124574,2189420245,98332,4.53,0.34,358459831,180791000,176796000,372589913,7
374464645,6332817,214101781,149308,215436685,209559,141801,14411539,539468329,16148,372305468,2486,3809,1455873334,241,1.87,0.07,145346675,145050000,0,159300936,7
439166791,16159328,298444263,398032,298407450,390231,7924037,27495661,1011304781,126218,441109438,230889,108372,1980420718,97893,3.36,0.2,272459958,120044000,152056000,286448001,7
632354368,28084425,302097832,431324,304605894,427530,18640827,53590030,1190574065,287472,639266090,588146,124848,2048817928,98332,3.98,0.32,320864550,150672000,169631000,335144625,7
756156324,26015999,442852006,575547,440671996,564893,24524678,46692210,1498142218,764212,755453567,552230,106154,3096907653,97890,5.02,0.4,403676290,205180000,198174000,418082848,7
205877114,6435809,100795774,84756,100231487,84479,115983,10938191,218102743,7947,206621399,856,1630,936708041,325,0.76,0.03,58904801,56707000,1989000,72936768,7
616984216,27475738,564443212,511816,555000221,520168,24150064,47226724,1367553209,640857,602782087,591074,106839,2984714368,97885,4.56,0.38,369267738,184962000,183962000,383733149,7
515680485,20879363,352072592,509075,346814449,515110,17949458,39411103,1204165259,609358,509869273,299104,105636,2304865051,97890,4.03,0.32,325472505,149067000,176079000,339590720,7
511553131,27249103,353549474,506053,352584449,512763,24209277,46318464,1299239703,677898,506958993,527193,108164,2473270844,97892,4.29,0.37,352231658,169959000,181956000,366512350,7
304436461,50175676,200989607,109219,201224501,113467,179020,87494917,384744002,11698,306054868,1845,3191,1123347468,529,1.45,0.05,103835206,103592000,0,117973649,7
510138614,25581282,201038590,119661,199692995,122199,225496,55169672,395074328,13315,512260920,1380,2917,1645074975,725,1.38,0.06,110183027,108904000,1008000,124199988,7
629351395,27884372,299033854,448879,301750801,433852,18863203,53702969,1190778661,285114,648782926,586192,135967,2067981388,98337,3.92,0.32,321924935,153139000,168153000,336071380,7
205783872,6432588,100697475,80163,99962583,79757,108350,11463438,217247929,7799,205291715,731,1312,933273776,328,0.73,0.03,58855881,57613000,993000,72928220,7
639929091,28142081,303407693,423107,303840496,422085,18759257,53158541,1185609792,300505,628034533,594686,125621,2061192697,98333,3.95,0.32,319638733,151014000,168016000,334013517,7
811397062,20876499,653314876,568183,651918784,571667,18422795,41499057,1696570223,618976,806284857,549002,109345,3566525485,97889,5.6,0.4,457609955,264533000,192660000,471863026,7
538648960,16054171,498811848,430383,498498544,435609,8159256,29202247,1417970152,134754,540994130,448751,108839,2989305581,97886,4.61,0.26,382495410,235109000,147068000,396605398,7
381013422,6416911,290645231,1265988,287428970,1332520,127452,13844513,374890034,11252,370652831,1530,2252,1299452870,234,1.26,0.05,101158899,100948000,0,115093473,7
634530709,28295064,301104782,441778,302005436,440671,18593714,54913994,1180898294,295350,638246098,591206,123587,2162056869,98338,3.92,0.32,319500472,153022000,166024000,333706104,7
513840367,20679246,349095088,492514,342761289,493630,17811966,40119169,1147743946,638403,518628002,482084,104003,2095897031,97885,3.81,0.31,309357376,113031000,196054000,323642120,7
403942807,12857512,401972664,195537,401664288,188426,159370,31284558,836227504,24286,404878946,3088,5413,1924836352,331,2.69,0.12,227140793,226805000,0,241181551,7
841026905,28726151,504624790,438266,504443473,442833,18940755,54365250,1335541704,300798,838166322,631098,124273,2976935337,98332,4.39,0.35,360746627,190159000,170142000,374960144,7
599700588,17707767,444749437,717385,444322135,712786,8137835,31218904,1705805510,538995,601136263,1606887,206370,3030381082,195550,5.35,0.3,459164667,211939000,246929000,473424125,7
529903974,28392044,361503178,552967,361694965,557710,26420457,49644194,1352598708,700059,540416496,485122,119433,2360426855,107665,4.47,0.38,366495072,168062000,198073000,380782900,7
193527258,5954089,388237891,1338330,389387562,1314180,124408,11840351,482265372,15659,192192895,3732,3524,1260224998,332,1.57,0.07,130611272,129275000,1002000,144702463,7
630903812,27732913,301099303,424764,304007278,426142,18741774,54406921,1192359027,292550,638440672,589670,124880,2040916196,98333,3.94,0.32,321390209,154976000,165974000,335621516,7
306050747,24293565,200287295,112000,199590380,113759,138690,38273458,370840183,12929,306734130,1478,2705,1434280524,330,1.33,0.05,100429828,98171000,2003000,114299382,7
286997705,12637210,200251141,103438,199790465,110501,133594,24534895,277966839,8224,280035120,1438,2320,972849218,335,1.01,0.04,75115599,73915000,998000,89171421,7
435658845,21041622,299386299,398506,302813262,393536,19398814,41959580,1134197552,232028,435382143,442770,107582,2043991795,98776,3.67,0.31,305306457,176179000,129131000,319485233,7
615299123,27261883,456313665,515889,452452131,518745,25003367,46807551,1331657732,659723,603762532,486622,107126,2565401807,97884,4.45,0.37,359000510,185997000,172997000,373216503,7
847357791,28338448,398251928,458340,398254017,459568,18347596,54036496,1309189655,293517,864874524,592423,124997,2818758434,98333,4.23,0.35,355950642,219863000,135915000,370075921,7
307788273,6495073,201250139,113151,200407287,113877,184301,12673985,316930432,10380,306557812,1278,2676,1337023872,228,1.09,0.04,86169659,85848000,0,100415821,7
643789262,28768124,499900383,453913,502256857,452332,18523444,55427805,1337606634,299634,647591756,621501,139252,2891997763,98331,4.3,0.35,363188004,241941000,120970000,377386885,7
736317345,28965371,300391398,451598,301233919,448561,18342288,54812554,1314209283,345161,751861180,657895,123214,2573754345,98333,4.27,0.35,353438904,239158000,114075000,367686724,7
811030800,20957854,653414928,598669,652243733,589630,18754896,43814668,1798989846,702540,807506212,298262,205222,3568710422,97886,5.88,0.43,486697486,338564000,148246000,500827451,7
509836298,27086798,353051240,563048,351477049,570551,25303259,49081945,1447553627,671786,506929339,347510,106102,2359598249,97897,4.84,0.4,389436481,225688000,163774000,403635696,7
638690349,28621331,301257562,456313,301487303,452576,18982256,54739624,1240727276,309897,642477598,596772,126953,2377573765,98334,4.09,0.33,333193520,210960000,121976000,347463466,7
540882568,21043161,502357382,425096,501405668,429632,18888437,42263190,1258842598,237003,533742105,410784,119257,2785398250,97887,4.1,0.34,339552674,229284000,110136000,353696070,7
644763115,27802463,301143120,467076,300229780,466648,19100355,55426570,1334497071,297865,647772810,405531,173915,2202312476,98339,4.35,0.35,364970050,247777000,116895000,379123465,7
208562543,6471062,100860640,79304,99975333,82294,112344,12393751,216178793,8488,206062198,1212,1335,937735933,324,0.76,0.03,59232447,57920000,998000,73434506,7
634520964,27773421,298783571,430226,299472481,428266,18702144,54662109,1207116768,287507,654084062,595710,124014,2275807261,98334,4.0,0.33,325651506,207277000,118158000,339775548,7
644469214,28780845,301254104,455937,301843354,456352,19000425,53129869,1330083089,306948,642731512,606256,122888,2287087192,98341,4.44,0.35,359284701,231905000,126948000,373509269,7
507999307,31606678,202255834,134244,202151610,140005,141553,50186665,535620784,16098,507370272,2429,4243,1933348113,424,1.86,0.08,144700686,144514000,0,158785923,7
708980582,21241900,552573135,559288,551634423,563589,18780095,42974112,1599516581,670812,706991414,595115,166197,3062755935,97891,5.33,0.39,431614026,272343000,159200000,445545034,7
439556416,15867105,299054193,455075,298910584,450623,8607182,27710384,1096359103,132138,439473343,369479,107700,2282469484,97889,3.52,0.22,297468250,204219000,93100000,311758813,7
507845287,25327749,201814581,145731,201147983,150438,161927,47149524,427229607,13205,509288601,1765,3161,1638668556,327,1.55,0.06,114782330,112596000,1992000,128905417,7
510691641,26960534,348927062,516519,347802283,520150,24865348,48325891,1291923858,613212,510511303,297334,104675,2478287113,97886,4.29,0.37,348707628,186312000,162272000,362978996,7
505102150,12606790,200097392,105210,200188689,100358,120240,28776672,351439633,8953,511984289,1363,2650,1536042446,328,1.29,0.05,94613558,94402000,0,108644221,7
190925461,16027312,105808746,333154,105023008,329714,8565830,26842343,778427287,123952,188111753,490305,102893,827999171,97897,2.47,0.18,210290836,82981000,126971000,224396949,7
630798495,27698304,298012851,437153,300606389,435626,18955215,54612582,1196386406,292969,650632765,594491,127688,2073100522,98342,3.95,0.33,323689920,164138000,159134000,337831128,7
509382180,21100043,351525755,604005,350860771,599678,18828856,44309051,1903200990,620926,510760660,489683,109327,2666553668,97887,6.14,0.45,512815823,335469000,177247000,527030770,7
640908243,41549492,302808837,486421,302756868,478479,25967906,73658420,1346100588,405898,642245952,601447,122219,1981599132,98437,4.53,0.39,361878912,198235000,163193000,376343004,7
642258635,29006847,299004872,453561,299610534,459871,18937913,54480849,1217813557,293156,662449374,651834,122720,2304776964,98331,3.98,0.33,328298198,172884000,154896000,342539947,7
441207850,21282567,301590527,436429,301768922,439102,19160219,41847387,1307878103,238029,436711941,597517,110562,2177452252,98135,4.29,0.35,354932771,186887000,167898000,369183588,7
205126945,6409612,100559253,80856,99813361,82555,123432,11525103,217492693,7889,205206544,719,1295,931720836,232,0.76,0.03,58626149,55427000,2969000,72590211,7
214488909,13289574,104917653,89548,100940922,91436,429411,23029417,251875890,13720,205861272,9067,2956,957040716,2093,0.87,0.04,67993937,62761000,4981000,81952810,7
303254994,6503886,200884687,137737,200994199,138455,134950,12936096,524005630,15265,304491528,1823,3212,1423145852,330,1.8,0.07,141646157,140393000,1002000,155839186,7
647786635,28409179,302261369,471540,300606900,473008,18937375,55698727,1438886015,305567,644765965,589429,140255,2106343249,98337,4.66,0.37,392149681,226813000,164864000,406275520,7
845570851,28377964,404703926,495538,404999020,493486,19233058,54813107,1541898649,316311,840683727,542268,124582,2590738411,98331,5.07,0.39,415262461,247935000,166956000,429477508,7
509447322,21126061,350822283,521828,349066027,521005,18677223,42232195,1387453409,613433,509116242,503788,107146,2264154830,97890,4.64,0.35,373925717,181863000,191856000,388172677,7
308185608,12792131,200612329,87848,200548608,91882,135232,24654105,276417627,9244,306194226,1462,2222,1127868640,335,1.0,0.04,75145359,74871000,0,89280157,7
642721326,28237402,301354100,454566,301319243,460085,18462638,55310290,1336912053,310898,642766295,587557,123759,2285346362,98331,4.47,0.35,361715963,192143000,169126000,375810302,7
743526397,29010957,403253934,475595,403367836,472459,18693129,55332487,1341178226,303966,742282822,622918,130501,2891894404,98334,4.39,0.35,361026964,191785000,168811000,375302955,7
639928452,28318125,303041064,435135,303409874,435020,18706925,53828590,1185903387,302987,630293675,508408,132444,2060899574,98332,3.9,0.32,319591830,150085000,169096000,333738864,7
405511432,6427656,101194485,98316,100956715,98236,123090,11806465,321184360,10264,409685165,958,1970,1337359079,326,1.08,0.05,86694303,85347000,1004000,100739679,7
203333017,12527280,14608156,81735,14499085,80038,114175,24422030,232827261,8009,205287429,1187,2040,680282260,336,0.84,0.03,63204714,61941000,999000,77174635,7
304450227,25458856,200611932,113708,200916694,109260,137560,46823431,370697721,13763,305712734,1490,2981,1326460404,331,1.26,0.05,104078522,101827000,1996000,118148637,7
440143602,16104458,298910128,377823,298835343,380108,8800039,27864228,1094678090,132838,440142181,441661,105462,2282676699,97886,3.54,0.22,295626592,155245000,140221000,309758421,7
508266865,12743813,200715062,118206,200628373,112090,140794,27881516,398872701,11487,509271264,1749,2981,1735723322,424,1.41,0.06,108184108,105998000,1999000,122187302,7
303668704,50089608,201236247,109027,201317444,108153,160414,87474292,388648908,12525,305298691,1632,3209,1224655071,530,1.47,0.05,104917798,101688000,2990000,119165963,7
440496786,16183051,298453829,404685,297012707,408045,8400725,27870683,1036933361,130087,438950257,464619,104159,2081759388,97886,3.35,0.21,279814729,134283000,145306000,294200204,7
516015145,28002305,354143956,517599,350400886,521495,25344237,47221462,1315444576,693882,508885019,486883,109069,2611758359,97884,4.42,0.38,355555737,156660000,198569000,369759075,7
403288604,12585393,100491992,97957,100378351,95789,128554,24797603,301335481,8436,410296431,1465,2587,1224165101,334,1.09,0.04,81657303,79433000,2010000,95748042,7
307585500,50772975,201545867,128689,201336625,133753,274362,87223850,381647639,12409,305320719,1554,2769,1229302139,532,1.43,0.05,102972088,100548000,1991000,117011449,7
437492614,16301957,298255045,430133,299032746,431504,8350685,28923137,1419516836,137778,439899637,415423,109740,2578238451,97895,4.69,0.26,383744398,239703000,143821000,397985480,7
439836044,16477883,297942750,367442,297834597,361570,8866283,28080433,1019569958,128229,439261976,397024,103442,1974761524,97901,3.31,0.21,275582878,137128000,138129000,289686878,7
336987251,16247753,297798458,413057,298262509,418411,8744326,28179767,1113635823,131400,339902918,401713,106990,2373130163,97906,3.56,0.23,300641125,168585000,131676000,314903796,7
643654326,28605044,302109303,441888,302096236,441847,19216122,53155048,1234712800,310435,637427080,680893,131633,2367526193,98332,4.05,0.33,332853167,168208000,164203000,347259061,7
646861384,21355105,303905009,423500,303584683,426221,19054544,41450325,1181760891,307525,624521446,616060,134394,2075353228,98240,3.87,0.32,319006399,160776000,157781000,333183422,7
317990114,6113820,181696195,3429770,180248063,3427378,3248141,16416557,642378248,100580,315978341,40015,13512,1171420335,4427,1.99,0.14,206962549,190420000,16035000,267247862,8
302121764,10171193,174403645,3326160,178400870,3338967,6207952,23257643,1039912634,3008713,311728122,450917,216226,1038399389,5645,3.25,0.19,281378408,208040000,73014000,295218769,8
236226980,8131066,139717940,2559385,142397355,2475682,4697173,17805263,484947592,73660,245671478,26543,11997,848390351,6777,1.58,0.11,131445444,120152000,11014000,145721835,8
268515714,10506575,155413030,2497740,157075093,2492962,11019056,27479366,667665193,809040,275325154,38362,15001,850579072,8142,2.06,0.17,183160561,166829000,15983000,197374590,8
231624951,7600290,182879821,560938,180047081,550274,3955706,17667118,498199931,54788,226560270,25487,7972,1176280184,3457,1.66,0.11,134060979,126788000,6988000,148374040,8
776253870,21231591,433874986,4104910,439026863,4100164,7498850,33093787,1558431233,408318,788341433,97441,337065,2332750150,6772,5.1,0.29,419857371,353266000,66237000,434073155,8
259128698,15636613,155004266,2787105,159306376,2835803,7534811,26529036,556464071,275484,268872006,21248,12478,942768315,4627,1.86,0.15,150277357,142929000,7045000,164441853,8
717875052,22904994,547832396,4241579,547411938,4237438,17893445,44088814,2130427310,1618640,720649588,652880,112316,3096590397,90614,6.58,0.45,575541625,449195000,126054000,589709721,8
245341047,8119825,139792768,2430328,142672582,2394707,4649918,18598842,514946939,59768,258215425,26017,28282,865546909,6583,1.68,0.11,138903009,129636000,8974000,153213085,8
326660226,7853705,165408211,3066192,164978472,3064575,4415967,17924126,581196503,79856,322596027,42880,30260,1115666269,6388,1.88,0.12,156790542,143343000,13031000,171211114,8
214418498,7953993,132269968,2335366,136503211,2353143,3961464,16339584,468676336,65111,225012628,24693,11876,795060586,4623,1.52,0.1,126859094,116654000,9970000,140987112,8
241787481,5814138,130616933,474851,130477080,468911,2919151,13962876,456296564,34626,245036927,27555,8084,977166609,3268,1.46,0.09,123272505,112947000,9995000,137364338,8
266277215,7783413,140808099,2779998,144759942,2775642,4249180,18595422,586649696,230380,277355156,27668,22120,927891321,4626,1.79,0.12,159272381,149983000,8998000,173544836,8
222242930,7669451,130707543,2374521,134766631,2392369,3752856,16379571,471231525,75154,231832350,19993,28205,797525122,4621,1.53,0.1,128338947,117194000,10924000,142429576,8
243787703,9803251,169914796,2640326,172302111,2653771,6998790,23564927,554403622,105234,255281792,26033,12271,1030106096,5996,1.79,0.13,149828184,137492000,12043000,164106533,8
785913520,22114799,455962619,4390492,456090972,4395119,6898601,33310254,1593411471,428176,785886426,82644,230718,2473706075,6623,5.17,0.29,431755961,359529000,71905000,445920681,8
205932320,7802081,123407153,454578,127662452,473270,4014885,17174952,403510753,40105,220317512,19573,22604,765379984,4625,1.32,0.09,109621915,100220000,9019000,123663331,8
723841975,6484250,426763147,3832339,431775214,3845627,3012040,17233345,1446778228,271514,738283235,283536,216328,2245140572,4420,4.64,0.23,391328172,321032000,70007000,405602643,8
342747293,9785594,199869013,3318435,195025932,3308157,5564307,20317545,1093914860,282225,337156273,148782,1210380,1205312132,16910,3.3,0.2,295609316,210197000,85080000,309927551,8
268202959,8455215,158519315,3481985,158944613,3456452,4594519,17382264,546069506,90389,270857180,70470,19302,1019610244,6792,1.76,0.12,147715234,136332000,11026000,161834866,8
242707591,8078676,140485763,2448578,135716515,2464432,4373669,17328907,506447879,85889,245139619,28813,19038,854746767,7359,1.64,0.11,136761388,125498000,10956000,150956630,8
358130530,7427928,150053849,536142,150177892,545429,3632876,15949607,577858635,51888,364456396,22515,9977,1022993240,4826,1.89,0.11,156473885,137302000,18904000,170778873,8
373323785,8296895,209450143,3217496,208109783,3201552,4046983,19143166,1073349668,282088,365427301,634604,220669,1255363367,4429,3.3,0.19,289257558,224974000,63992000,303729627,8
218616335,8099885,132182590,587713,130887614,574193,4350952,18450208,413131617,96066,209872040,28146,8227,792572126,4233,1.32,0.1,111092589,102793000,7983000,125456343,8
345997655,10779680,210761730,3332510,211957211,3283792,4763913,18574019,647591914,60027,347696864,31215,31674,1317595727,6775,2.13,0.13,175387330,166976000,7998000,189564340,8
744704541,16433897,419378985,1502471,419014976,1501582,5583464,27735309,1393975587,416049,752382152,48638,218171,2248759714,3287,4.55,0.25,377218817,330146000,47020000,391451721,8
726094205,6467190,427395315,3882111,431593171,3890215,3224435,16935559,1415683403,266379,736971485,101351,224009,2248427938,4422,4.55,0.23,384123149,318011000,66210000,398180650,8
769023239,9008552,448620580,4349720,448742754,4355844,4555722,20976933,1545590301,274084,768535438,247486,219624,2483516018,6380,5.03,0.26,417862528,357907000,59984000,431963558,8
277739319,10749018,157900825,2602275,160909117,2570646,8434688,25562522,590441113,3233686,285964716,44310,12604,988242735,6671,1.96,0.15,159256062,153086000,6003000,173407094,8
710478104,7470585,424774844,1487905,429419758,1503076,3878559,19867200,1426560357,277044,725366307,100742,217555,2232885281,4618,4.6,0.23,385130310,315100000,70022000,399402932,8
244478458,8407386,142791817,2487219,145783721,2441885,4401588,18185271,493394082,41118,250814331,43199,13082,824930055,7953,1.59,0.11,132910150,121745000,10977000,147009492,8
279243165,8159465,154226901,2766826,156185693,2714473,4741968,17298877,525088273,64118,289092289,30358,22313,974947415,6778,1.7,0.11,142111866,132793000,9054000,156272534,8
288386000,6280938,167381216,2908095,167344191,2924512,3679037,15822007,650514935,90929,289931940,39817,29731,1061884164,6775,2.06,0.13,175965722,165726000,10044000,190272742,8
287124578,28386211,177052214,2867370,178489005,2891655,19946048,48080612,1030923933,1182599,296429960,60676,23131,973291365,7749,2.95,0.3,277803092,268572000,9019000,292043153,8
268020232,8075946,146103495,553698,145971061,554385,4368203,16824721,465724274,52770,272749637,32037,12024,983095118,7949,1.49,0.11,125767655,116485000,9037000,139747624,8
268464485,18461659,172383731,2876796,178422251,2888230,6763422,27836895,614027597,247353,274077706,39859,15907,1051453565,6570,2.0,0.16,165595903,157378000,8019000,179810585,8
300005591,8785045,191920469,9067699,195774848,8997232,6846220,22230533,757269177,53014,307210978,47461,14985,1047619122,6668,2.53,0.16,204557186,198412000,5982000,218819877,8
233655309,7945459,153159379,3239458,152399614,3225768,4472812,17576049,510781878,53532,225889917,36478,11129,861333970,5017,1.61,0.11,137868471,131667000,5984000,152058890,8
348131120,10649077,224898250,2987679,219823560,2969461,8810517,20918299,939931791,147252,339901204,281919,177288,1335828636,63027,2.94,0.2,253589051,185272000,68100000,267729055,8
805609700,11665251,451244018,3742410,455580488,3739924,11845339,33372484,1722456160,1058078,817399873,70773,224764,2370240620,9897,5.53,0.32,464468450,409341000,55045000,478685065,8
249595547,8348082,184277032,3206903,186307647,3212425,4103692,17854097,568589411,53427,257133826,25884,9172,1109806316,4425,1.83,0.12,153321981,149129000,4003000,167246151,8
415619351,9983677,191946678,477108,188143224,490907,5007727,19655492,650282724,58770,423120686,24696,18128,1491199507,5801,2.18,0.13,175178026,166977000,7998000,189468430,8
295529340,6013518,147523674,2724808,151461381,2764585,3136356,15090638,554992175,63416,303259790,31721,11860,925002131,4623,1.77,0.11,150360326,144113000,6004000,164322062,8
756966769,29369873,433467031,4062345,433607721,4105321,13059539,46914915,1598496689,791158,758190708,82426,215368,2265809130,6785,5.23,0.34,431752628,359710000,71942000,445853344,8
226304489,5990063,135490346,2750011,139603611,2760037,3427069,13681541,468665649,52226,236109676,29246,11120,826596668,4621,1.5,0.1,127027500,119705000,7041000,141345714,8
327123678,7925204,166692601,486220,166712095,486144,3497882,16525582,511403838,63740,330868725,61046,11961,1159132919,6385,1.67,0.1,137578579,135291000,2004000,151841219,8
229034212,16445440,123504664,451909,125290809,463631,6429559,26463790,454369687,253288,241189082,23962,17354,767117684,4883,1.49,0.13,123537852,113261000,10023000,137748317,8
222950288,15317295,136752014,2741606,141229510,2757334,7197102,26620685,511073066,231086,233927431,21890,12970,791869110,4627,1.66,0.14,137986746,129689000,7980000,152126599,8
493555709,8468060,212218050,3306099,215598223,3299748,4284674,19981921,786354908,90397,498482763,62291,14154,1531597495,6662,2.56,0.15,211947841,194738000,16977000,226045335,8
341621061,8252114,189230522,3291270,189599376,3283415,4506016,17603069,622030286,51980,340557116,30883,39430,1247293692,6387,2.03,0.13,167612864,157320000,10020000,181844933,8
247004857,8160234,140086302,4097671,143313395,4062455,4219114,17983163,526827487,51930,253981012,26588,9630,865470213,4626,1.68,0.11,143539630,137281000,6012000,157765276,8
239240610,5812069,138339084,2715583,142379123,2729414,3110556,13259727,460147216,70986,249541227,27651,9802,880348655,4624,1.48,0.09,124491135,113332000,10935000,138808535,8
237858995,6458655,137193946,2752920,140684275,2733457,3533632,14128714,484903577,275827,245130541,28400,10416,843798278,4622,1.53,0.11,130987836,120636000,9969000,145002337,8
313073075,8453291,168612907,2955262,169384377,2967557,4880132,18690898,611424612,151988,310322690,44609,14521,1180045896,5646,2.0,0.13,165668184,155313000,10020000,179864640,8
951957168,17263226,516191441,5874752,517476456,5885208,5844724,34160125,1849146052,1152875,958423977,188317,226272,3088496184,5011,5.96,0.32,500146448,432903000,66985000,514570033,8
283363302,8181070,156517023,3351720,156964877,3388817,3819132,16736121,555816844,74724,286075753,77339,13559,1007928643,6658,1.8,0.11,150339842,137119000,13011000,164557984,8
274605205,18432657,152485782,916452,156783556,937547,6566282,29664318,928533802,381554,286487359,38365,219999,910297103,4629,2.83,0.19,250772249,181401000,69152000,264895849,8
259847607,8056665,152264044,2825084,156555776,2888704,4099831,17186397,506554923,64386,269903545,34062,12048,948344118,4426,1.64,0.11,136621349,125316000,11027000,150856846,8
748039369,16729683,416506764,1481721,416634293,1490083,6222138,29782344,1407782987,444356,761519973,39764,214872,2230765737,3291,4.56,0.26,378730880,319313000,59057000,393022574,8
226235569,17407636,132079427,2442424,136209797,2455511,6834180,27828832,460475144,204084,236604957,28464,11707,761635840,4749,1.53,0.13,124357476,115059000,9004000,138666061,8
696000367,8649430,418402793,3777379,421420189,3780539,4010283,19804582,1421978492,281429,709389441,45650,216167,2189208015,4616,4.58,0.23,383575026,313317000,70071000,397804840,8
785733549,18306772,471474820,6180566,475280566,6130607,6316138,36356970,1650389361,1197604,799274503,122645,220508,2468775630,5035,5.39,0.29,447069201,391710000,55099000,461319533,8
244350972,7953929,138288742,479891,138721838,464978,4173510,17915446,397756614,39018,232049750,31633,9049,786165309,4236,1.32,0.09,107239880,98895000,8073000,121319450,8
474319905,33556516,228028460,2757064,227860401,2767299,19176057,64001367,917209796,2433338,478234349,30914,34409,1471933284,8735,3.05,0.28,247039218,227814000,18984000,261346598,8
343663766,16477732,204451617,1043986,210898390,1053927,11829683,36254452,1286334411,996311,367568101,662789,214187,1204170165,9352,3.82,0.28,347666035,261316000,86104000,361818663,8
332098167,8243623,171009814,3083499,172808011,3040341,4771472,18058880,590612882,87491,326300642,44153,14579,1137394763,6580,1.95,0.13,160170287,146989000,12911000,174638133,8
237933616,8006519,140067007,2636838,142868876,2563163,4616211,17273709,481970744,51587,249551513,25999,28372,862952463,6779,1.56,0.11,130818922,116633000,13956000,144975050,8
399325889,5900557,179216637,3404278,179616716,3434794,3426896,16154625,704581706,68812,399180919,32171,15348,1262421247,4234,2.3,0.13,191059160,179774000,10986000,205189116,8
437688409,11292481,187691302,2930155,186069009,2902676,8605201,27462363,834243070,132032,429371863,64074,38967,1403345583,11073,2.66,0.19,225169673,205916000,18992000,239363851,8
743974998,8119649,437185854,3954845,439802298,3986306,6862051,23922280,1485610166,430494,758496573,447705,215328,2337959787,4037,4.83,0.25,401495856,335255000,66050000,415735690,8
751755811,7275641,448230940,4002482,451784081,3971397,4256568,18799630,1524058038,294099,756658243,637932,219359,2355125368,6770,4.96,0.25,411987717,336827000,74961000,426127365,8
474308902,15185962,251534392,8198556,253976994,8164399,12591309,40524939,1112291114,851711,479433638,47418,17921,1669161927,4042,3.51,0.25,300938115,291718000,8991000,315079004,8
787298866,7133523,444588681,4467318,444549572,4457144,4199250,20096502,1625820445,297546,792619901,44721,845153,2473584134,4616,5.27,0.26,438952178,370565000,67920000,453254925,8
798565210,17975465,455059144,5932837,454262816,5934627,7297151,33837646,1615700724,386057,799884704,38838,627222,2464454301,4619,5.34,0.3,436604725,370510000,65912000,450985435,8
722642224,8179284,434415028,3981780,438203770,3960795,4389521,20746436,1456166925,270082,728157184,92676,223920,2250485807,6770,4.75,0.24,392800554,317658000,74919000,407018860,8
841708098,12772240,491905230,4310803,491993407,4309161,13039443,36274943,1762290927,780691,849287199,141608,531534,2506902434,7942,5.69,0.33,475171522,401961000,72993000,489598992,8
392347730,7381442,175665844,669233,178684255,687235,3420877,16929292,662378586,207780,401543737,22334,11553,1324834760,3653,2.13,0.13,178847382,171605000,6983000,193105071,8
720303912,6418146,427093258,3934604,427874831,3945361,3453129,17028477,1417168221,270902,730827823,47093,214834,2214303828,4614,4.55,0.23,383292908,313049000,70011000,397577766,8
249029474,6188093,144654478,500933,144714220,506809,3332089,14025746,455752568,44282,241413564,30804,10817,980497655,4428,1.46,0.1,122910920,114548000,7968000,137190370,8
242059827,7851849,140591133,2598061,143034573,2561390,4348628,17019241,492979857,58422,250085156,28780,11502,859071370,6584,1.59,0.11,133242229,121984000,10998000,147242674,8
140818926,185092,78343180,74359,78171748,76636,165105,1335025,145811888,7768,128915764,3529,2934,367957161,417,0.5,0.03,47950539,43404000,4037000,97556547,9
135731197,235275,75673820,73445,75642449,74049,145975,1096337,152601687,4468,142278162,1848,2037,361282095,374,0.52,0.02,41041919,39715000,992000,55318245,9
64068244,229233,35139868,70331,35269648,70721,155333,880505,62360428,3838,66664324,3754,2678,183089841,611,0.2,0.01,17468780,16233000,1014000,31732017,9
136737754,235719,75522534,76559,75479072,76837,146711,1147480,152193211,4536,142483441,2021,2041,367100884,375,0.51,0.02,41169771,39862000,996000,55247896,9
140084411,197628,76953592,75688,76845145,75777,142674,1137714,150214925,4924,143152910,2646,2077,372326555,377,0.51,0.02,41190667,37027000,3897000,55348572,9
137006238,252480,76791091,81674,76783918,81779,176801,1206566,157079040,4540,146424573,1858,3961,369358014,1351,0.53,0.02,42334791,41058000,1001000,56437339,9
70584940,424839,33746405,58512,26741599,61271,581321,1712256,62293832,11266,46786840,16689,5093,172899473,2144,0.21,0.01,17122786,12548000,4182000,31220476,9
140358409,197523,75458747,75019,75519296,75323,145531,1156812,151155917,5105,142701271,2104,2080,365559887,373,0.52,0.02,41011274,38681000,2035000,55169018,9
40161303,216690,22574247,62578,22444137,61753,135341,604080,44591826,1936,48576139,1621,2855,119451855,625,0.15,0.01,11760826,9588000,1917000,25671346,9
139222711,261868,76658625,75683,76417430,76606,183533,1243201,153244159,5008,145706056,2422,2125,372178437,621,0.51,0.02,41785624,41529000,0,55883219,9
46890810,104532,22273104,60107,22163963,60793,131720,615957,41513571,2514,53660984,1011,1095,138554862,181,0.14,0.01,11533973,10261000,1026000,25656741,9
42686877,587754,26292889,70709,32522085,73573,1028648,2294135,121413102,22323,57700306,41194,27325,141655666,6482,0.39,0.02,32802183,21662000,10831000,47097201,9
67211054,236934,34448971,68864,34914456,72625,185175,927403,65191342,4728,68500221,4251,3086,194077941,863,0.23,0.01,17574418,16197000,1012000,31460912,9
137984399,203342,73474981,70794,73502761,70986,160366,976201,146450855,4790,143035310,1130,1670,360778661,384,0.47,0.02,40304260,39053000,1001000,54432548,9
739572,103728,2774533,39018,5535538,35222,107870,489983,13338951,2678,13084962,6493,?,?,411,0.04,0.0,3795332,2367000,1183000,17815521,9
142043670,212366,75003655,72834,74994604,74120,152452,1116061,150605356,4780,145344496,1541,1276,370194524,378,0.51,0.02,40829474,38618000,1980000,54895463,9
146350535,167870,74783233,74628,74529635,74615,161289,1241078,151736765,6573,148944229,1727,2646,376702907,383,0.52,0.02,41305077,41094000,0,55480023,9
37940612,179233,20376829,58288,20578608,57942,154618,799599,52603671,2345,60101592,864,7408,120823518,2339,0.17,0.01,13772540,7725000,5794000,27678313,9
59985785,307287,28734923,60044,24770408,63373,621917,1469308,66318994,12742,43861079,14236,7179,165909405,3121,0.21,0.01,18034178,11865000,5932000,32071604,9
1710533,163044,4239674,35580,5767963,35079,114093,490133,13478298,2432,6101867,1255,?,?,453,0.05,0.0,3667978,858000,2576000,17818226,9
139814582,196647,75477766,74311,75525495,76234,158349,1178122,151585304,5565,143930546,2219,2051,368075449,371,0.52,0.02,41069037,38807000,1990000,55371018,9
1339224,193155,4676218,46511,7081612,36014,116303,512320,16686070,2431,10569963,1217,1433,23860842,452,0.04,0.0,4597394,3526000,881000,18519777,9
42525978,217401,20691751,61708,20765208,61486,166192,659193,44009281,1838,52290545,1394,1072,121949765,433,0.16,0.01,11617228,8552000,2850000,25603244,9
1916396,145255,6723043,35186,7248142,36242,78481,379959,15290249,4007,5118172,1530,?,?,383,0.04,0.0,3909684,2720000,906000,18139072,9
149712502,178866,78034313,72400,76317535,75086,135316,1156161,166472968,21274,143229834,2605,2402,386381423,2350,0.56,0.02,45682962,39352000,6054000,59771334,9
145266813,186688,75432195,72844,75475415,72395,153597,1155672,151245850,5202,145785003,1525,1294,369446847,382,0.5,0.02,41874206,40656000,991000,56057821,9
139635622,421121,76467729,77797,76377747,78819,331264,1506487,163145218,6160,150440113,2186,2199,379658175,1360,0.54,0.02,44060788,39779000,3977000,58289187,9
2882244,174588,4641663,34177,5523129,33996,108078,470191,13199417,2226,8138175,1666,?,?,407,0.04,0.0,3553273,2210000,1105000,17585265,9
145137314,300194,77041053,75567,77034470,74925,179837,1241380,154480626,5039,148397372,3042,2890,378418859,625,0.53,0.02,41882355,39648000,1982000,55992503,9
137850812,273913,75868033,76961,75876022,77057,172417,1204660,153811956,4975,142663657,3030,4013,368271930,623,0.52,0.02,41290729,38948000,1997000,55262275,9
73279276,267620,37746888,75848,37263292,73464,350313,1241381,71595377,7878,68636070,3776,3573,203018652,1601,0.25,0.01,19357029,17047000,2005000,33482534,9
138552956,243261,75752754,75164,75686592,76646,237212,1337855,156470118,6989,143652167,2859,3504,369194557,623,0.49,0.02,42363097,40062000,2003000,56366616,9
148863705,566311,101183451,82127,98944995,83966,495210,1553108,166456498,10510,169089023,4099,6985,519782631,2331,0.59,0.03,45187159,38820000,5972000,59418287,9
74654444,251331,38203618,73097,36727868,73810,380656,1318738,72509559,8606,70299190,6474,3600,206348258,1599,0.25,0.01,19211699,15865000,2974000,33227986,9
70235896,148098,36794843,65749,36538518,69078,114598,713288,66916906,3217,73242672,1617,738,206935812,176,0.23,0.01,17885134,15713000,1964000,31703219,9
725905,102291,2768795,38265,5858637,34922,110976,504906,13563747,2946,9268051,3334,1684,1550864,452,0.04,0.0,3841160,2403000,1201000,17894901,9
45114548,516937,24282294,62903,23821215,63245,428478,1268616,54270514,4705,49271758,5831,8047,135495918,2089,0.17,0.01,15144737,11874000,2968000,29277827,9
136221053,248493,75857730,75701,75611653,74895,158254,1129242,152601232,4522,142911283,2123,2329,368012958,418,0.51,0.02,41267985,38903000,1995000,55474975,9
64663635,215830,29271237,61776,23510598,63776,461256,1315005,59242396,8842,47412507,13899,5244,165381257,2351,0.2,0.01,15688722,12481000,2880000,29842771,9
52518566,743913,32294701,61626,34179444,60788,867465,1949637,72106502,17414,33654346,31143,17340,130539180,4066,0.22,0.02,19876825,12706000,6842000,33900240,9
40790855,193825,21663184,59071,21738468,56071,138870,728407,49447857,2607,55028649,1887,5270,118561569,1364,0.17,0.01,13015869,12814000,0,27003266,9
51364710,117780,23428022,59789,18575250,61102,274167,968864,46001112,4242,45475162,3428,496,138851885,1124,0.16,0.01,12914451,9697000,2909000,27132724,9
44139981,218256,19774804,60288,19995868,60125,168201,658004,45421522,1869,54293596,774,966,123585596,386,0.16,0.01,12012419,9834000,1966000,26165577,9
64015342,461384,42158306,92136,43788613,82841,402154,1196207,82869217,26188,64722794,9887,17811,187503201,4048,0.29,0.01,22509525,18197000,4043000,36696466,9
1544180,209184,5158853,43370,7152008,35820,113276,493600,18451305,9560,10834413,601,4979,24136705,1393,0.06,0.0,4916614,2813000,1875000,18772731,9
8215141,231311,8806097,37470,11792068,30085,184264,550741,28838814,4615,11229780,7748,6375,48773295,1285,0.09,0.01,7577905,4149000,3111000,21569591,9
139443570,210391,75191645,76292,75176719,76038,152442,1105092,150706413,4631,143467558,1578,2167,363069485,375,0.52,0.02,40760465,40432000,0,54712107,9
135834745,278927,75650336,74050,75787676,76711,178227,1167942,152994870,4715,143178698,3165,2836,367973838,620,0.52,0.02,41281984,40906000,0,55482185,9
3026524,181301,5488043,35534,6363457,34734,101444,441713,14034444,1938,8652100,1777,1960,1671370,380,0.05,0.0,3906385,2410000,1205000,18157565,9
2005126,169246,4264305,33557,5754641,33758,113260,486057,13353377,2303,11238616,2448,?,?,451,0.05,0.0,3748999,1755000,1755000,17736589,9
68719094,183317,34568152,70694,35041197,70298,163091,880193,61313438,4703,70268817,4350,2578,187084157,611,0.23,0.01,16735908,15490000,1032000,30870363,9
74226065,147294,36081666,61045,35128405,69596,201848,996952,63816038,7967,69638472,4323,2786,200041918,880,0.23,0.01,17278820,14045000,3009000,31496894,9
41010389,214039,21410929,63489,21332281,63590,138307,594510,42160462,1835,46448083,2122,1599,117638197,378,0.14,0.01,11217194,8930000,1984000,25124611,9
68596901,363587,32099214,60584,26040383,62458,643320,1656938,55670642,8619,44633281,15644,6246,159074384,2352,0.2,0.01,15358395,13101000,2015000,29655862,9
13459742,878991,16429120,68836,16743729,69811,899437,1866136,60175289,10811,11437915,17686,26549,57891899,6279,0.18,0.01,16230345,4998000,10996000,30255952,9
72822970,243286,38031531,72352,38270647,70948,157094,873430,68175658,13237,62168751,4259,3348,194385051,1588,0.21,0.01,18975037,15760000,2955000,33033359,9
2225835,164166,4313011,35822,5628723,36181,114301,496969,14017524,2437,5782776,3921,?,?,403,0.04,0.0,3629372,2255000,1127000,17339161,9
152287074,356414,78515902,76644,76216634,76118,412542,1645906,159110701,6860,149120119,1391,1342,391929820,1369,0.54,0.02,43208118,37935000,4991000,57263232,9
69936476,168098,36366136,59928,35571868,60406,140682,836771,60728996,6115,67349308,1930,1628,189029910,634,0.22,0.01,16634850,16390000,0,30596953,9
134863762,271213,75359273,73877,75388174,73851,180440,1096433,151938949,4482,144113133,2189,3357,361681844,618,0.51,0.02,41224487,37960000,2996000,55623504,9
3103812,186849,5358516,33084,5594689,33076,106629,437307,13819055,4596,6207228,3398,930,1765444,624,0.05,0.0,3773253,2354000,1177000,17768345,9
1171807,130486,3346907,38383,5780851,35030,118824,498069,14673469,2768,11730177,2072,562,2879541,453,0.04,0.0,3959432,3712000,0,18024293,9
46408236,213409,21658101,60472,21661346,60463,167581,668926,46245635,1922,55632060,824,866,137080817,435,0.17,0.01,12130368,9886000,1977000,26106733,9
36435997,425695,20953441,63681,21023492,62750,227745,762652,49864024,2248,52692670,4318,6194,126031281,1367,0.17,0.01,13091346,10830000,1969000,27446148,9
49220753,166954,19819657,62023,19824867,62443,164298,700636,43858910,2234,54613306,741,866,124293305,391,0.15,0.01,12042532,10614000,1061000,26087944,9
139073799,223312,75766383,72970,75795910,72709,139800,1149636,160024861,6121,141844725,1821,2137,363572710,374,0.51,0.02,43946640,41684000,1984000,57898028,9
139692969,276828,74981572,90065,75120595,91106,197858,1409188,156804735,4569,148176953,1605,1318,375824680,447,0.53,0.02,42267053,41034000,1009000,56511822,9
49811988,424210,21314139,61375,21086410,62990,324914,1135063,48741763,2942,63209627,4671,5091,138382081,1373,0.16,0.01,13429813,9141000,4062000,27753612,9
118160811,183088,73206832,74120,73030682,74782,143460,1142247,158404593,5839,117835452,2351,2193,418334886,376,0.54,0.02,43460976,41268000,1965000,57734499,9
144029815,293628,76221872,76768,76433174,77817,248745,1292297,155886170,7150,144663611,6676,5263,372467435,1362,0.54,0.02,42911271,37728000,4964000,57449739,9
143559124,1294128,85326963,92676,85317589,91107,908918,1771902,204861534,13482,151386089,38653,23978,407159803,6293,0.68,0.04,55810928,44553000,10890000,70076237,9
1668822,133117,5654575,33547,6233345,33486,77598,376736,13342574,1655,11571573,?,?,?,149,0.05,0.0,3334462,2056000,1028000,17506724,9
138157070,248034,75941558,81684,75890728,81468,162228,1265738,153793422,4854,141510519,2291,2079,363567237,373,0.49,0.02,42382732,41134000,1003000,56284449,9
41027400,357620,22868572,66421,22814862,65168,254172,755225,48263657,2821,47609739,3975,4072,125191248,1118,0.17,0.01,12996780,8476000,4238000,26805511,9
51813239,230131,23829086,58791,20762960,59354,343951,1021297,51714930,4037,52786987,1251,564,147096758,1372,0.17,0.01,13997281,10782000,2940000,28022645,9
18207084,683061,11863566,69359,5085178,53565,359041,860191,33344363,18884,14109963,22330,7081,48688609,2363,0.1,0.01,8948302,6417000,2139000,22849791,9
1330942,184808,4442809,37519,6647195,34985,112956,479090,14659215,4123,9722972,1147,?,?,656,0.06,0.0,3937203,936000,2809000,17775250,9
40145257,168450,22450537,59603,22969203,58729,125118,733402,44748659,1754,53571825,859,497,128870751,179,0.13,0.01,12882336,11667000,972000,27096466,9
140705005,201045,75580939,76501,75562022,76532,149327,1156150,150842847,5021,142474528,1966,2049,366629450,375,0.53,0.02,41351354,41061000,0,55470222,9
1187881,159149,3924345,34188,5760774,34282,114415,489756,13874715,2417,11803264,2155,?,?,452,0.05,0.0,3613750,2591000,863000,17517655,9
99090392,1269258,68765746,513215,65444299,501133,697752,3720874,162012880,13954,86013954,14861,11268,330752510,2026,0.47,0.04,55182085,47848000,6835000,97875395,10
99296250,2137618,85412135,391844,82935786,358412,2091830,6250091,245191148,127948,100310858,16467,5498,432786078,3249,0.77,0.06,66138430,60702000,5058000,80112358,10
122221384,2716555,89341173,294080,89374433,298861,2276083,6418316,269004348,182793,122924002,24213,6338,431871133,3522,0.83,0.06,73027551,65729000,6971000,87369949,10
103972850,1947469,73985488,227160,72979083,246717,1366179,4534952,194415996,25622,102101191,13754,4679,373406735,3719,0.64,0.04,52215616,46916000,4991000,66497983,10
106693100,2776465,76046586,319563,72819651,347190,2450884,6711500,263675663,173074,106758570,32287,6024,376600492,4301,0.8,0.07,71190910,62913000,7989000,85603540,10
101202587,2320628,71214732,333373,70813986,302832,2428444,6698890,252292207,208081,103491917,20837,5441,369061378,3544,0.78,0.06,67652083,59329000,8044000,81858048,10
129731455,3841449,92406808,264597,87515629,296696,3678822,8776559,312565070,174158,139281683,35431,13385,489761610,7294,0.97,0.08,84691316,72378000,12063000,98884984,10
119041788,2768839,85908830,280905,85612868,286506,2309081,6487275,268314602,187274,118748660,23294,4828,424807781,3592,0.84,0.06,72577223,67249000,5018000,86631487,10
104306285,2772132,73761284,342519,74607995,304998,2921575,7204543,278835315,188718,105158761,17682,19047,377616676,4566,0.85,0.07,75438358,66094000,9012000,89760433,10
299450996,3000432,191462042,1023046,186119249,985060,3158176,8217379,485026205,181380,293859272,44923,9713,930253505,5793,1.59,0.1,131256633,117991000,12889000,145688986,10
266946014,1382765,162139524,1253860,161079767,1239158,815212,4074381,361997917,16549,264595802,24651,4425,806835833,2216,1.26,0.06,97598687,94249000,2976000,111712391,10
111360029,1201814,79433863,659907,78625973,658783,510969,3068077,188684963,13612,109468577,7329,3086,380365514,1990,0.63,0.03,50702751,45505000,4946000,64893725,10
221906439,6756350,170494073,563419,175932421,568030,6947853,15533402,568720012,506933,227103312,51521,16908,816683576,9766,1.71,0.14,155197135,136857000,17981000,169292875,10
87729056,1614162,60134958,257524,61185241,204740,700120,3573974,156063973,13544,88045884,9257,3049,315997028,2022,0.51,0.03,41855993,38489000,3038000,56106316,10
88537228,1174662,60968689,781649,63722370,658582,679873,3968278,175784452,14799,95056930,9400,4204,329018651,2071,0.57,0.03,47048052,40799000,5970000,61039151,10
276752755,2818594,173414456,943987,169395110,917809,2894852,7877457,463491856,182390,274463591,41539,8454,856234617,5985,1.53,0.1,124591904,110220000,13901000,138639116,10
280586675,2556290,174688018,839238,171492620,847599,2279231,6939417,423856311,130215,269544203,31503,10768,856009604,3278,1.41,0.08,114394691,106076000,8005000,128271688,10
278650149,2561313,171851875,865479,168159060,873241,2675198,7433644,432622340,167326,275445982,28086,10413,859816383,3520,1.43,0.09,116594386,107362000,8946000,130863324,10
120774733,2923927,86484930,294732,86044814,305954,2280038,6329733,267580839,124839,123171656,24637,7142,430414590,4374,0.84,0.06,72214590,65922000,5992000,86427300,10
109482112,3212191,74348254,278544,72945337,302814,2894438,6987684,274901253,173196,110530832,30608,8275,397591145,5797,0.84,0.07,74002693,61761000,11953000,88337984,10
107952239,1150009,75477674,270809,75715746,250145,791190,3956963,176200371,16574,107868088,11874,2920,366910685,2022,0.58,0.03,47311802,40929000,5989000,61579559,10
107875499,905475,64991886,781282,62893431,753288,535446,3563031,174517437,17396,110597207,15464,5448,366805230,1893,0.59,0.03,47711423,44406000,3027000,61790188,10
88400314,932153,57106199,848287,60543547,714133,553471,3588417,170036178,13341,98563416,8596,3907,327883088,1989,0.48,0.03,48348013,43070000,5008000,62584865,10
100049278,2278725,70629567,340538,70119038,311456,2440830,6397881,250321284,194022,102006095,19481,6681,365736265,3522,0.76,0.06,67185004,61818000,5067000,81278507,10
100422299,2007220,70355441,357373,70813970,313575,2258961,6382576,239659151,129476,102474435,19747,5843,369028846,3262,0.74,0.06,64971309,61576000,3028000,79012147,10
107515350,2184192,73431801,775613,72071374,788556,1805923,5330897,256634077,159532,108545756,24979,6505,390748330,3519,0.79,0.06,69370587,60994000,7999000,83451497,10
91854349,996441,60905327,604052,62699482,492552,785525,3660321,169303353,15025,95998898,8642,3176,321810216,2025,0.55,0.03,46063402,42902000,2925000,60469093,10
100411541,2326713,70408032,319134,71492552,286134,2554035,6680846,249380149,201755,103663385,18246,4977,363951553,3618,0.77,0.06,67318834,57982000,8997000,81535272,10
279094634,2907682,175658703,588516,173553939,574556,3173479,8753253,447131814,194076,269952670,34426,11118,858352656,5035,1.47,0.09,120186024,110819000,8985000,134444907,10
303881864,1673526,189832588,1196910,188818762,1234462,992131,3934755,410119735,20659,311829270,18751,9953,944570593,2994,1.41,0.07,111072983,106898000,3996000,125198901,10
115684988,2669561,85297794,303854,84885732,312364,2222462,6217167,263903056,185222,118774566,11668,4454,409009609,3520,0.83,0.06,71209322,65992000,4999000,85505371,10
103308118,2180918,72077844,355926,70849891,340907,2066938,5948153,241360436,134840,105254304,13690,6821,379404288,3308,0.71,0.06,67837795,61598000,5961000,82209105,10
276336907,2836547,172249811,695204,168685198,726312,2407054,6779364,421249744,127687,278452529,24194,10137,854486777,3843,1.4,0.08,113882096,110627000,3017000,128272294,10
147154064,4402577,113863888,3239560,106753585,3383992,2704602,10108253,439080389,153234,148545440,42264,14353,539815586,6451,1.36,0.09,118998173,109849000,8987000,133152603,10
161361688,3453560,140622723,578033,137412407,599133,5070652,9378676,416681850,397616,157993391,35289,10790,652846101,5993,1.31,0.11,112081249,101863000,9986000,126469657,10
271115716,1779120,165773785,1538544,169498478,1452716,1448909,4951865,420250414,61016,284023952,20585,163940,844732692,2765,1.44,0.07,113594124,108369000,5017000,127834207,10
156554982,2468272,100597197,869669,100497134,860504,2095298,5315988,308850777,78334,160542696,31972,8605,567126214,6318,1.02,0.07,84015057,75822000,7981000,98281536,10
103574488,2611487,71478435,323651,70509299,334864,2482493,6601920,262437483,159200,106769804,24739,9446,374276929,4692,0.81,0.07,70585513,62254000,8032000,84788975,10
283433468,2615673,177015914,909333,172039581,867430,3086945,8387448,442299472,192763,266957400,38982,9518,860381524,4300,1.47,0.09,119116683,112758000,5987000,133286273,10
105053939,1172088,73906221,287514,73519785,251389,834573,4320221,175301791,20713,105773203,12297,4076,358073287,2227,0.59,0.03,47366464,43107000,4009000,61373555,10
110329589,3144064,74721024,292709,72415738,284200,3133848,7526246,279870565,190076,109979093,31433,8613,402724077,5990,0.85,0.07,75372244,64099000,11017000,89398079,10
279033713,1678805,171766968,838540,170526014,825141,1370902,5008943,370279709,22680,283593101,22842,9530,864350651,2994,1.28,0.06,99922128,97657000,2013000,113933988,10
267531276,1275590,162974014,1141120,158298709,1281522,581514,3453367,349158184,19208,262755753,18747,4538,805427024,2019,1.23,0.05,94240644,91917000,1998000,108312678,10
84873618,889290,73209579,680600,74553681,546752,562295,3536233,163640323,13257,85176549,9816,4103,374139241,1890,0.56,0.03,44533101,42251000,2011000,58809595,10
123655213,3911595,93669448,375407,93315503,399975,4211834,9202772,365226300,165829,120872487,85909,46220,476829270,17324,1.12,0.09,98262590,73036000,25012000,112350208,10
112924062,3054490,76974051,302973,74213945,294187,3217980,7685719,280782812,190590,109920501,27046,7439,408045760,5801,0.87,0.07,76131127,60141000,15774000,90467159,10
95453045,1144361,64544544,476908,68043029,409258,1103646,4141819,178396654,18531,103675071,18609,5785,352729782,2870,0.59,0.03,47818515,40419000,7073000,61923326,10
93168077,946821,60055332,689594,63507512,555296,696517,3833621,173133070,22589,98204333,11184,3582,325602286,2070,0.57,0.03,46650384,41338000,5041000,60764074,10
102968196,1561395,68436026,668782,66017282,746250,864739,3381279,193824227,19057,106544942,18368,17428,377067746,2998,0.63,0.04,52179757,45935000,5991000,66408064,10
283853971,2390397,174550542,882921,169513987,859833,2866384,7688520,434866096,173917,266892897,31536,21004,853535174,3515,1.43,0.09,117124583,112819000,4029000,131482477,10
280137098,2487068,172334577,849424,167419750,843835,2666922,7462645,428817964,168389,272088723,32554,5949,857287527,3516,1.44,0.09,116203466,110951000,4997000,130585326,10
263864899,1391061,161022464,1123181,157954097,1251330,595278,3554355,351764807,22433,268077190,22504,4954,798500998,2017,1.22,0.05,94572976,91302000,3009000,108572858,10
265668502,1264278,163616893,1144150,160667793,1131330,780381,4305119,349929827,18460,259438285,19947,4463,796700252,2020,1.14,0.06,97923667,94677000,3021000,112105745,10
280368565,1599464,172008175,1031067,172539322,1027830,1689770,6772462,385741666,42485,282492903,35407,11757,866988505,3452,1.33,0.07,104258259,94893000,8989000,118402900,10
112623489,3107166,75680160,296951,73140377,290384,3200560,7589103,275765080,193706,109001626,24437,11307,403898381,5990,0.83,0.07,75271558,64937000,9990000,89448040,10
131238274,2992960,90249935,312764,87226315,301405,3023921,7718613,292113686,194356,126440686,27815,12211,449459679,5798,0.92,0.07,79012037,69607000,9079000,93287425,10
139755913,3987823,102577671,305999,100009512,304123,4160975,8264259,346552778,324349,130702173,35775,9034,495943470,7034,1.07,0.09,93858018,78455000,15087000,107979494,10
110261150,3150911,74911844,292448,72537212,281338,3152772,7613182,280380824,192777,109962129,31688,8278,402613094,5991,0.84,0.07,75624242,63441000,11895000,89834392,10
273818275,2754905,172273330,1020071,171886196,1014233,2754756,7810103,458188594,184990,273887932,37989,13309,849358024,5790,1.51,0.09,123927369,110689000,12963000,138216711,10
110459457,3145294,75148544,294288,72688057,282734,3166399,7592615,279700391,192123,110217291,36678,8222,404769366,5991,0.86,0.07,75496609,61274000,13836000,89599599,10
116299637,2193470,79534762,616325,78091618,568728,2703299,6074262,269358388,165451,115576950,29941,8524,432543676,4142,0.82,0.06,74048745,65731000,7967000,88332935,10
111810631,3122054,75602952,292695,72970697,286791,3181597,7576056,277178525,192306,108752213,37242,15120,403156416,5991,0.86,0.07,75348036,65054000,10008000,89478835,10
279201421,2732210,175889353,719039,171632309,700128,2956774,8537320,441167922,186752,271084221,28764,7674,859023245,4632,1.46,0.09,118907731,109543000,9044000,133163869,10
280807996,2747176,174425908,966991,172211170,942366,2768467,7602078,458985812,178130,276300050,45238,9275,852619456,5796,1.48,0.09,124689557,115371000,9029000,138925540,10
104117748,2355739,72052502,351307,70447789,324870,2434907,6482740,250099661,202222,102531678,19555,5325,370843263,3518,0.78,0.06,68055401,62776000,4982000,82403154,10
112246722,3151769,75349661,305205,72499610,293766,3221032,7584603,279289896,192271,111388234,42027,14481,406879511,6187,0.87,0.07,75588371,65206000,10031000,89811501,10
93153386,884817,59747259,751760,62875585,594421,712888,3778812,169352601,19478,95222696,8769,3712,320126825,2021,0.57,0.03,46401245,42027000,4002000,60741893,10
109334469,2452840,73193468,353604,70429895,325844,2502329,6585263,252139935,173796,105892320,24870,6268,377323950,4303,0.77,0.06,68389465,61064000,7007000,82569853,10
99577072,2277097,70301024,325717,70871783,293747,2529191,6541704,251466072,202954,103006104,20194,6438,364493513,3521,0.78,0.06,67616649,60215000,7025000,81705110,10
145333935,6728657,110892425,2030621,107605250,2049507,6817561,16409719,579569656,860824,147177131,35865,10662,517415865,5605,1.7,0.15,156954765,147592000,8975000,171263515,10
302250500,4214963,200617478,915379,206179905,920938,4931547,10918541,527535606,311226,306805988,49789,13432,968797134,7036,1.75,0.12,141660974,127198000,14021000,155844131,10
89880115,998187,61426991,628981,63522647,517288,700826,3657115,167750856,13936,92761634,12253,2955,314860628,2217,0.56,0.03,45689865,42355000,3025000,59973660,10
115204256,2755467,86375363,602408,83585169,581466,3514309,8193187,294458670,214276,109537411,34531,13857,426729152,6482,0.92,0.07,79174455,68905000,9986000,93364919,10
114628305,2529232,79729734,732128,77200912,659068,3091346,7105248,281390961,188119,112803620,23332,17832,422581643,4136,0.85,0.07,75352833,69023000,6002000,89516250,10
271959969,1237513,170698157,1288275,172444073,1206115,1171112,5010298,378755699,24454,268299740,28576,5317,822695767,2994,1.32,0.06,102696650,96328000,6020000,116855953,10
374062891,15160884,266168274,1211254,266256178,1234704,3124223,9015611,676599917,174993,382177588,32036,13001,1183841130,4822,2.17,0.13,182785472,174453000,8020000,197028373,10
105844570,1534162,67464479,786138,66649722,792320,939475,3523568,192538696,20303,107169389,14840,5585,377229727,3000,0.63,0.04,51864650,46628000,4960000,66152230,10
273520476,1589966,170737206,687776,166226626,775923,878305,3778305,352733974,18744,278668662,20803,7676,839665495,2864,1.23,0.06,95592640,88379000,6951000,109703016,10
100761930,2165556,74839320,490351,74534353,479187,1705428,4519711,217510394,17702,95770639,34607,10709,356013112,7175,0.72,0.04,58299884,43945000,13982000,72398510,10
290898040,2393968,183909503,878954,181023032,857820,2969195,8244727,444483506,179666,291383770,27992,9268,895685815,3521,1.49,0.09,120045911,110791000,8983000,134406392,10
69120367,13727532,27565579,4786425,26614518,4765717,119147,1734499,231873711,11889,69614874,3796,3376,175692218,175,0.62,0.05,92633812,89082000,3002000,161610775,11
189793946,12892503,59535172,5338618,60938927,5325739,100121,1452573,282054368,8457,195030214,1460,2246,437323421,183,0.91,0.04,76862899,76562000,0,91004431,11
93114308,14209031,34308655,5208411,34287232,5171112,110088,1536340,222829192,6699,93794433,1447,1357,196951512,224,0.72,0.03,60402871,59129000,1002000,74624863,11
769669891,24072973,608997964,5790541,609750475,5755549,199576,22213684,1155873480,39526,772754581,5506,7406,2623203180,226,4.24,0.16,312298432,309912000,1999000,326089654,11
66908931,26453464,43549387,8727135,48273601,8479654,128884,6527843,325514187,10192,77425652,1935,1983,230322502,187,1.04,0.05,88017990,87708000,0,102238975,11
763596915,23948026,603064619,5775175,603352000,5776025,184892,20387358,1088652071,29092,766084754,4098,6555,2594483694,215,3.9,0.15,295099664,294690000,0,309055563,11
68268052,8009909,30099856,5055888,34773432,4837547,109992,1241780,206893362,5783,78238503,1436,1302,156825861,190,0.65,0.03,55745956,53486000,1980000,70020778,11
67274295,26595980,47920757,9597748,52186788,9314578,107087,15620937,338696122,10259,79377112,2337,2503,207983778,222,1.04,0.05,92405514,89991000,1999000,106304910,11
89043827,14182340,28969028,4579326,33617545,4331165,112528,1280448,206930181,6161,98224037,1963,1313,213533925,212,0.67,0.03,56710187,55300000,1005000,70739946,11
66339805,13284409,28237268,4467167,29165280,4470725,117128,2235965,210565778,6065,67766904,748,1251,151220523,214,0.66,0.03,57070256,55766000,995000,71058775,11
66876660,13925785,27515309,4817163,29700730,4801789,139008,3579310,202831020,7023,69631918,759,1216,163327692,224,0.64,0.03,55209735,53814000,996000,69258833,11
78843856,6509264,52792728,5050393,57164043,4866140,137431,1336013,245786088,6989,89874657,1631,2243,315669177,157,0.75,0.04,67874568,67597000,0,81965392,11
65688989,7735479,40704754,4850567,41252487,4857219,117373,1230721,204916018,5761,67278170,694,1225,195562542,193,0.63,0.03,55500197,53351000,1975000,69378561,11
429225605,67285547,316001075,23020857,317392311,23012443,186642,89824800,1965528326,47883,431030044,8728,13130,1147273439,259,5.96,0.27,531747587,529256000,2000000,546067372,11
66140530,10964202,32754677,5036261,34493806,5069459,100009,1341233,241026234,7479,68290908,1275,2032,143013593,199,0.78,0.03,65657158,64375000,1005000,79913634,11
94521215,24859740,29956440,5236320,34992580,5023494,122439,15972523,258010881,7000,104501412,1614,1693,190073733,227,0.87,0.04,69592963,69300000,0,83599677,11
65243624,13997371,29228152,5114253,29195454,5113634,126681,3098829,208245320,5438,66312690,719,1297,150440764,176,0.66,0.03,56181690,54872000,997000,70557407,11
83952388,26574154,37873046,6054493,38552640,5856369,454480,3653430,363110451,14145,83058339,16423,4850,276438458,2892,1.19,0.05,98270240,89872000,7988000,112302124,11
64298000,13971580,27089876,5215694,27251855,5206081,117998,3379568,215686357,7350,65636893,1594,1831,148374757,175,0.61,0.03,60578209,59294000,1004000,74773364,11
65156318,24481039,41372536,9050572,42648872,9051262,116468,7003997,364119899,9582,67619474,2790,2238,198692768,183,1.15,0.05,98638115,98405000,0,112750668,11
763915062,24236747,603669661,5807613,603386034,5803500,159638,22141334,1147981521,50953,765050246,4104,6810,2595419204,222,4.19,0.16,309919869,307573000,1997000,323943098,11
66416533,14289448,27896613,5205220,29115119,5209173,113111,3059540,207178646,5960,67967875,726,1359,137122901,175,0.67,0.03,56649367,56336000,0,70740167,11
68765158,6296739,29245609,5022910,34081119,4778519,114258,1234255,207694419,6029,79827097,1328,1626,178581260,176,0.65,0.03,56638374,55383000,988000,70719874,11
71116236,7717486,33640922,4348628,34469182,4367642,106917,2066602,237489063,7365,72736792,1262,1924,280383719,189,0.74,0.03,64110934,63826000,0,78028681,11
2714344,138303,3950937,60238,3477195,59993,65005,406760,12130566,1606,2340856,167,?,?,208,0.05,0.0,3406779,2074000,1037000,17724426,11
275904303,64208604,170574135,40357428,176774941,40116991,226820,28903261,1672722911,46021,290717014,7784,12589,733136404,180,5.03,0.23,451638398,451236000,0,465799135,11
65952906,13343304,29332257,4427600,29173244,4431686,122383,4021002,217272982,6678,66140963,812,1370,137512231,237,0.7,0.03,59005481,58716000,0,72972601,11
66119448,13393987,28779770,4536674,29197534,4550026,116707,2200635,216025735,6766,66983571,651,1499,151502941,224,0.69,0.03,58347422,56051000,2001000,72176785,11
67710273,11030481,30652671,5780166,35297386,5631489,104945,1377039,234160927,7363,77330297,2533,2057,154758533,208,0.72,0.03,63236339,61968000,999000,77426467,11
66593196,6045324,28015270,4405410,29185965,4461171,195104,1202056,190103284,6055,68130917,1497,2045,165804670,181,0.59,0.03,51214400,49771000,975000,65506591,11
84010199,21306642,29554622,4679798,29610203,4691732,113017,14734349,233270156,6909,85380466,1293,2079,178794706,211,0.76,0.03,62718206,61505000,1008000,76857509,11
128467386,13375306,54611216,9190167,54572009,9197890,132107,2100619,409668323,10656,129489279,1337,3099,283011538,173,1.32,0.06,110116097,108855000,998000,124298390,11
91179106,28389665,60396532,9562795,60875069,9554767,120600,19837558,367537213,10387,92143727,915,2344,250389383,218,1.16,0.05,99811231,97555000,1990000,114034619,11
76847115,6016020,29653971,4811440,29612896,4816406,119860,2188646,201895438,5179,78163711,677,1787,175921742,196,0.63,0.03,54533295,53308000,1005000,68759259,11
66274754,13791089,28267276,4794467,29409975,4805437,112483,2505106,223169382,7232,66964154,1394,1958,137105529,226,0.71,0.03,61610331,61392000,0,75765717,11
65844145,13626926,29120681,4795802,29281989,4800484,114892,2034456,200385752,5215,66770656,661,1670,163754911,213,0.63,0.03,54174967,54013000,0,68527902,11
64613983,24026017,36781323,5860702,38474207,5863014,126134,14403399,309320110,10661,65888366,815,2030,191769975,198,1.04,0.04,84282508,83050000,1000000,98306151,11
94829240,13162995,41099579,4702306,41544942,4705632,108140,2906390,246581600,6367,96081276,1287,2037,216134226,175,0.79,0.03,66933299,65675000,995000,80865436,11
75429140,21532847,48124090,7033060,49271846,6993814,138759,15684701,324209401,9828,76592313,1802,2316,222548187,221,1.06,0.05,88158414,87957000,0,102114046,11
75294592,21365562,48951305,6875789,49277044,6882257,185896,18987346,324495965,10044,75515694,1123,2130,223200071,223,1.05,0.05,87082805,85748000,997000,101173138,11
773309795,36032153,617088712,5797495,617612827,5791410,179270,37316118,1212618369,39043,775619796,4699,8005,2669920721,262,4.46,0.17,328071300,327029000,1000000,342265323,11
65485400,27941112,41524690,9324501,42348084,9341318,108942,11814842,335151621,10144,66871614,1699,3386,199394114,197,1.05,0.05,91124953,88819000,1995000,105030410,11
65561655,7651500,29541553,4702629,30051315,4706493,123937,2376770,204259028,5729,66741023,818,1425,163047474,162,0.63,0.03,55097772,52784000,1991000,69210519,11
271070554,40715971,223474316,8918132,223448750,8876778,16561403,26677659,1329918521,273261,264457989,527760,127800,1186391827,117352,4.07,0.3,359806089,247815000,111916000,374208655,11
65580038,13983093,29189250,5112417,29102893,5106997,118818,3675544,207414158,5413,66341370,752,1346,150972703,174,0.65,0.03,55852427,55570000,0,69427536,11
68303369,13710041,30344019,4553470,34604464,4390736,115782,1308590,226224428,7088,77727277,2485,1885,163221920,207,0.73,0.03,61799739,60578000,993000,75857832,11
101006151,18547610,61565976,5708675,65428077,5531051,111358,1590231,265344440,8001,110419385,1009,1692,271952107,185,0.86,0.04,72197298,69938000,1998000,86216269,11
760332961,23882483,607449126,5824557,607813380,5798968,148774,20540984,1130649125,33439,767451677,5665,8078,2636820882,217,4.04,0.16,305181247,304094000,1000000,319777615,11
68560029,13799661,30227367,4641330,34446920,4424439,113453,2371610,219502296,6990,77696357,2541,1363,163031146,218,0.69,0.03,60113153,58902000,998000,74151074,11
70483606,13527745,19122191,2258516,21283689,2263869,252805,2522710,139063602,7194,70415689,1824,1452,133787917,995,0.46,0.02,37312467,34990000,1999000,51313437,11
71667841,38992443,30886353,5397575,31338898,5285229,523185,45451860,466372438,9098872,72949759,18832,6241,183941387,3546,1.54,0.07,126228471,120039000,6001000,140306609,11
65414514,7585405,29966979,4733684,29970591,4735322,109432,2119545,204543416,5417,66684497,1036,1829,164082788,160,0.63,0.03,55351532,54049000,1000000,69569430,11
66534755,14295182,27896606,5106257,29204232,5107215,121475,3373355,204562365,6003,68071651,614,1552,151037365,175,0.65,0.03,56094354,54727000,995000,70341470,11
746164960,23900884,603186321,5765154,603449221,5759964,166041,20556802,1095349187,28654,747583131,4065,6909,2576304230,231,3.91,0.15,295904031,293690000,1997000,309884940,11
66203844,23374251,53580123,8420276,53897206,8421374,120738,14657228,366949737,9282,66818021,1269,2247,237775524,192,1.2,0.05,99183688,97957000,999000,113215641,11
74003470,28218984,43713521,9553111,48594238,9422260,123299,17477714,350029380,10018,84028626,1757,2520,216684428,188,1.09,0.05,93485972,92134000,1001000,107744235,11
56184275,7632420,38819962,7773070,38713620,7754689,116215,1450152,280908174,8374,56522903,1626,2230,169147611,162,0.86,0.04,75636771,74429000,1005000,89855619,11
114524179,12346068,48456860,5589642,49857447,5320522,294117,2195779,250255476,8806,120236206,2751,2071,288468197,1349,0.8,0.04,68108950,64749000,2988000,82411372,11
763364893,23658820,603782679,5790235,604131901,5782320,149469,20181100,1112516108,29204,764968259,3692,7483,2612954192,219,4.06,0.15,300555491,299323000,997000,314477308,11
81070119,21972367,31300744,4949668,36756770,4815068,107299,15076224,250346386,6394,90021403,1642,2119,198660906,205,0.82,0.04,67314802,66957000,0,81549156,11
65360458,9743945,34479176,5065775,34496820,5086948,124366,2569149,238671893,7995,66015250,1355,2011,168519157,176,0.75,0.04,64475259,63242000,1003000,78496072,11
749631323,23685854,608387506,5770550,608501048,5769830,152467,19963605,1134453683,27198,753457659,4084,7076,2591980315,214,4.09,0.16,305839522,304585000,1001000,319923670,11
137733294,21207755,42330990,5205735,46636342,5113086,119258,2378524,259732117,7599,139574519,1613,1977,317314380,170,0.83,0.04,71236051,70004000,985000,85295065,11
65704362,13836032,29113336,4735594,29150716,4736667,121545,5030501,206015695,5397,66589620,720,1325,150786657,213,0.65,0.03,55534831,55316000,0,69637061,11
744069023,24208324,603127134,5833956,603299575,5848227,168633,20835375,1129657820,29632,746867534,5471,7611,2567657218,222,3.96,0.16,304488945,303289000,1000000,318776485,11
78573277,24194966,29409025,5269907,29968502,5273442,134785,20047116,255794297,6788,80055372,848,1551,190324517,231,0.84,0.04,68968320,67609000,994000,82971184,11
68028398,7926901,29797414,4782008,34712957,4612706,120922,1351269,225778891,7506,78436551,2573,2533,155253653,191,0.72,0.03,61651813,61400000,0,75871915,11
81051723,24341495,29726788,4830989,35215109,4675529,116627,15928287,268258642,8279,92377137,1321,1884,175423308,210,0.88,0.04,73072867,71894000,998000,87040616,11
68501578,14173818,30734705,5023207,35622208,4868430,113729,3630205,211485155,5847,77037273,1018,1390,157531081,169,0.66,0.03,57541149,57290000,0,71740948,11
84078468,6459789,49429214,4695136,49167134,4705081,119627,1315381,250249865,6485,84777026,1280,2267,395442144,185,0.76,0.03,67869386,66618000,1009000,81831585,11
70722482,13690886,34495642,5749272,34619280,5769554,109084,1347018,234855695,7060,71318957,1361,1867,171626189,222,0.73,0.03,63973364,61642000,1988000,78193799,11
785209287,23745630,608867535,5743519,609121205,5738061,217727,19667385,1119366742,31530,786534696,4861,8768,2634513519,246,3.94,0.16,305941120,303656000,1997000,320032095,11
92315772,21944982,31551837,4582471,36350061,4496670,121832,12409735,242198818,7445,100234305,2115,2012,178208311,215,0.79,0.03,64977363,62719000,1991000,79273803,11
55662024,19033971,31923601,4650334,31992232,4651207,124300,10350074,259216952,8736,55931686,1878,1609,165905006,330,0.9,0.04,70114745,68862000,998000,84350448,11
198450166,19958364,80347063,8876237,82507228,8851024,118946,4058173,500601468,14084,208083677,3053,4166,545381078,174,1.6,0.07,135322286,133947000,999000,149604626,11
65216670,10866815,41662335,5389770,41556578,5410360,107567,2899694,229381100,6938,65798672,1584,1951,187008351,213,0.73,0.03,62371680,61016000,1000000,76539430,11
758354173,28007749,603477914,5754279,605037930,5749875,168051,31246354,1118222700,29181,760444376,4587,7539,2577211185,232,4.05,0.15,301901603,300497000,998000,316115652,11
90687906,14802351,30933095,5486414,29609702,5254276,389197,3376227,235415059,14187,86808989,9749,9903,191351936,2526,0.75,0.04,64083925,57759000,5975000,78045561,11
70969441,7682938,28600548,5646169,29478938,5645914,132444,2481921,266310276,8060,72519286,918,1677,238659799,204,0.85,0.04,71685755,71416000,0,85668408,11
745980496,22490163,603736991,5787512,602877463,5773719,172738,25507801,1104149846,28299,746923106,4665,6629,2590623810,222,3.96,0.15,298063962,296820000,999000,312106759,11
319949747,1211640,210515252,624717,209398710,624741,370456,3693006,385151201,19091,330440188,20727,8729,970160278,1937,1.2,0.07,128556360,121961000,5949000,174482714,12
159766234,10494838,139266062,774585,142042096,790434,1577501,14744822,577158197,31885,166773747,44561,12138,597955608,6384,1.65,0.1,156857132,141406000,15043000,171121831,12
327679064,1029190,211594802,594511,210856606,603614,351818,3152641,386661565,17017,330569584,24972,9210,978236683,1939,1.37,0.06,103958610,98688000,4984000,118365973,12
94404916,560580,71711696,104955,71026485,100357,177704,1472913,143248199,6636,91298953,8857,4567,351142509,1042,0.46,0.02,38934266,36675000,1982000,53252556,12
94893209,308756,62147812,91081,65219371,122443,228229,1549066,128145727,8289,96592555,2536,1914,325889767,918,0.43,0.02,34781034,30550000,3942000,49149364,12
85065865,671276,88358000,128135,85983382,110160,273319,1802255,143637894,5941,82540596,2158,2216,392236548,915,0.48,0.02,38500320,34321000,3922000,52755303,12
244674171,21510540,181690322,1691438,179763528,1712250,4981817,25703524,925146990,83733,244455065,79890,21453,862316915,13318,2.63,0.17,250248318,223961000,25995000,264333970,12
315855087,544062,196095695,530586,194263911,528610,208500,1954341,348531643,10280,318093493,13878,3287,957214090,522,1.22,0.05,94014737,89641000,3984000,108329637,12
93112324,2400971,64237391,139760,63689071,103758,370118,1636868,144480288,11081,101205666,17052,14434,327611101,3749,0.49,0.03,39691706,35281000,4032000,53851060,12
97714036,820291,80194155,2156235,83148839,1995929,304361,2333090,220942429,14155,113846501,18820,5213,410319679,2296,0.69,0.03,59412281,55942000,2996000,73668706,12
325411445,1211081,214244469,626396,212447396,608699,327216,2832719,370381420,16486,331032265,23507,7437,973927568,1937,1.29,0.05,99978235,91727000,7976000,114033054,12
90339054,2691657,79019599,184110,79175214,158187,453933,2879525,164624572,14392,101200631,20688,18270,329272123,3750,0.55,0.03,44407342,38099000,6015000,58712611,12
322027142,1203041,198519451,568512,198108653,561982,273337,2708432,365598388,16473,326665338,19721,4257,959984000,1898,1.28,0.05,98636568,94384000,3974000,112779424,12
93888864,2516585,81909921,198600,78987542,181371,529988,2913246,167531175,12929,105948312,21956,6066,342523151,3752,0.53,0.03,46185353,37920000,7983000,60403109,12
319196727,1026693,209373853,586282,207489867,589271,296663,2805484,375661211,12947,327219365,10550,2964,966830496,911,1.3,0.05,101542260,97278000,3970000,115686688,12
317801647,1115884,197228237,693335,194587469,677008,288679,1894332,356871356,11990,323287216,12413,3371,959559481,912,1.25,0.05,96179058,94901000,998000,110562703,12
91960955,2763838,80772909,198619,78105483,165938,489583,2850848,159685317,13444,100569792,21907,16029,336225895,3749,0.51,0.03,43285861,37000000,6000000,57568030,12
160867442,16454179,144459794,738935,145581190,724018,1296781,4040156,438806030,28728,156967108,27360,582730,592483227,4830,1.35,0.07,118299924,104012000,14001000,132365107,12
222859861,27662732,161265555,535765,160478040,536956,661813,8164928,561267039,30428,221533062,20386,9664,718743370,4040,1.61,0.08,151308705,146021000,5000000,165562034,12
395144628,8957673,260857632,902123,264918235,918041,1031387,4882543,657202834,34958,400654977,50268,10147,1184522497,4815,2.09,0.1,177473033,167104000,9946000,191577922,12
144497288,14163790,102240841,402515,104986229,407568,719116,3059154,336014760,18461,151755873,20465,6810,461417983,2477,0.99,0.05,91305043,84003000,7000000,105663337,12
164049700,16325380,144733684,760700,140970683,750174,1400607,5306413,425456361,27362,160941618,31455,9811,600887214,4821,1.29,0.07,115634608,104267000,11028000,129957394,12
100348809,1494386,76076040,135177,70979608,133140,647170,2941921,148602442,8272,90088352,4810,1702,341609552,1695,0.49,0.03,40624791,36281000,4031000,54782748,12
315514565,574651,195943259,533605,194017060,528360,267173,1958165,349681652,10314,317593539,9006,3295,953471671,520,1.24,0.05,94391555,93000000,1000000,108856828,12
316635325,668519,200584482,571912,199773738,562715,208695,2242352,351547674,13186,323792360,19414,4700,960941569,995,1.17,0.05,97649931,93397000,3974000,112041102,12
318939234,500028,196095722,525662,194475604,525973,211475,1972016,345123493,15133,317294671,15745,3283,940762174,519,1.22,0.05,93081062,90759000,2016000,106987068,12
94496021,516748,60530342,67554,63421903,93239,260846,2040604,129491620,5977,97507690,1872,1795,336139713,915,0.38,0.02,36167624,32885000,2989000,50383319,12
135629571,7552350,109183963,478076,108681479,480487,687601,2468660,265382510,14359,133947263,14228,5487,472291872,2477,0.84,0.04,72217485,66190000,6017000,86589634,12
111525442,1131200,78777066,2158826,80586695,1914380,247150,2321156,219202583,11992,118933338,13185,8827,452358810,1948,0.72,0.03,59549504,57455000,2015000,73655809,12
325718555,1150564,202049817,576132,198617973,573070,308620,2626016,350188802,20012,323597756,17799,3066,961913246,910,1.18,0.05,97880081,94930000,2997000,112261293,12
322447545,1226364,201117148,568668,197067617,552676,313902,2116453,358846294,19365,323561993,17808,3758,961607253,908,1.24,0.05,96341073,92361000,4015000,110174772,12
97848524,341359,64338013,117013,64531490,142933,294415,1955308,122569551,8198,92326187,2499,2250,313014006,916,0.41,0.02,33257051,31170000,1948000,47489906,12
325871723,1126263,216238463,676062,214355886,668614,387005,3162090,376882953,16801,330295159,25060,6143,975218432,1940,1.32,0.06,101017792,97949000,3029000,115005681,12
323512759,1290872,214232208,630663,211296977,611494,332662,2830744,370557196,16259,330107791,22237,4636,975176342,1938,1.31,0.05,99728030,97705000,1993000,113921109,12
92840743,279497,63129350,105243,66335316,136674,179440,1406731,122142644,5744,92327493,4260,1965,300192453,525,0.4,0.02,33237550,31046000,2002000,47357152,12
92096476,359009,64759625,95790,65869044,118296,231877,1540001,129835581,5258,92342196,4192,3079,313563010,524,0.42,0.02,34881109,32564000,2035000,49164111,12
93605216,1300959,81103391,210920,79131566,191643,294351,2050578,153405005,9998,106265214,11295,4143,336159164,1947,0.43,0.02,44759837,40675000,3968000,58950741,12
324502680,1174172,214887310,618951,212147389,605706,336690,2862466,373516700,16048,330539821,23723,7309,966928329,1938,1.32,0.05,100813854,96736000,3989000,114969290,12
92058761,1165823,75903976,165791,73738540,130713,287289,1781178,149164932,9375,96284217,11832,4327,324983347,1943,0.5,0.02,40285379,38156000,1956000,54318881,12
361947968,1938237,230125892,788952,226262262,786459,775081,4068762,420439000,15219,364023525,10130,4635,1063319121,1692,1.48,0.07,113251027,107140000,6007000,127481166,12
180848736,15941955,130896807,465454,128369414,466012,1332559,4122471,423587779,28423,179205808,38648,9364,596030587,4825,1.27,0.07,114627292,111378000,3010000,128992327,12
394695441,10807989,261625802,1021183,265695744,1033084,1549179,6101352,716484947,44208,404009561,43735,12610,1190588183,6378,2.23,0.11,193225836,185202000,8008000,207421551,12
325983170,1117997,216152681,631294,214542226,630105,337978,3002248,371763743,15921,330088907,24332,5178,969929049,1938,1.29,0.05,100658504,98610000,1992000,114919483,12
143488667,1818740,102667607,2094112,107252761,1842726,1979638,5059833,357198068,98309,156020733,20156,29543,577850926,11199,1.09,0.06,96240645,85032000,11004000,110657857,12
91611938,1125189,75484407,146517,72943793,119860,305337,1767653,149922643,9181,95301751,9918,4312,334931553,1947,0.5,0.02,40071796,36963000,2997000,53904695,12
94437491,2562854,80082382,255493,77686228,232785,551699,2879942,165304346,15390,105576496,21965,16039,340607373,3748,0.55,0.03,44935092,36426000,8094000,58979443,12
315783120,513813,194425817,522135,194241385,527182,196936,1942417,347745062,11414,317962208,15488,3392,955297536,523,1.23,0.05,93794836,91631000,1991000,108030900,12
482317462,17047545,323144353,2757875,327860561,2540243,10628341,33470765,705159108,146146,483312164,54235,15682,1686573944,5598,2.45,0.16,189890979,182747000,7028000,204337314,12
329317531,28724475,237289608,978079,237585464,975887,4796987,12137445,941675708,75139,335614535,111773,23394,1138794616,15926,2.75,0.18,254155058,239075000,15004000,268464311,12
326502797,1157043,216006812,622534,214193019,618765,418461,3177816,373890703,16587,330947003,26714,8390,977341365,1938,1.31,0.06,101235436,94908000,5994000,115575750,12
328557019,2357823,200851498,742961,196429612,725389,605557,3524663,369694598,28265,327492055,14755,3220,960340975,1690,1.31,0.06,99931273,92745000,6980000,114279632,12
93537642,332680,63924338,111552,66513061,125901,189990,1366553,123084038,5931,93976601,3035,1839,301777535,526,0.41,0.02,33264153,31005000,2000000,47335262,12
142209127,9324058,104601335,443039,107059924,447889,822816,3124375,372734769,19162,141646880,17116,6264,446177943,3257,1.07,0.06,100585197,93475000,6960000,114794763,12
310074696,787829,199232423,548651,198377794,543664,226455,2109965,357744946,11521,313727108,14006,7457,926546917,1032,1.24,0.05,96504253,95307000,1003000,110692082,12
110863032,2182647,84881071,171791,87280588,201977,651335,3501169,176356451,11836,124745667,16398,7141,371614218,3749,0.58,0.03,48081017,43859000,3987000,62096660,12
173436324,12523473,144169001,517048,148359532,513608,1242935,4510943,443380391,28276,174917160,39317,8896,683694174,4811,1.3,0.07,121033772,115749000,4989000,135284056,12
325491689,4997305,191193459,400935,196435650,352609,3110107,9383046,412494891,24967,345519051,37605,27136,976545773,8018,1.39,0.08,112460608,103237000,9020000,126830971,12
145628482,1673557,91575685,176710,87224879,168355,813783,3700193,187170964,14584,132663215,8000,3218,438838857,2479,0.6,0.03,51021109,47708000,3045000,65271204,12
140546110,13863253,103036437,421663,103990987,426064,673528,2961515,328911029,15832,147418895,22401,6010,439871820,2477,0.97,0.05,88453863,86117000,2002000,102578371,12
106843286,1075882,80845096,2590671,83439594,2509579,274780,2467375,225808600,12268,111830501,11849,5338,440883990,1944,0.73,0.03,61510686,58151000,3007000,75665316,12
327773557,1039616,211765096,607992,211001077,617860,390091,3181321,387313518,16742,330759143,20873,7968,978726909,1939,1.34,0.05,103891118,100574000,2987000,118455201,12
329670232,1661975,210979089,749767,216082355,766728,531938,4961125,393666097,22314,319972816,33716,7874,973190467,3744,1.4,0.06,105790797,101516000,3981000,120008701,12
90590146,1113228,75337419,159870,72916393,126829,279925,1867560,151959209,8624,96449901,11279,4024,328358084,1943,0.5,0.02,40779530,35570000,4940000,55125379,12
331842156,2863992,219388732,769721,211534556,744760,1042739,4935810,421754915,26800,339717284,28914,9072,1008356058,6299,1.47,0.07,114216376,110941000,2998000,128550394,12
82986823,1246056,92637478,185822,93140758,163816,236731,2161376,165926631,10692,89625664,13256,4334,393911164,1942,0.54,0.02,45178058,40911000,3991000,59332890,12
95074946,290883,62936078,83752,64696059,119577,258817,2127630,122596077,6522,85791700,2212,1792,309458360,915,0.38,0.02,34655137,33299000,1009000,48911841,12
394668980,8993226,294387059,1581900,295894196,1599685,1164614,4807357,668900676,29065,409030094,40039,10398,1376367611,4816,2.21,0.1,180799312,176456000,4010000,195210263,12
395868538,8972190,257399994,985540,259903237,998173,1319943,5004230,671824308,31293,411806279,51107,26048,1202795935,4816,2.14,0.1,180561197,174264000,6009000,194873406,12
329797857,1036826,215167362,706380,214817913,715871,473902,3326791,383431568,17655,332686510,20830,5573,977050058,2331,1.35,0.05,103437111,100099000,3002000,117695984,12
90250785,642096,67749399,1416902,71507232,1143825,229199,2340501,168719456,12242,102872084,15975,6120,345943804,1907,0.55,0.02,45411266,41007000,4000000,59683883,12
90593108,2618445,79974472,187370,78892535,163040,467036,3060064,165082201,14886,101641841,20224,8026,339024477,3748,0.55,0.03,44854958,37358000,7067000,59213470,12
447768186,7361203,307843445,853256,310608870,843174,4093006,13107380,605893764,63170,448488451,57138,31632,1470813634,8630,2.13,0.11,163070841,154867000,7993000,177516624,12
92282047,2612904,80635748,190477,78113827,167637,465705,2782125,163658461,14445,102662882,21324,6841,337572571,3750,0.53,0.03,44752792,39477000,4934000,58679443,12
94653175,2593539,80234626,210431,77899482,184885,566712,2897363,165421176,14876,105216299,24364,6912,333369479,3749,0.55,0.03,44671360,39283000,5036000,58872846,12
91338614,2756990,79348666,186814,76948503,154670,474135,2827734,160420892,13378,100658304,21481,15785,344980944,3750,0.53,0.03,42875792,36651000,5943000,56963118,12
329636542,886189,212802066,587350,211669188,612615,368663,3257454,383531706,18035,328321857,24835,5145,974874566,1939,1.37,0.06,103875324,101650000,1993000,118245023,12
91827482,1145468,75378503,156425,72916297,127686,285692,1771771,149016281,9347,95586919,11705,10963,338040224,1946,0.5,0.02,39993587,33607000,6110000,53927075,12
94723195,213470,63067147,107328,65265404,141881,200571,1412833,122962206,6812,93691902,2746,1767,309667935,525,0.42,0.02,33456342,30350000,2937000,47387157,12
90533385,1193298,76969918,165304,78412566,154111,400050,2337372,163683450,10354,97612574,11287,4261,327948066,1945,0.53,0.03,43199123,38698000,4073000,57626857,12
326873795,1186609,214297765,644046,211678280,621522,329329,2815953,368831580,16682,331927842,16890,7076,978575318,1938,1.3,0.05,99731163,98546000,995000,113888830,12
30862869,146339,19203115,66286,17370239,68212,161802,935171,43506279,7385,29846283,2501,1235,101760673,522,0.08,0.02,26375717,20763000,4943000,77657129,13
75592999,158353,45027022,64276,46235269,53377,85906,639695,86219229,2927,79274075,3443,1113,228247964,128,0.3,0.01,23259690,22035000,1001000,37169963,13
83343891,506722,51614805,94960,51584302,91668,178195,903933,97777092,7053,88987864,3766,990,259448368,518,0.33,0.01,26209271,22959000,2994000,40014720,13
36178246,137637,24175437,52993,24282572,53576,98990,664880,50108519,1667,40209253,323,394,127906625,133,0.15,0.01,13347987,12116000,1009000,27279732,13
77562847,143527,44646357,66206,45042555,55889,90392,646152,85999644,2977,78704786,2593,1103,225804896,130,0.31,0.01,23266252,21051000,2004000,37069040,13
76630385,164009,44746387,63105,45154997,54935,101888,708152,88432145,3106,80246212,2411,1106,231581874,128,0.31,0.01,23501875,22126000,1005000,37276043,13
32103848,346693,25764099,87954,25378672,89081,132220,766535,48498678,3050,35880306,3502,1587,128458978,589,0.17,0.01,12909798,11596000,1054000,26975621,13
78748760,116346,44563287,64096,44616953,56714,93963,668644,85642607,3411,79195996,3097,1095,227347940,129,0.29,0.01,23457783,23178000,0,37679797,13
32330909,490539,19872379,63776,19874511,65763,167157,949244,50510398,3105,41089436,504,374,126936798,526,0.16,0.01,13258327,12048000,1004000,27460451,13
78763417,112099,44479994,63612,44359879,56677,93221,662584,86278569,3160,79882572,2020,1170,229480132,130,0.31,0.01,23653293,22319000,1014000,37533172,13
29202359,166347,16112864,60073,16190297,59889,130616,583563,40589088,3106,32389515,778,726,98904125,329,0.13,0.01,10998245,9712000,971000,24886245,13
78519033,125606,44718406,64812,44657764,57358,93003,677182,87301215,2886,79459920,2408,1115,228305491,127,0.3,0.01,23732367,23482000,0,37968168,13
80773886,314651,48865926,73508,48826462,68410,126790,798308,95749248,3613,86301755,3052,1277,257666439,327,0.34,0.01,25585125,21435000,3897000,39612475,13
76911536,152387,44604122,63852,44587237,55958,88350,668147,87003546,2569,78927641,1728,1143,226796448,127,0.31,0.01,23720366,21459000,1950000,37639977,13
25065544,162694,15357167,61402,15484501,50544,84188,457832,38035223,1187,29566951,630,797,92094207,135,0.13,0.01,10156001,8894000,988000,24262527,13
78179962,117298,44040820,63446,43985638,55762,94117,657891,86542183,2918,80362422,1856,1221,230101536,128,0.31,0.01,23333862,22114000,961000,37579198,13
80434807,316722,48881007,71426,48887115,67351,151997,797638,96723611,3752,86777806,4293,1682,259312189,324,0.34,0.01,25895237,23644000,1970000,40034663,13
28448262,129979,16061257,60660,16121390,60368,96021,506918,39087908,1324,31103045,647,754,94736364,133,0.14,0.01,10509060,9213000,1023000,24502736,13
29065017,121280,16478359,59934,16405709,57360,101097,532539,38154704,1431,31052693,691,704,94946521,135,0.12,0.01,11012263,10684000,0,25098820,13
76991333,160048,44953910,66102,45023871,60428,128674,731190,88266987,2868,79019607,3821,1176,227439795,129,0.31,0.01,23641506,21486000,1953000,37543584,13
81983219,490822,48106559,73866,47908061,72446,160859,1113285,98354393,4243,90287182,3008,721,257918419,520,0.34,0.01,26730112,24382000,2031000,40835604,13
81194432,324869,49819289,75361,49276436,65327,123194,758693,94300160,3134,87031370,3429,1378,265478910,325,0.33,0.01,25179244,23977000,999000,39549504,13
27279021,147460,15592013,62577,15657565,58436,97888,503216,39972689,1257,31484509,626,807,98544613,133,0.12,0.01,10464650,9089000,1009000,24244848,13
27792225,173777,15911359,60139,15879146,59851,123903,564658,41417969,2190,32767604,771,753,101605664,327,0.14,0.01,10943867,9743000,974000,25070193,13
82211180,312812,50048637,76080,49864531,69329,129221,779576,94798862,3320,87913157,4159,1299,265298742,327,0.33,0.01,25342773,22988000,1998000,39383546,13
28822309,122136,15608519,61878,15508580,57102,101893,517669,37626022,1462,30779405,584,746,93263629,133,0.13,0.01,10199287,8857000,984000,24297595,13
85084324,264893,50040949,75303,49791519,72882,133694,786836,91904848,4044,87274683,4957,1181,265331174,325,0.33,0.01,25334872,23025000,2002000,39345911,13
84197370,258822,52215231,91613,51833625,91759,146614,975576,94132458,6263,88964035,5608,919,258640505,323,0.31,0.01,26643027,25287000,1011000,40810906,13
82892835,268902,51562723,88153,51609718,88252,136520,894094,95570883,5429,89352647,3668,889,257960503,322,0.34,0.02,26282677,25918000,0,40448748,13
78211728,119877,44500529,61714,44476556,54802,95318,654799,87450569,3075,80422831,3177,1088,231277933,129,0.31,0.01,23564464,22290000,1013000,37661623,13
28735145,115462,16105831,59115,16040535,56676,100226,512310,39003010,1407,31366493,796,766,97817123,136,0.12,0.01,10585787,10357000,0,24657054,13
728074,102702,2852603,29819,2712442,29758,76807,370696,10556579,2382,522558,?,?,?,228,0.02,0.0,2520574,2242000,0,16649845,13
84292610,290980,50151406,76359,50112769,76458,141850,900375,94976540,5593,87450651,6803,2365,265700066,328,0.34,0.02,25603435,25298000,0,39773967,13
79092359,170866,44989923,66263,44903694,59446,122221,752037,89420839,4766,81580233,5314,1177,236039837,323,0.32,0.01,24022711,23821000,0,37964621,13
34712159,130229,25831661,51023,25821472,50916,100044,646760,52988003,1737,38123681,454,456,146520706,133,0.19,0.01,13981324,12807000,985000,27745642,13
32525619,501158,20199679,68003,20173881,68564,167612,946817,48997113,2973,39653252,387,374,128957280,527,0.16,0.01,12955997,10811000,1965000,26747037,13
27443717,152908,16453151,57688,16511983,58625,93714,504666,39728161,1336,31827755,757,781,99042710,135,0.12,0.01,10789354,6722000,3841000,24697767,13
32104916,337644,21986182,69653,22461031,69240,126479,868619,52719476,3759,38400306,4293,1930,130703906,591,0.17,0.01,13769353,11562000,1927000,27735730,13
75402753,156446,44549365,63974,45422852,54681,89240,633555,88356934,3145,80440185,2580,1556,231161883,126,0.31,0.01,23441919,22163000,1007000,37377321,13
82192004,122067,45558887,66089,45532743,62194,120625,754024,89133346,3817,84240959,3198,1298,239376599,325,0.32,0.01,24269255,19000000,5000000,38393617,13
28839583,112011,15616100,59603,15529841,56367,100378,498587,37870672,1462,31223663,712,732,96532706,132,0.12,0.01,10357839,9242000,924000,24353349,13
80101689,88483,44648319,62050,44707932,59504,96941,677706,87563652,3474,81577422,4807,1100,231196430,127,0.32,0.01,24047969,22740000,988000,38143739,13
26249263,149369,15477862,57269,15588150,51716,93301,476989,39662320,1361,30578847,726,843,97108386,135,0.13,0.01,10470287,9190000,1021000,24492209,13
28239306,140558,15480073,64664,15504393,57560,103418,513082,37076439,1341,29945680,606,759,93401892,135,0.11,0.01,10074925,9864000,0,24027483,13
81600429,320925,50011727,74159,49918862,67021,117494,778301,94104624,3339,86976423,4920,1280,265744814,324,0.32,0.01,25352436,22059000,3008000,39396744,13
76585466,152077,44753691,62934,44695005,54345,87545,645386,89254248,2494,80027660,2933,1547,230580579,129,0.31,0.01,23838527,22634000,984000,37693329,13
76390340,156712,44505939,63830,44854091,56129,113456,718509,88640098,3520,80437301,3954,1718,229888556,128,0.31,0.01,23542297,21418000,1947000,37467728,13
76821654,147152,44852737,60980,44707030,59835,101579,689602,88354693,2911,80315785,3289,1392,232074167,129,0.29,0.01,24301347,22055000,2005000,38100135,13
76365319,153316,44775803,62645,44894959,53782,90944,641323,88221006,2539,79503882,3364,1156,228905796,128,0.31,0.01,23791108,22617000,983000,37663064,13
29066044,238578,15845281,62886,15715872,59595,153574,617608,41502214,2670,34042032,927,1195,103353690,526,0.13,0.01,11101938,9909000,990000,25159583,13
29841792,501938,23488290,80116,23436698,76879,143300,876072,50553336,2487,38128366,3103,1409,115437345,523,0.17,0.01,13573314,13356000,0,27633353,13
88145734,259675,54000578,267704,52330155,268194,160475,1392889,109974755,9634,83857489,861,211427,253079397,519,0.38,0.02,30240378,27907000,1993000,44304866,13
78996662,328486,48798879,72424,48945663,66887,137931,775822,96836046,2929,86619280,2822,1449,260184812,325,0.33,0.01,25956671,23793000,1982000,39894038,13
40898771,193324,25829924,54669,25696545,54778,172473,824662,50980258,6079,41078915,529,448,145795580,523,0.17,0.01,13519021,12326000,1027000,27580900,13
76071396,153035,44945656,65123,45206726,56691,94578,670135,87278263,2577,78892447,2094,1132,225941320,128,0.28,0.01,23891592,22712000,987000,37843121,13
81630218,323913,50216552,75086,50209231,67224,128126,767716,94190920,3193,86364303,5795,1267,261135969,325,0.33,0.01,25501678,23269000,2023000,39250877,13
74441767,154496,44759772,64187,46051839,54831,93947,658144,88309670,3217,79024425,3210,1236,227405015,129,0.31,0.01,23664413,22408000,1018000,37749392,13
77135608,140554,44393191,64353,44507906,54832,96264,662926,87087340,2790,79175888,1464,1124,227175195,129,0.3,0.01,23344877,22162000,1007000,37358904,13
75690072,157060,44891953,63329,45837998,53735,92713,649556,87539409,2867,78861623,2640,1115,226647741,129,0.31,0.01,23590297,22354000,1016000,37529685,13
74864863,154638,44211168,62163,45471821,52715,85207,625789,87086545,3248,79265329,1697,1151,227230539,127,0.3,0.01,23241962,20995000,1999000,37457740,13
78905798,116982,44512429,64747,44389072,55403,93156,659026,85178461,3298,80561894,4251,1145,230189719,128,0.29,0.01,23366064,22120000,1005000,37613485,13
79306944,197059,44373277,66107,44128314,60106,153987,832573,91303215,6059,82225560,2712,1423,234943302,518,0.31,0.01,24551671,22288000,2026000,38622686,13
74657316,156082,44879807,63534,44937059,58920,97538,701753,87656188,2934,78816305,2014,1225,225370341,128,0.27,0.01,24859472,24652000,0,38894331,13
77742189,125910,44134946,64889,44158827,56807,93642,664101,87571953,3072,80010722,3907,1161,230032026,131,0.31,0.01,23329791,22096000,1004000,37402571,13
78271572,114962,44728788,63450,44813169,60185,92657,676087,89680607,2958,81265671,4355,1160,230575688,128,0.32,0.01,24306994,24109000,0,38420402,13
35422004,184098,27820148,36986,27836543,36970,78647,682778,54131811,1461,38603443,625,467,150018094,261,0.17,0.01,14466269,13246000,1018000,28332740,13
25899733,160472,16222765,59842,16229248,51719,96161,477852,39346403,1047,29623106,719,787,93588086,134,0.14,0.01,10484721,10272000,0,24455544,13
76170699,153293,44893945,64334,45190585,55443,91105,652111,87757382,2704,78951229,2594,1173,226508045,128,0.3,0.01,23676417,21526000,1956000,37854478,13
25981396,156829,16134386,61236,16253718,51782,89058,468795,39229668,1144,29681573,652,768,93656584,134,0.14,0.01,10440795,9211000,1023000,24589366,13
75819433,157585,44990720,66339,45626069,54350,94598,659065,87984357,2967,78927215,3246,1405,226810288,127,0.31,0.01,23703755,23479000,0,37665412,13
79381111,532455,52336960,91015,52175431,75936,145999,784556,96795273,3786,85705110,5086,1851,253747839,518,0.35,0.01,25951846,24663000,986000,40308730,13
26896663,157657,16065798,59137,16050666,53052,93398,476117,39027192,1274,30736377,803,883,98020068,132,0.13,0.01,10422605,9177000,1019000,24103504,13
75781763,160227,44404000,64614,45570997,54086,88479,644021,86702820,3105,79436181,2747,1223,228952660,126,0.3,0.01,23194975,21851000,993000,37594886,13
82657357,501479,48355379,73586,48376766,70372,168554,866201,97032218,4341,89239200,3544,1055,261071318,519,0.33,0.01,26242096,25979000,0,40180510,13
26163333,154137,16280768,60589,16329678,62282,267159,707958,42954083,1344,31363737,731,768,99882914,133,0.12,0.01,10814053,9372000,1041000,25024886,13
28950969,116399,15799766,61115,15853118,57402,96440,499915,38546761,1492,31556433,813,850,95634004,140,0.14,0.01,10395838,10119000,0,24594421,13
83433421,367264,51535686,75373,51007257,75416,139060,1044441,98813053,4535,87202348,8725,2148,263654832,779,0.32,0.01,26819061,25545000,1021000,40939841,13
75816871,156514,44765080,66457,45069693,56519,97174,669502,88172689,2848,80210312,2638,1333,230590799,127,0.3,0.01,23675046,21499000,1954000,37296120,13
79149958,168262,44779759,67866,44639078,68685,141094,798446,91218459,4771,82702707,3991,1149,235995568,324,0.31,0.01,24570959,22370000,1945000,38565505,13
78626882,336956,49071515,76859,49225764,70316,131830,808453,96686475,2849,86128211,4174,1199,259030492,329,0.34,0.01,25895024,24594000,1024000,40026291,13
130263022,2720931,184051113,18271589,179040253,18490248,461429,5861647,660503698,27278,123445814,26344,26506,842001854,4205,1.92,0.1,196450502,190052000,6001000,265836455,14
129398291,9602054,214476191,18300620,221132796,18069078,2274706,15541628,753742615,48071,131482136,56528,14669,909858304,8302,2.3,0.13,203475341,193146000,10007000,217746455,14
90161937,236223,125343849,13281254,125537435,13350009,143810,2415233,603179072,17201,90073464,2761,4859,533414106,136,1.73,0.08,162774497,162574000,0,176683199,14
31901931,113168,13919400,124066,13937539,122683,92561,651757,59851824,3559,33375405,206,406,100187474,135,0.2,0.01,16042286,14784000,985000,30030113,14
88665463,276932,132113590,13239549,132132219,13277940,115973,2413102,596020435,17348,88120207,2780,5338,570996893,133,1.67,0.08,162353163,161089000,1000000,176534123,14
96299573,16843141,181644299,17158346,181375301,16981740,1687651,15795760,708518810,36602,93431393,31523,11752,834927051,6284,2.12,0.11,191699723,181326000,10018000,205932761,14
86445624,272342,125119756,12970401,125499406,13014291,118711,2509728,623539130,16116,86901791,2231,4135,494321452,136,1.77,0.09,168759156,167540000,997000,182604872,14
155911677,17499773,261478554,17850563,259961417,18337098,2481503,10268593,838293670,48063,143974456,40254,26118,1081772042,8304,2.49,0.14,226092425,211746000,13983000,240378340,14
119226064,12152733,186487044,16527761,183124759,16382063,1887113,13906604,676190260,42941,117835236,46395,13571,931195700,8298,2.03,0.11,182587830,162219000,20027000,196617016,14
86249101,263763,124496200,12860354,124432635,12886275,120824,2561571,615070064,17721,85807533,2233,4491,491888195,136,1.69,0.09,170037613,168771000,998000,184209468,14
86756184,3099893,170472585,4163861,166258764,4266119,521747,3641867,326763097,22920,90085500,14002,8343,673827192,2183,1.03,0.05,88306806,83909000,3995000,102359565,14
86472578,3760427,164014138,3894316,165142956,3766910,1336446,4910866,330396150,24798,81556477,26166,7189,622531267,4230,1.03,0.06,89327930,79946000,8993000,103474501,14
127007109,13675224,242501522,17945510,245122841,17427273,2359090,10920886,753451614,66459,134283771,42797,17729,993287677,8304,2.25,0.12,203476662,192129000,11007000,217565496,14
126810960,13725623,243210489,17961043,245117458,17364653,2302762,10870957,750756638,65858,134542142,42766,15951,990904172,8302,2.25,0.12,202976100,189661000,13045000,217091399,14
62577564,1594196,25664879,145168,25095856,144144,1634234,2246965,159432956,23411,67955100,34274,24319,190720887,8519,0.49,0.03,43063801,27770000,14876000,57440345,14
88700292,2847990,101154419,2905956,94301717,2975274,1242190,5381978,258998555,23740,86184455,30833,8583,510450275,7148,0.79,0.05,70072114,55614000,14156000,84164346,14
235739619,20628407,298152640,6357521,288412918,6471706,4057192,14189193,625148651,69482,215011341,55428,18597,1398545540,10350,1.99,0.12,169357420,150972000,17996000,183592037,14
93031173,12752207,196317645,16535009,193095803,15798938,1867719,11629653,636848472,51848,102309900,44502,11328,781161944,8297,1.9,0.1,172257171,157953000,13995000,186498524,14
70496056,1485588,162942702,16371391,160539682,16414611,384657,3984101,550005387,19208,71878254,8317,6527,549844287,1604,1.56,0.08,148657713,143397000,5013000,162686267,14
136937897,19286495,228060200,16731077,228101097,17117021,1531770,15379456,796331583,49614,139780975,50762,20159,905574553,8305,2.42,0.12,215328904,204050000,11002000,229620025,14
234092354,24416651,287371580,6650842,287964421,6398908,4062527,12360469,645152543,67685,229262868,51463,15353,1395132429,10351,2.01,0.13,173805071,160630000,12970000,187851501,14
102516556,20619286,252468263,17814921,248504528,18049293,992413,17143931,742630733,41926,102282219,20425,9649,948633506,4229,2.22,0.12,200361983,191070000,9003000,214430336,14
16434627,699487,22465024,59264,19711629,60752,572345,2134032,46231330,7461,16615465,12170,2571,105845310,2307,0.14,0.01,12318938,8055000,4027000,26417392,14
29379643,676946,15883239,98625,15065439,100075,742825,1831102,110967445,11597,27343794,8987,1449,107914337,2182,0.33,0.02,29822753,25604000,3939000,44087769,14
100503556,23549979,207728326,14988289,206129605,14623286,979388,14906120,723815542,41343,103440808,10891,5914,885718242,2184,2.15,0.11,195949347,190639000,4990000,209972508,14
110121691,1606189,220582130,15910275,224609710,15551841,746687,5013597,647151129,24806,109962988,18756,9533,862225600,3628,1.88,0.1,174257919,167144000,7006000,188334445,14
73549311,1555489,134115963,2451785,138292220,2407314,381639,2690421,232756029,16701,74790627,17577,6392,490216691,3347,0.71,0.04,62990528,56717000,5970000,76875671,14
57370558,1609606,30482195,316950,31599590,319591,1029673,2962623,174861373,21654,60904498,24603,25434,196390891,8303,0.55,0.03,47553862,33218000,14092000,61726082,14
156204080,13354684,170122423,4862477,171644231,4672633,2630122,10093229,433396109,56735,146019581,59376,21732,809588261,8302,1.37,0.08,117083867,105813000,10980000,131091085,14
85698521,20166350,163053219,4102770,162121311,4291151,1268899,16488822,364857339,23727,85704645,26391,6863,593978421,4229,1.15,0.07,99365785,89141000,10015000,113477860,14
149111817,17733839,279923332,18054653,272381022,17838550,2957301,11131745,829012892,67850,154532356,36011,15031,1161114789,8301,2.53,0.14,223715386,216596000,6986000,237925668,14
576930212,16952301,527559495,6569824,533546449,6510459,1950782,10094590,1003426238,48775,581670999,48837,25573,2453660812,6283,3.41,0.16,270656714,261690000,8989000,284773731,14
85223380,264618,124343602,12809028,124559778,12854147,148783,2441970,604407707,16843,85744944,2756,4621,489011456,135,1.72,0.08,162844552,161756000,998000,176905485,14
161519084,17298078,177548659,4950443,177718022,4972650,2602733,9759324,462394811,47621,150868528,55741,12399,890093621,8295,1.49,0.09,124429140,112254000,12027000,138763098,14
63511303,2794057,92312898,2552079,90512606,2560137,1384769,4860221,243877639,24506,64680574,30373,9105,426705443,7170,0.76,0.05,65956170,58639000,6957000,80069075,14
151674612,1601713,219683330,3498236,210308143,3662404,642764,3551439,373181978,17345,152497678,19338,11173,1013686603,3340,1.14,0.06,100939100,96770000,3990000,115194088,14
79653441,6172129,134959426,12784147,135312397,12613701,5848378,8005837,710436712,91643,88472480,154714,116601,530866265,35216,2.1,0.13,191458544,139168000,52063000,205608509,14
85777150,285918,124748330,12829588,124629717,12836984,118119,2384791,604534247,15554,85769509,2782,4920,490054883,135,1.71,0.09,163991536,163877000,0,178258011,14
191051769,16383259,260646945,18681722,263524086,18028928,2598689,10597576,808641135,60053,191982595,55158,27886,1181792604,8298,2.42,0.13,216846466,205711000,10984000,230926578,14
190068986,16757970,254732277,18921543,260093955,18626267,2542884,10734069,803779246,49518,189093929,56432,15451,1152099685,8301,2.42,0.13,216999019,209836000,7028000,230996748,14
42040830,241103,98078662,12999113,98016751,12976203,167128,2220589,489836609,13802,42200174,1955,4172,386766520,135,1.38,0.07,132601967,132360000,0,146776834,14
169471039,17600005,254398316,19454346,255987227,19215033,3124178,11389214,813261782,65777,176189854,33843,18743,1171527761,8297,2.42,0.14,220203325,206057000,14003000,234448278,14
148242294,15809517,263371825,18428342,262704856,18032665,2638760,10595688,796726555,59223,150422047,51594,14735,1063201087,8297,2.34,0.13,214616166,204506000,9975000,228674022,14
111235832,19679517,212892381,15708584,214189670,15676537,2436772,19266310,738964179,49572,116816909,34239,31561,850229477,8303,2.24,0.12,199220323,192044000,7001000,213208857,14
190142769,16335164,261930558,18432971,264175911,17715372,2529732,10620801,796331188,59138,191180598,31602,31576,1193964835,8296,2.4,0.13,215681592,205447000,10021000,229974539,14
156059952,16921786,175503094,5103667,177617010,4923737,2805148,10359609,443422228,48860,151385520,41625,12599,884839558,8300,1.4,0.09,120639128,113291000,7018000,134674128,14
172565615,17912158,266174402,17394054,261305074,17748120,1968732,9882063,830855109,54771,165163498,36005,16436,1135920903,8301,2.47,0.14,226397941,217162000,9006000,240675888,14
192773207,17883212,286995877,20047813,276012041,20403526,1408007,8994749,764124231,62300,194935630,48199,18593,1143488757,8302,2.31,0.13,207031645,192745000,13981000,221218994,14
40329202,230564,119484543,12647692,120795052,12680655,103147,1933598,494857591,13512,40382790,1485,4114,392933089,136,1.42,0.07,133983543,132737000,998000,147959205,14
130730997,11388534,134645741,5083113,135293903,4936654,2709747,9853217,396899608,44291,126679817,59215,18053,678616933,8303,1.28,0.08,107522679,98147000,9013000,121509923,14
83308055,2412371,80556049,5020827,87389764,4710554,1102429,5947335,278869966,22433,94247287,25299,7707,392059529,4203,0.86,0.05,75764097,69479000,6041000,89815150,14
193200818,16212515,254553846,18792006,258276030,18421597,2375722,10458300,861867831,58257,196769979,44245,14890,1327976595,8296,2.6,0.14,232479515,223285000,9011000,246688462,14
147486357,17228723,253097399,18138077,252703814,18507890,2576586,11824051,869551650,49239,147786275,47132,28656,1050613325,8302,2.64,0.14,234700062,223591000,10979000,248649289,14
135994911,19669141,230732300,16755324,225053101,16549019,1887352,15748688,739190507,50064,139913586,34082,27186,1050147601,8309,2.24,0.12,199792713,190545000,9025000,214071715,14
89149106,874288,109132118,13266300,109207099,13123308,922142,3043070,524409790,28452,89185203,20499,8394,555175979,4264,1.54,0.08,141211560,134993000,5999000,155369716,14
152515155,17757732,179747566,5067908,182914749,5031727,2958925,10528040,451756672,44068,147074676,49145,13152,881278962,8302,1.45,0.08,121713944,112429000,9034000,135994017,14
197914676,14772389,295390551,23835958,298021884,24100084,3954648,13464887,1000664013,66125,195145849,51964,21132,1224270099,10349,2.9,0.17,272305550,259013000,13000000,286583125,14
38383238,227977,95891112,12634718,95856222,12643240,114788,1918354,456125000,11688,38153472,1900,3348,319861301,134,1.28,0.06,122898970,120690000,1994000,136990454,14
154662930,17647938,262712778,18491527,254211219,18694769,2209391,9954022,833358093,57940,147549509,44997,13356,1209308442,8301,2.52,0.14,225274970,218072000,6970000,239657924,14
100002443,1825720,139196711,13456969,136026626,13188532,3797729,6264432,653016192,60684,100564411,107982,26161,565613218,20356,1.87,0.11,176728760,150447000,26077000,191068295,14
171572831,18780403,301185828,18349436,299624801,18211416,2365906,9889956,847462411,50686,168883643,51778,14716,1237208836,8301,2.52,0.14,228313237,220020000,8000000,242329795,14
157960231,5211911,227715782,18245936,230851439,18436968,3134383,11132361,798675996,59127,148894079,47365,16242,882709160,8302,2.4,0.13,216387518,205074000,11004000,230751643,14
77974969,1671124,91485474,2853646,93690466,2889142,450860,2910458,234492916,14790,82850765,22551,5449,462150194,3621,0.66,0.04,65824847,59589000,5958000,79934266,14
135213491,19382370,221852210,18229342,223972219,17739852,2506523,21022295,864425751,52562,138852469,43203,15044,979536258,8303,2.62,0.14,232788182,220534000,12029000,246922758,14
147756213,17277150,264081456,18330650,267613040,17903207,3054443,11453130,827622824,61800,155384771,38137,25698,1188125638,8301,2.46,0.14,223120198,213788000,8991000,237262944,14
122819338,16316057,149935599,3154933,152173749,3277047,1779408,11832550,361954240,30151,115571231,50000,11253,709940219,8301,1.16,0.07,97517451,82260000,15047000,111737689,14
147917732,16100200,263918760,18156836,255893755,17421094,2658034,10614694,790441087,62500,149357463,40722,25618,1059090110,8296,2.35,0.13,214210047,200982000,12998000,228462308,14
84413797,825038,118875174,1690012,116200879,1604466,202684,1785592,193132329,11194,88413370,14645,3757,516787499,1743,0.6,0.03,52077830,48727000,3045000,66042882,14
106462066,22397567,217367861,17938911,212759041,17369749,1113102,19738295,751574109,45123,110775323,21583,14804,852123163,4237,2.29,0.11,203323821,192094000,11005000,217568188,14
131890089,3756740,123323634,3466758,113657053,3633967,1920467,6861043,352434551,40326,120565311,76173,25022,679227160,12136,1.1,0.07,95172241,73898000,20971000,109323557,14
52426715,217307,101157099,12917475,101364632,12973239,124659,2043770,466525010,11976,51844745,1570,2890,328763339,130,1.3,0.06,125689836,125448000,0,139694170,14
36527514,332955,56780667,6294335,60967475,6043266,501996,1914515,227856015,12809,46193467,10428,7513,240733126,2303,0.66,0.03,61331960,55048000,6005000,75629703,14
78079882,3461358,59689976,3591209,57900708,3588557,925217,5021474,247458562,29019,81498737,37534,14602,368922924,7146,0.78,0.05,67061801,54741000,11943000,81211921,14
112780533,17854460,230670333,16737798,228907925,15824342,1789016,15083364,697925128,52785,122857314,43812,16563,896560664,8301,2.06,0.11,189394772,175078000,14006000,203515146,14
113550871,18395150,224246948,15926423,222041792,15815020,1658711,13154862,734913882,47278,114377838,31452,15957,1035759573,8298,2.22,0.12,198562584,184256000,14019000,212727791,14
36103705,196459,80075444,11320436,80642732,11307778,115381,1686216,364263013,9509,35447552,1118,2582,291945242,137,1.06,0.05,98215254,95978000,1999000,112217806,14
251782933,739280,222185236,7460774,221437011,7469295,341128,3621628,617510147,18714,253168459,12147,5011,1360952280,1192,1.96,0.09,165626355,163232000,1990000,179859664,14
145274752,15816718,259979917,18543210,263071216,17932697,2658364,10551574,796463901,58596,149484468,48685,18589,1062339100,8302,2.38,0.13,215698736,205403000,10019000,229950583,14
74875409,1641291,185847587,14227605,185023302,13925668,843642,5370925,698253962,28599,78928225,16585,8359,787969138,3346,2.12,0.1,188531229,180960000,6998000,202651824,14
88971869,2701937,104635830,2660861,99500716,2826203,1227204,5038441,267182197,24802,88721613,46598,16881,493983043,7146,0.85,0.05,72546976,63359000,8909000,86909535,14
115051033,621921,82174586,1671199,79455501,1812104,290059,2272355,194943719,11829,112366800,9347,5155,373644609,526,0.52,0.04,80833445,72804000,7078000,144610757,15
111924188,4986826,120330021,2655471,122361306,2672564,2865892,12136467,483778290,413643,116780296,22783,7906,513600407,3260,1.45,0.1,130942320,122569000,8037000,145265735,15
108446759,553679,77702286,1733769,77617954,1614932,238321,1586284,198440854,6570,113919215,3195,2379,358362503,526,0.63,0.03,53274381,50870000,1994000,67555786,15
108560917,1219018,80998822,1642718,80408535,1691244,350119,2224526,200346347,8170,120785784,7423,9029,365247137,1945,0.63,0.03,54657013,46331000,8057000,68860941,15
113837776,722259,75302688,1656511,75266305,1845395,269422,1829192,195516943,8099,120973146,5223,6899,365867487,1042,0.64,0.03,52246654,49956000,1998000,66245303,15
130203589,924217,83252452,1691177,82204078,1524614,289075,1951745,195658086,7580,131323186,2195,2412,403998498,917,0.65,0.03,52999367,48637000,4053000,67222677,15
419097892,660930,262315633,2121197,262802800,2001205,253948,2615278,507570663,14470,425496215,16255,4972,1226359190,520,1.79,0.07,137223810,131912000,4996000,151557759,15
122777702,1312294,87301285,1735721,83620002,1732577,538860,3569783,212114396,20609,129258303,4459,1913,441271485,1694,0.65,0.03,58584789,54231000,4017000,72918010,15
433358068,588688,272159240,2015504,273810104,1845214,227861,2497430,502740282,15220,432262131,13300,4595,1278307655,519,1.79,0.07,136709794,134411000,2006000,150949189,15
102325469,540208,104585456,1765030,104978055,1597497,209816,1733579,202424742,7656,104481791,6347,2695,462963489,524,0.67,0.03,55737729,53474000,2017000,69839262,15
436787793,1024659,269151718,2368581,269704157,2337944,322846,3435248,522673299,16961,451918473,13617,4999,1266246214,908,1.83,0.07,141563420,141316000,0,155732031,15
120106730,696613,83385106,1654669,83508552,1665424,258501,1841296,203543589,7665,129213435,4878,3598,408793916,1044,0.68,0.03,54766170,54491000,0,68955386,15
113565610,552005,81305524,1771081,81776364,1568345,250527,1737493,203241690,6862,120678714,2086,1790,401039503,526,0.66,0.03,54897364,52615000,2023000,68884298,15
420888305,633295,263179088,1993064,263733665,1954064,217152,2647575,493970070,15748,423876574,12137,8055,1228325407,520,1.72,0.07,133893852,132634000,1004000,148073794,15
112047705,952145,77804893,1909009,76102988,1833045,281448,1887364,188809077,8023,115670575,2081,2352,369109220,916,0.61,0.03,50922400,47662000,2978000,65177197,15
109947615,719040,78873375,1707605,78785693,1865013,244761,1691729,197206955,6636,119113979,5624,3386,367157640,1042,0.64,0.03,53048486,49702000,2982000,67391200,15
91944631,566777,94885786,1779427,92214809,1819918,193520,1494093,184036391,7967,95727675,7410,3409,428394191,523,0.58,0.03,50418168,48118000,2004000,64462751,15
94143681,548804,98080624,1821479,98947511,1757339,190561,1435221,187930453,7214,97042190,5409,3017,432164357,524,0.62,0.03,50937521,49738000,994000,65055112,15
428242809,618933,262840092,2275662,263809280,2170617,221676,2664049,489550807,15262,430362157,15633,4555,1243912120,520,1.74,0.07,133277120,131033000,1985000,147576916,15
450723429,5657808,290267611,1358651,292626193,1359062,1944693,14114620,720087681,264659,451881020,37676,8721,1331266619,2474,2.37,0.12,194196736,188839000,4969000,208508088,15
419612389,646502,263108252,1991523,263992358,1942603,221574,2632712,494965016,15184,424526970,14418,4852,1229388987,518,1.75,0.07,134237457,128926000,4997000,148357983,15
112351469,503423,78182766,1635030,75500644,1655365,217330,1493013,186778761,7445,114194635,3016,3752,365907547,526,0.62,0.03,51210608,46866000,3988000,65096614,15
113145079,717033,78077745,1710144,77631607,1791313,224488,1642324,194500782,6709,120787557,6009,3696,384656147,1043,0.63,0.03,52061564,48794000,2987000,66126988,15
113759945,744217,76237774,1696675,73242696,1999974,220050,1675498,189729890,7399,121724889,5760,3689,373010546,1039,0.62,0.03,51127021,49746000,994000,65436888,15
110472385,967384,76651794,1690986,77447614,1633156,356076,2027739,195384697,9299,115491175,9359,2462,365339880,918,0.63,0.03,51383766,48137000,3008000,65363800,15
445897509,5591355,280686671,1372395,282071259,1373390,1902110,13194368,712710566,267602,441834364,29903,9285,1301015836,2472,2.35,0.12,193025312,186543000,5985000,207547132,15
423523027,1214570,262133025,2231674,262298091,2239894,396247,3216523,508166060,15970,431747438,14735,11187,1235650195,1937,1.81,0.07,137874143,131470000,6021000,152124612,15
109347885,745851,74897057,1782725,71944746,1824506,197989,1681016,186232159,7925,117606144,8532,3370,357177585,1041,0.61,0.03,50889300,50631000,0,65029899,15
423202869,1205425,270771609,1850641,273895767,1782521,236979,2804259,506291629,15503,426369050,19450,7262,1273216518,909,1.8,0.07,136353985,135224000,1001000,150354716,15
109166175,708199,78769219,1694184,78673967,1685352,255359,1679522,199532812,6766,118275365,5174,5505,363954828,1042,0.64,0.03,53770269,52531000,1010000,67974121,15
113728315,930014,76923221,1831845,73384403,1754213,283837,2090165,187023274,14960,115008176,2973,2282,371127345,916,0.62,0.03,50495915,47224000,3014000,64784367,15
129342808,908653,82754247,1674214,82701663,1518700,315455,1955595,196016127,7593,131799196,2014,2336,407376260,916,0.66,0.03,52545379,49298000,3018000,66808679,15
110586025,536155,77726583,1785078,76531904,1882881,223698,1524207,190453975,7054,115070830,3052,2344,361858185,525,0.62,0.03,51402653,50163000,1003000,65768185,15
156506994,2091507,118402054,4531926,117008188,4774613,399408,3560980,314690664,11291,163363734,13423,9284,550386941,1698,1.01,0.05,84928928,82661000,1991000,99136682,15
127321188,1211261,82160836,1647557,82621334,1650813,357904,2251465,203554915,7885,137743168,7601,4946,405203041,1944,0.68,0.03,54670537,48484000,5936000,68857853,15
450571870,972434,262900891,2229472,266235091,2015404,353855,3413318,529235546,16746,461277497,14426,4649,1309677636,909,1.88,0.08,142876290,139632000,2992000,157093072,15
428124125,643459,265330100,2009993,269350118,1825704,238602,2507023,505598349,14284,434549778,16081,5286,1268812477,521,1.73,0.07,137518729,136308000,1002000,151814484,15
113221785,703847,75417444,1657444,74753358,1811333,235256,1624547,191813845,6751,120431498,6332,3602,367400927,1039,0.62,0.03,51856513,50603000,1012000,65965069,15
128532819,948330,87127259,1723453,86923141,1515846,315313,2151445,199638799,13103,131158150,2825,2334,405025652,915,0.65,0.03,53677885,49530000,3962000,67853089,15
122387047,932202,86537942,1840031,85703137,1601186,351348,2472215,206300832,15161,125156149,2593,2304,399312430,914,0.66,0.03,55544116,54303000,1005000,69740114,15
118218274,719680,87332707,1741346,87615134,1681114,246092,1910954,210942196,7380,130253617,5683,5218,423008215,1045,0.69,0.03,57274733,54066000,3003000,71244063,15
150520330,1756497,116464952,4452179,113910162,4543882,494814,3567763,316992009,9771,158124403,12122,8838,528039238,1697,1.0,0.05,85861187,81704000,3985000,100355499,15
109842074,556643,79324840,1722600,80175946,1564278,238633,1478417,197812640,6678,115153589,2090,2269,361103665,525,0.63,0.03,53490651,49359000,3948000,67564552,15
101862958,703618,100894022,1672179,101186853,1574544,225400,1700013,202580011,7253,107489295,8667,4462,468491608,1039,0.66,0.03,54361207,53113000,1002000,68746246,15
147670196,4795529,108404956,1441375,108905995,1519005,3476602,12699925,287694627,100354,136535184,24716,6801,508336836,2868,0.95,0.07,77751524,73473000,4025000,91877561,15
430604799,810529,266752357,2149896,268245998,2005454,253464,2865182,508813153,15333,439268079,16555,6281,1263322603,1033,1.79,0.07,138578279,136166000,2002000,152875257,15
116704379,612240,88730589,1814092,89348544,1642836,220432,1765026,203774711,6629,124447946,4682,2237,390516430,527,0.64,0.03,55514381,54271000,1005000,69744280,15
421608615,792821,261678822,2288383,263663279,2214842,212732,2879462,491708803,17335,428182653,15706,7769,1235401325,1034,1.73,0.07,132995381,130720000,1995000,147215944,15
442940557,1205422,272319178,2304140,271721534,2297329,467439,3973078,525675621,17865,452999136,15927,6061,1291185242,1938,1.84,0.08,142856849,140550000,2007000,157039662,15
118810480,576671,82220074,1672049,83896751,1491002,249124,1561886,201790690,6214,125402538,2298,2191,394828977,525,0.65,0.03,54287803,53039000,1000000,68670255,15
113111173,503120,79698425,1734698,76573742,1884489,215271,1504146,189382097,7083,116232688,3344,2241,368671920,524,0.63,0.03,51408541,51184000,0,65838908,15
111143616,597952,76780377,1806865,74284488,1824867,191460,1476289,184186836,7060,114603657,3072,2559,360051153,524,0.58,0.03,50227248,46031000,3917000,64395861,15
120133977,718507,82934874,1700060,83100921,1670615,256462,1899805,206166640,6970,129055237,5444,3349,397467280,1044,0.67,0.03,55901982,52582000,2976000,69974372,15
109285275,1241759,78792643,1701079,78319757,1661576,298256,2132361,197932974,7325,120006172,8691,4518,364544417,1949,0.64,0.03,53469711,47216000,6027000,67699649,15
118817132,1069175,85174400,1716851,84135683,1568474,318748,1879865,202436964,12774,124068577,2900,2345,421737940,915,0.66,0.03,54869562,49521000,4952000,69050457,15
110911615,955527,72596531,1958790,73860175,1771481,317198,2182644,180954685,13224,117978967,3325,2155,369338824,916,0.6,0.03,48677824,47441000,1009000,63030011,15
99692348,706466,100205306,1714168,100026662,1587594,217791,1892223,206611091,7196,106321985,9160,3968,466484399,1039,0.7,0.03,55762545,55487000,0,70103520,15
114956429,820455,83462665,1723214,84152522,1531205,225458,1717062,197337338,6326,119559125,4577,2652,398894240,719,0.64,0.03,53514435,49198000,4016000,67666440,15
123792802,890160,83833227,1718017,83518376,1503427,351627,2029130,200098573,7544,124510237,2767,2019,405226790,915,0.68,0.03,54284482,50063000,3926000,68618940,15
429473640,832639,268330527,1985080,271323267,1921975,193681,2632121,502047137,15571,431904986,18098,7302,1268945177,1034,1.8,0.07,135889153,130665000,4987000,150178835,15
427987579,812909,266863465,2074108,270620402,1916984,195570,2657160,504539067,15785,435441660,16659,7367,1271276151,1034,1.78,0.07,136996682,130775000,5989000,151364221,15
116549009,580346,83336969,1669402,84065885,1463259,251715,1542264,200492094,6804,121136883,2105,2337,393878068,528,0.67,0.03,54126786,51853000,1994000,68340413,15
118244492,551805,83778545,1669310,83703507,1492016,242925,1541053,197975412,7035,121200635,1823,2250,396258013,526,0.66,0.03,53855955,51718000,1989000,68054485,15
132659539,570843,96319107,1675630,95901307,1696235,237974,1697520,207937896,6810,132618076,2019,1808,435462993,524,0.65,0.03,57043296,54800000,1992000,71256097,15
107378500,576364,77152925,1734466,78794950,1591370,237884,1558889,195389040,6679,113356299,3375,2741,355694969,525,0.63,0.03,52648207,49370000,3022000,66943560,15
420939463,642761,262882056,2002042,264241161,1954812,215256,2558119,493942686,15542,423476633,15289,4926,1225628307,521,1.75,0.07,133959102,130759000,2994000,147853580,15
427266597,1301292,271658138,2339234,271594727,2334322,496812,3651637,521328548,16774,447434675,16756,6562,1275534534,1939,1.86,0.08,142152493,137918000,3997000,156606934,15
419772022,650278,263115642,1997064,264368231,1955090,216102,2550104,496267359,15501,423113725,18406,4811,1223961388,519,1.76,0.07,134293245,132052000,2000000,148357733,15
147411293,4705480,105943918,1508186,103475050,1496787,3505689,11977472,297308613,106981,142221462,14934,6246,509836555,2870,0.99,0.07,80462639,76085000,4004000,94614601,15
428988553,657919,271076059,1997430,273930976,1876781,249619,2638573,506206443,15075,432556978,16889,5220,1287118593,518,1.8,0.07,136478524,134248000,2003000,150776422,15
420279379,601343,263147446,1987315,263902198,1926892,227342,2731989,495477394,15594,424653647,17822,5051,1229186844,520,1.77,0.07,133225923,128798000,4024000,147308030,15
109671883,772246,79405801,1688387,79038636,1665285,282295,1677251,200243945,6851,119147020,4714,6452,367813439,1042,0.65,0.03,54006368,50726000,2983000,68051457,15
418323739,831791,262430889,2012497,266247966,1988963,201241,2632289,501277154,16563,423826432,17679,9217,1225885221,1035,1.79,0.07,135045969,132698000,1995000,149111591,15
429329725,1165873,270449672,1878117,271750963,1866100,276011,2881647,504951243,22737,430675258,17646,4797,1288364931,909,1.81,0.07,135846103,132425000,3009000,149902237,15
305914958,19285777,232500875,12567739,233123789,12426133,9209490,45199763,1013418323,557110,326435986,75565,20303,1115106537,11166,3.29,0.2,272029575,251688000,19975000,286316241,15
423484421,602725,262273900,1979894,263760278,1960919,226678,2554089,493975232,15902,422341875,16066,4577,1230660329,519,1.75,0.07,134567133,132286000,2004000,148758386,15
120083149,1035757,85976238,1758055,83785745,1639919,316760,2782225,202734581,12857,122997889,2880,2077,423765041,916,0.69,0.03,55099428,49856000,4985000,69376249,15
109487967,546230,77535895,1743668,78309919,1594217,223291,1570231,197176614,6492,115239210,2420,2249,360851306,526,0.65,0.03,52928932,51613000,1012000,66973518,15
112546834,584611,81755634,1726633,82862126,1470234,235636,1571776,197207787,8861,118415575,3570,2140,395847800,526,0.64,0.03,53307524,52043000,1000000,67482206,15
121696446,701269,88513646,1786200,88568595,1748205,249621,1908309,206580304,7110,129627146,5079,3016,403803329,1040,0.68,0.03,56310729,52045000,4003000,70579583,15
307825455,499145,207422812,1137628,207246263,1153331,391549,3096491,533759963,23765,305278146,8494,12311,1539661527,2087,1.51,0.09,172089066,162758000,8986000,237122118,16
306776310,392769,204569336,1149750,205337674,1153657,266677,2449263,548902282,20691,306828896,9282,10465,1437662476,2083,1.85,0.08,148604816,144230000,4006000,162722551,16
207145332,445607,304357347,1612762,306165209,1620862,255713,2310917,498537142,23698,208036267,31744,17630,1041098845,4046,1.6,0.07,135364465,126044000,9003000,149603603,16
307062869,364503,204995956,1134419,204085307,1132410,276893,2662279,560398424,17015,306447806,2225,4291,1346322030,1106,1.86,0.08,150629471,149358000,1002000,164898828,16
310735070,470695,210244549,1151910,207592558,1135085,471382,3196986,552314363,39852,304702962,8263,8189,1455469513,2079,1.67,0.08,150107181,147739000,2010000,164392464,16
212431725,293425,210950100,1118976,205829779,1088141,533666,2348823,369338402,15463,203626395,10013,6498,1480454707,2084,1.14,0.06,100053296,94690000,4983000,114399004,16
310029533,449328,206601274,1142289,204063592,1131696,464078,2891103,602363359,23166,305719967,8496,6794,1348593177,2086,1.71,0.09,165090175,159812000,4994000,179570315,16
308132955,312073,204882261,1127768,202579380,1125074,306269,2557613,560667057,18482,305656454,3628,4253,1343367233,1110,1.64,0.08,151892835,150578000,1003000,166036501,16
208736340,12945062,203130946,109442,200076743,102445,7544503,27465701,351388794,195825,204289109,6159,4912,1250941076,2083,1.2,0.13,94806153,90467000,4020000,109172841,16
309705757,790354,211609373,1126913,214794774,1132271,696532,2395141,397417360,21357,304866726,16925,26127,1453121275,5993,1.3,0.06,106966717,94718000,11964000,121348895,16
319307828,475461,514501095,1342003,505253944,1320866,735233,3302024,562793481,26433,314561229,19845,8919,1773278523,2520,1.77,0.08,151937542,145655000,5985000,166312800,16
310443090,445239,310227175,1142489,305715733,1126320,629242,3354394,571723093,36224,307171243,18705,6200,1673380816,2087,1.72,0.08,154356976,148092000,6003000,168808374,16
311631668,844107,212934312,1159386,212991205,1160868,499286,2984874,609561252,57750,307475075,17360,17668,1261414950,4041,1.76,0.09,165390334,156088000,9005000,179553375,16
324699145,392226,422390017,1348478,410638200,1301445,646141,2658541,379450615,22509,307511851,10380,8341,1472611933,2522,1.25,0.06,102846419,98548000,4022000,117171833,16
306938724,355762,504501673,1139135,499252303,1138927,300103,2937586,634802214,21438,305767025,2164,4475,2367118343,1111,1.89,0.09,171493324,169145000,2001000,185676300,16
1016530817,589839,607033031,1397409,602926535,1396610,357832,4274688,1010529929,38656,1011592786,20888,10365,3575302162,2802,3.66,0.14,273347802,269064000,4000000,287584886,16
307097776,267177,204288316,1134585,203609855,1133120,254785,2360016,526090021,17591,305793350,4007,6488,1542407858,1109,1.59,0.07,143145492,139760000,2994000,157387832,16
307492772,328304,205362631,1132344,205354360,1130758,273337,2506990,539842844,17906,304035468,2885,4395,1547831234,1112,1.58,0.08,147723222,144391000,2987000,161925522,16
211932575,386713,314541407,1119150,306506647,1089856,531293,2704008,367491668,34252,205191039,11503,6176,1590610009,2082,1.21,0.05,99672031,94342000,5018000,113866420,16
312178609,422729,208140241,1146064,206110813,1127520,505988,2984434,589830079,36504,306555912,20199,7531,1252878205,2085,1.75,0.08,159502433,153201000,6007000,173807110,16
319882325,342112,209441871,1100002,204880790,1078695,495397,2283842,369694937,16298,310367036,8204,3815,1502390715,2088,1.18,0.05,100505392,98204000,2004000,114559322,16
921266013,975036,610338943,1461445,605281615,1454504,560695,4857993,1121770841,51564,914075352,46502,15060,3280179925,6426,4.04,0.16,305037983,294778000,10026000,319054011,16
463384181,51006706,410713352,190690,415968939,188958,42099393,112806198,861634182,435319,459762288,18831,25493,1921429467,5996,3.07,0.48,232481878,222143000,10006000,246670788,16
1621547724,781608,612503545,1446889,611557314,1437614,706813,5555911,1277895047,40767,1602180496,15143,16036,4573919270,2956,4.38,0.18,345522010,340227000,5003000,359623652,16
413814400,391789,208057263,1159923,206241913,1146210,527910,3278021,675139584,22979,403443138,10369,8086,1348486994,2083,1.94,0.1,184589351,181312000,3005000,198829014,16
319497298,324884,211270536,1108106,204869275,1079048,521465,2298930,373516564,16692,303702719,6816,5490,1483856386,2117,1.19,0.06,101008581,94719000,5982000,115293396,16
312066788,384890,208195641,1141648,206090052,1124962,515883,2917235,587018127,21595,304212659,9203,7052,1248287405,2086,1.74,0.08,158600341,155427000,2988000,172801858,16
311924772,403390,207729626,1128702,204398958,1115159,521455,2814564,535249340,20148,305825552,8732,5490,1469222761,2088,1.6,0.08,144479864,139728000,5026000,158780683,16
310495142,449272,407804613,1146984,401285335,1134092,568203,3010259,564065905,19843,307277399,5330,6414,1762714585,2082,1.8,0.08,151813210,145969000,5998000,166011825,16
209874707,381094,311734259,1518473,303071323,1491139,497215,2676179,483063857,20835,204841179,10931,5664,1477214635,2085,1.61,0.07,129947656,126105000,4003000,144308233,16
316193235,347558,417017784,1158630,405837750,1126736,681883,2964613,429527554,16591,302298536,5327,6139,1783403897,2083,1.38,0.06,116510210,113659000,2991000,130629273,16
310809282,425918,311217465,1151444,306439700,1131358,646911,3283253,565982552,37687,306680094,8015,8014,1463763975,2081,1.72,0.08,152280455,148481000,4013000,166305173,16
309483741,295024,204864230,1126642,203214701,1123281,272108,2415598,548826560,19087,305492828,3318,4731,1346872705,1106,1.65,0.08,148087160,146205000,2002000,162459586,16
1116403652,898937,615244013,1408859,615000812,1405446,731676,4720801,1014636184,42516,1098715958,26995,23011,3562992563,4617,3.44,0.15,273619942,264049000,10039000,287776539,16
307863755,354674,205346618,1148852,205314760,1148237,332727,2502533,536171564,19972,306866904,7812,10521,1540978098,2090,1.63,0.08,144966070,140849000,4024000,159327065,16
312020345,389974,209635292,1152121,207757195,1136694,655359,3185993,596097534,22111,304638346,9316,7267,1251355977,2088,1.73,0.09,159227506,153216000,6008000,173317319,16
410172637,20935968,354090766,543280,353428993,554666,26550092,41466130,1522906690,722559,410884959,496364,307071,2284531216,98766,4.95,0.43,410398452,220492000,190424000,424739695,16
209940054,13132522,207655833,124218,204148988,120621,7673224,27140410,353002900,164290,204537650,6719,4303,1251672024,2087,1.18,0.14,95217138,91897000,2996000,109558552,16
310169105,440630,307900157,1132007,303720357,1124079,459240,2740556,558686680,19249,305768173,5025,5834,1459507039,2094,1.68,0.08,150480256,146371000,4010000,164689014,16
220143476,342363,513925688,1312733,500020423,1292073,543485,2701671,477715916,19737,215064989,5084,5313,1698616491,1830,1.53,0.07,128862032,125807000,2995000,142827375,16
411983720,451323,207148604,1155181,205654094,1144843,493282,3141073,666906173,21608,406873301,10087,7646,1451463290,2087,1.95,0.09,179359510,175225000,4005000,193524175,16
311022755,416720,207542836,1143637,205012390,1129889,516153,2998310,587279905,21302,305873001,5988,5943,1257416285,2094,1.68,0.08,158641322,154515000,4013000,172942391,16
306456013,348195,305488694,1145397,303294324,1143616,275842,2926051,646933998,22076,304914575,2772,5713,2051535342,1108,1.89,0.09,174608984,170475000,3987000,188711237,16
306665423,367592,205084995,1144978,205234590,1134881,270911,2644254,600210838,19257,305414646,2945,6130,1340326784,1111,1.77,0.09,161931090,158862000,2997000,176329346,16
317924170,324801,309426832,1327512,305560673,1314202,462197,2995763,579576427,20169,312622575,5777,5239,1576929363,1539,1.98,0.08,156160024,152041000,4001000,170428207,16
307438189,326032,204886747,1125396,203271070,1125002,257908,2483197,562069827,25301,306951323,2868,4742,1346629926,1104,1.66,0.08,151387903,149100000,2014000,165573862,16
311141662,412217,207354198,1143431,205249364,1125898,537896,2936477,568648028,20156,306266625,10001,7635,1252219818,2087,1.82,0.08,153360703,148230000,5007000,167870096,16
445589497,15488133,301064131,381665,298967558,382679,12671854,28136607,1126867248,212599,442496512,233197,300296,2301216656,98768,3.6,0.26,305138498,208433000,96737000,319435021,16
307820218,365887,203933556,1129255,203284741,1126738,351345,2562908,553786245,18742,307546675,2383,4682,1348281146,1110,1.67,0.08,149061683,145691000,2993000,163222735,16
342492949,14983232,398804965,545640,396630813,574696,12576153,27900104,1146212472,218480,339858736,319700,307692,1899062795,98760,3.71,0.26,309901346,222626000,87245000,324320176,16
306035488,398416,304342051,1143527,303333428,1143465,299779,2864095,666042157,19634,307157836,2698,5797,1542812050,1112,2.14,0.09,179894078,178714000,1004000,193986071,16
312312528,406165,207853750,1156650,205061640,1140183,568208,3118496,588599356,23950,304962109,10693,7212,1250279791,2087,1.73,0.08,158980309,154740000,3993000,173324197,16
308825108,316790,205518890,1121080,204228679,1121813,288884,2490714,527223295,24898,307678692,1721,3920,1559982113,1104,1.57,0.07,142407884,139152000,3003000,156684249,16
1220795882,750731,714449691,1478548,709922077,1474151,935152,6430662,1423178639,48505,1204291005,11791,16958,4165636159,2807,4.94,0.2,383832913,377773000,6012000,398241916,16
204712707,283788,204631972,1090923,204658134,1091588,226099,1554189,303832319,13517,208284574,16248,9936,1040253012,2087,0.93,0.04,82648644,79418000,3015000,96912012,16
318954259,320939,208851495,1104356,204653548,1074870,502939,2276292,369842023,15688,307373564,8833,5497,1381129918,2088,1.21,0.06,99750243,98543000,1005000,114041828,16
307698987,316826,304182812,5065984,301313220,5063207,279249,2202597,459282051,14382,307555299,1729,4401,1161676899,1105,1.43,0.07,123945110,120763000,2994000,138182888,16
1022858917,442845,606728355,1384674,602355685,1382945,465609,4289793,993310359,30565,1011405727,6352,8103,3169126547,1543,3.57,0.14,268048043,265043000,3000000,282143767,16
1114924435,565317,506893196,1229495,505083917,1229429,460797,4509406,1082592349,31593,1116058388,4482,8746,3876040018,1305,3.62,0.15,292155367,286957000,4999000,306491029,16
306488397,322141,205263573,1116792,204775062,1121384,325539,2525450,542921043,17469,306478809,2156,4680,1549912272,1110,1.6,0.08,146124520,143942000,1999000,160473884,16
410119301,318192,204284797,1130064,202221662,1132393,306839,2739951,568683776,20476,405034771,3024,4585,1340316344,1111,1.81,0.08,157761806,153660000,3991000,172070062,16
317862857,499300,513981080,2481460,505500807,2440701,769604,3516217,616959842,28353,313505272,9709,9263,1771408880,2519,1.92,0.09,166872466,163639000,2993000,181025367,16
310114155,314548,405781259,1432434,399276383,1435460,371379,2301301,429316857,14343,307082549,1509,3191,1575070105,1108,1.37,0.06,115714571,114390000,1003000,130076331,16
1216868102,777920,710616163,1477196,707273789,1471351,775869,6049913,1347394693,47536,1208743115,16757,16651,3853107891,2806,4.69,0.19,362981710,359925000,2999000,377105750,16
309649780,440581,207329103,1143531,206149629,1131318,475411,2968230,598061893,22459,305165881,9534,6446,1350122363,2083,1.94,0.08,161793833,156500000,4984000,176106961,16
2237518985,3295480,1325549076,2474543,1325400039,2483097,3312323,12543607,2447283118,98715,2242013047,61470,70121,8966270849,16731,8.16,0.37,659026939,633023000,26000000,673357580,16
1218462719,638720,908227978,1464736,902249905,1456738,590341,5784411,1402298083,41540,1212429007,10142,12532,4476753177,1830,4.79,0.2,377785981,373730000,3997000,391914275,16
307395556,323304,304693315,1132330,302552001,1130958,312256,2695572,567311727,17280,306211087,3259,4223,1553492275,1112,1.91,0.08,153463777,151221000,2002000,167697534,16
309279221,443701,206755281,1139838,205712129,1127504,480451,2908294,590238087,21193,306180026,9970,6853,1249513537,2087,1.68,0.09,161929627,157734000,3993000,176405926,16
209906105,366569,311893671,1120714,304888047,1096792,561396,2528851,405949412,33931,206674088,8443,7113,1570975487,2086,1.26,0.06,109422445,105188000,4007000,123588171,16
312938794,386370,310705511,1150591,306107541,1132190,688598,3159564,575697119,21475,305009418,6654,8469,1460981574,2084,1.88,0.08,154986443,152593000,2007000,169331679,16
410894756,379827,205613791,1140861,205125427,1143190,366814,3035973,640931970,20738,408278214,3272,5680,1546929185,1108,1.84,0.09,173255287,171091000,2001000,187530721,16
1221527403,596255,707538857,1449723,702389371,1434859,618430,5227742,1205247948,38477,1214051515,12902,10151,4702150877,1830,4.07,0.17,324288985,321156000,3001000,338547050,16
1119714209,682218,717137737,1406185,712669480,1395321,630673,4794737,1060708502,37378,1101659930,24259,16149,3661964659,2812,3.72,0.15,286915337,279841000,6996000,301038082,16
1120475904,583166,610103442,1416845,605240330,1414154,526920,4840097,1105600584,34913,1107218700,9697,9345,3574436444,2169,3.72,0.16,299058245,295940000,2999000,313290994,16
312073357,400629,207631331,1145555,204383404,1130624,543836,3035256,588332622,23080,304704889,8536,6386,1251889177,2088,1.73,0.09,158640878,155383000,3007000,172798137,16
308443896,372536,405163792,1408600,402456398,1408477,315772,2939590,572106069,23662,308218101,2028,4127,1666202203,1109,1.93,0.08,154488841,152267000,2003000,168583225,16
219531088,616645,412014809,1953852,406428772,1929149,454501,3124074,717561453,38877,217750126,33411,13436,1484927190,4614,2.26,0.1,194561989,189247000,5006000,208907122,16
313710752,384890,210054962,1132668,206220707,1114531,502591,2816982,530827397,36274,305515342,7426,6876,1469169854,2089,1.58,0.08,143505187,138253000,5009000,157585287,16
310888923,606358,211738430,1168356,212001400,1149457,643390,3096368,603169943,25007,304592748,30473,15856,1257630360,4041,1.75,0.09,163256327,159038000,4000000,177513581,16
1114783558,1029473,808689672,1527969,807407032,1539645,677660,7501043,1744710600,54700,1109724777,20664,18859,6364173181,2811,5.95,0.26,502648615,484169000,18006000,575414239,17
305797429,464078,206868572,1251218,207207220,1256338,329667,5169465,1411200070,48081,306141056,5990,9261,1841290456,1109,3.57,0.19,381439744,380116000,1000000,395761146,17
305359303,594279,206065240,1273587,206060286,1275773,238204,5236855,1417129201,42991,306115880,21241,16681,2033546409,2086,3.61,0.2,383164715,378892000,3998000,397339299,17
426549370,1577229,220442275,1772933,221898893,1820683,1137100,10675894,1496866909,81268,426651304,63886,54751,1922293372,2428,3.78,0.21,384204923,380884000,2999000,398336465,17
207553091,616218,206967677,1237612,206178249,1234799,557572,4947204,1239766644,38644,206619864,10185,10190,1745343226,2088,3.5,0.18,335135833,329871000,4998000,349542585,17
206754979,759709,208800633,1272660,209009347,1266521,615871,5665370,1309446535,54725,208693421,15942,13621,2961806145,2087,3.46,0.19,353491417,348208000,5002000,367930573,17
307177971,663252,207169238,1292335,206626468,1282913,530967,5842101,1535775344,47471,306522569,13610,13335,1942249740,2088,3.83,0.22,414960406,412674000,2003000,429430786,17
1015536614,623088,608845314,1463822,606546513,1461551,525773,5798236,1481997659,43082,1008617811,9223,9771,4166983397,1690,4.99,0.21,399491695,395222000,3992000,413668511,17
309780760,455057,208256179,1137060,206443745,1124911,523767,3152062,584927977,36985,306619835,7220,8756,1760322637,2082,1.74,0.09,161678497,157368000,4009000,175803661,17
306924017,466644,205912222,1160076,205999421,1160792,278018,2773347,662245333,28887,308354811,33748,18766,1338371444,4035,1.9,0.09,178956510,171661000,7027000,193073691,17
308880783,509445,209537674,1210286,208283585,1209655,504537,3228360,668466024,20602,305867287,3134,5013,2053061353,1107,2.23,0.1,179146957,176891000,1998000,193070353,17
1418210198,955594,711316052,1558601,709681113,1542438,720790,7524463,2002367711,58801,1408585367,26513,16827,6878200451,3014,6.49,0.28,541080735,532764000,7996000,555349803,17
305404204,556446,206085426,1268501,206089130,1276534,264324,5269923,1412361263,42273,305728338,20394,12527,2033895678,2078,3.59,0.2,381769100,379534000,1997000,395828862,17
207366665,600535,208556281,1251512,208623864,1245980,606143,5304869,1289211774,54599,208476845,10231,9720,2756795707,2082,3.45,0.18,347581025,341297000,5987000,362077060,17
308206635,1079110,209066780,1530830,209010447,1523410,350323,10409233,2974007863,76606,307822479,16568,24310,3843743656,1109,7.76,0.41,805242891,801878000,2999000,819194902,17
308947175,789886,208336673,1316072,207874076,1301667,293843,5710026,1542602923,50408,309244253,36206,29278,1845877336,4041,3.8,0.21,416546802,412276000,4002000,430395148,17
206339768,543410,208541692,1256408,208577814,1251546,662223,5450925,1256149881,54904,208067812,10899,9368,2051246050,2081,3.54,0.18,339743277,336514000,2995000,353922269,17
307803535,668189,207262368,1307974,207087700,1304938,597452,6278891,1528806410,49990,307083106,13237,11702,2046182085,2094,4.09,0.21,412734693,406368000,5990000,427073793,17
1044308767,3172194,632306796,1359067,630644226,1353614,3574367,10911538,1734157257,82828,1039810906,97435,30082,4281108620,17710,5.71,0.29,468082012,434780000,32983000,482266109,17
307374777,482698,205887522,1157004,205957071,1165606,461289,3012089,632573650,25147,309666755,33486,7805,2057669525,4036,2.1,0.09,169430675,159138000,10008000,183556560,17
611673768,929764,412485094,2268391,412473286,2267711,781821,5563483,1230584416,49916,604929884,27677,28787,4051370364,4039,3.82,0.18,332138918,321729000,9991000,346350065,17
224056544,1089475,412275780,1394398,412271800,1392016,715933,5491248,1334660680,48389,222918851,30203,15533,3579021087,4761,3.71,0.19,360608023,353227000,7004000,374833096,17
305427714,536366,206741860,1269087,206641175,1271005,360215,5315591,1412630277,40519,305352136,3327,9363,1839094568,1111,3.61,0.2,381156615,377767000,2998000,395523931,17
305807223,577454,206144815,1282237,205931888,1282659,419009,5566308,1464731383,42566,305602787,3687,9593,1837041870,1113,3.68,0.2,394889957,391592000,2996000,409030391,17
245607075,3081870,333364469,1572994,333036066,1566830,3713030,10123609,1426574506,76884,250204190,212225,249118,2403344249,17706,3.83,0.23,384113720,354842000,28987000,398420866,17
305692493,565911,309055101,1274572,308984037,1278384,333533,5569675,1434443578,47908,305900475,6504,10317,2853635357,1110,4.19,0.2,387372511,383082000,4000000,401595414,17
308068826,721129,207251581,1292079,207115383,1288184,570201,6063907,1531389326,47957,306829513,11250,13070,1844752356,2089,3.87,0.22,413880460,408365000,4992000,428129978,17
209546523,670335,209053464,1268022,208638425,1267313,400118,5143733,1259641748,44716,210198459,39727,20418,1963608239,4038,3.28,0.17,338275243,330009000,8000000,352350088,17
713882535,405546,206158174,1176645,204769028,1173481,391848,3477895,799446762,24903,705438431,4972,5825,2555549855,1107,2.84,0.11,216959238,214715000,1997000,231174198,17
305518133,539516,205875209,1269953,205743072,1269392,350505,5411730,1410520306,39561,305187632,4547,9338,1836496852,1105,3.55,0.19,381294601,378021000,3000000,395415434,17
308540668,768645,209311852,1310456,209358712,1306284,389682,5834681,1537840740,51333,308244682,36381,14919,2044088614,4037,3.91,0.21,416018454,411658000,3996000,430048083,17
307792334,745559,207851976,1297324,207655993,1298054,313303,5657527,1533016929,51920,307709608,35755,29123,2041048937,4041,4.09,0.21,414685578,409412000,5005000,428837857,17
308077613,749917,208027326,1305374,208125737,1299476,335185,5783932,1543605599,51257,308086165,37416,23123,1942715936,4036,3.88,0.21,417021840,409758000,6995000,431373042,17
307938215,660099,207317994,1315084,206959599,1295539,590560,6317869,1575561973,50415,307137404,15784,15264,1841916849,2089,3.86,0.22,426186165,422745000,3005000,440259488,17
305652967,558572,205933423,1286414,205752104,1281785,369314,5612203,1462330568,41800,305482123,4970,10653,2038144428,1109,3.61,0.2,394927204,390654000,3996000,408933137,17
305935362,568703,206147804,1282039,206223656,1290060,290934,5427661,1417746976,44397,306538309,21554,16230,1836919880,2088,3.55,0.2,383203126,378791000,3987000,397480826,17
1115658328,721371,808593219,1527134,805045752,1523862,601832,7103772,1813447634,51426,1110688088,13819,11374,4259638973,1835,6.13,0.25,489162195,486891000,1999000,503277670,17
307590621,914108,209016175,1487625,210664540,1493352,753401,10374570,2763161963,90927,310926508,15468,19821,3955927205,2084,6.82,0.38,745741242,740505000,5003000,759710839,17
306597125,539687,206724732,1274767,206753398,1270337,381284,5223643,1410624059,47448,306711468,8305,9378,2044404188,1109,3.9,0.2,381665795,378195000,2993000,395880837,17
307809781,694244,208696006,1295192,209019529,1291726,635923,6315026,1533678117,62027,308458682,14483,14248,2048414715,2090,4.13,0.22,413823193,408530000,4994000,427957751,17
306517381,516967,205835996,1261974,205695072,1268136,346838,5241996,1412633711,39167,306178615,4660,9122,1838546805,1108,3.53,0.2,381919282,378561000,2996000,396098401,17
1011357298,836508,704024637,1472251,704971056,1468758,448064,5488977,1381423160,41793,1011368010,21399,12123,4361964800,3152,4.49,0.19,373123003,366677000,5994000,387343454,17
307492407,693445,208817067,1291964,208905544,1283304,598234,6065271,1536440823,59473,308215987,21617,13817,1947585071,2083,3.87,0.22,414590221,408302000,6004000,428720564,17
308173293,777543,208063038,1314657,208178483,1315288,456139,5961150,1549429774,51803,307870983,35395,14486,1940978285,4034,3.93,0.21,417540930,411268000,6003000,431928670,17
313866097,499089,407514686,1441619,405071015,1440311,482676,4868692,1147058697,35650,312853774,9003,8047,2062632022,1541,3.14,0.16,309631899,305358000,4004000,323772980,17
206230962,541532,207255883,1271149,207282573,1269554,348635,5276432,1336295108,44666,206720236,6192,10183,2042351568,1110,3.39,0.18,360608809,356267000,3991000,374782206,17
408082849,573242,205837539,1266085,205739561,1265049,366980,5503647,1419280979,40000,408168035,5188,11310,1837723008,1108,3.57,0.2,384329720,379859000,3988000,398755891,17
307714672,772989,207708708,1308589,207705660,1304198,303774,5648993,1543582477,51238,307859405,36938,23158,1943109620,4036,3.83,0.21,417164620,409844000,6997000,431531143,17
209455924,755747,209664403,1270720,209905517,1263906,852259,5530532,1257649707,47969,210357495,26911,22318,1950429971,4039,3.2,0.18,339849697,331483000,8011000,353997609,17
305652337,584824,206233884,1272491,206282029,1278878,274822,5355734,1464966995,43133,305819101,19351,12135,2034899321,2083,3.97,0.2,395780659,390463000,4993000,409789331,17
311265825,466588,207663026,1149332,204971269,1136740,516644,2999648,614265608,23472,308060065,9622,6327,2068940512,2085,1.88,0.09,165792172,160420000,4982000,180206329,17
307418674,644679,208143553,1294711,207779532,1286978,504681,5950199,1535998459,48630,306594340,16748,14972,1842200004,2087,3.81,0.22,416338067,412100000,3991000,430827921,17
1016756681,1294515,513409949,1516714,513586954,1516681,831060,6997459,1702165035,52735,1016366051,32775,17001,4266381204,4715,5.38,0.24,458884370,446403000,11983000,473092382,17
305845219,499974,207175842,1268788,207230867,1267700,320045,5400806,1412040834,47153,305838467,8074,10650,2041339885,1109,3.55,0.2,382608929,381282000,1000000,396988577,17
307645564,726974,207871852,1314000,208039310,1315543,391787,5822332,1546045973,50524,308192183,36503,14167,1942380074,4035,3.83,0.21,416738690,409330000,7005000,430966679,17
404634313,547873,435080096,1278163,430583309,1265418,731424,4243813,834284168,34711,399853046,19554,10047,2681970142,2521,2.75,0.12,224568067,219185000,5004000,238641965,17
214006917,513703,409250275,1419081,406719030,1412686,526174,4877901,1185597574,36506,213729400,16564,7886,2975321565,1688,3.61,0.17,320561660,318269000,2001000,334614729,17
305858317,654700,205519576,1317142,205400428,1316727,237987,5963284,1627325547,48456,306217278,21554,17452,2234324554,2086,4.09,0.23,441600370,437180000,4001000,455725014,17
212692237,320718,208907245,1107419,203219115,1076669,511108,2255853,357782654,18886,205758133,11962,3604,858682082,2084,1.22,0.05,96963230,93597000,3019000,111110907,17
305841822,347314,303940518,1161192,303896863,1161102,234201,2763736,666441491,23041,306532905,18093,7242,2239863331,2085,2.25,0.09,180233441,175955000,3998000,194326509,17
307473508,683193,207260299,1292239,206658131,1286950,566923,5969798,1529230682,48781,306944302,15896,13650,2043734519,2087,3.85,0.22,413786783,407512000,6007000,427967919,17
307793137,768777,207808827,1314226,207968507,1310977,305246,5776301,1543055727,50667,307848897,35623,28209,1940765594,4036,3.83,0.21,417552827,414231000,3001000,431674196,17
308164824,742819,208003737,1314187,208072998,1313870,436703,5950507,1544182679,52557,308036542,36807,25075,2043328278,4034,3.94,0.22,418598605,409193000,8982000,432698646,17
212006068,190925,206519187,1081976,199454655,1066729,302106,1714304,272219981,13122,204182463,3598,1648,1185695379,1113,0.86,0.04,73737972,71479000,2013000,87919422,17
308052342,317845,205370589,1146310,203692924,1140213,269228,2761539,648310556,22593,303824486,4848,4793,1340983726,1111,1.81,0.09,175953616,171591000,3990000,190178583,17
408182388,571755,205750133,1269823,205630566,1269543,345236,5393768,1418270644,40054,408177194,4952,9670,1839036075,1108,3.6,0.2,382785632,381505000,1001000,396879448,17
308547001,749747,208042065,1303340,208139906,1303550,467402,5861236,1539371116,50412,308389786,35758,16431,1843950606,4040,3.86,0.21,416650201,411177000,5002000,430999168,17
307555488,734726,207640928,1302078,207790731,1303381,358896,5678572,1538395741,49433,307766103,34196,14292,1841223843,4039,3.81,0.21,418241199,412941000,4999000,432601244,17
307505860,745155,207241294,1305618,206682895,1291441,559809,6019769,1537062756,46988,306786452,11321,12032,1944630587,2087,3.81,0.22,416033472,412696000,3005000,430256380,17
308285856,791981,208165194,1329763,208081634,1326145,314045,5834355,1545629739,50866,307965662,36051,15127,2044361487,4036,3.98,0.21,416995720,413564000,3004000,431251109,17
1116834379,592505,607671379,1472978,604574374,1462496,482190,5925587,1482931755,43905,1105171865,14532,10244,4356444355,1686,4.88,0.21,401330750,398032000,3000000,415624144,17
307051300,642032,131501347,279084,132214567,290230,554918,6142929,1515543253,48242,306475324,12922,11596,1642041758,2089,3.71,0.21,410712239,405423000,4992000,425015092,17
307666386,490229,206734450,1156941,206806649,1154427,320891,2835551,625212531,25727,309934165,33721,8537,2058702380,4039,2.08,0.09,169198742,163812000,4994000,183431964,17
305557140,499434,205888688,1263792,205682246,1266993,323741,5269572,1409906356,39960,304879299,4693,9955,2035374631,1114,3.54,0.2,382695366,381398000,1001000,396824406,17
305392628,532531,205616505,1270701,205613681,1275236,425008,5554847,1415118470,40133,305848747,4453,9380,1838404664,1108,3.59,0.2,381405098,378066000,3000000,395548138,17
1216355795,829222,912250135,1485850,909463563,1483165,697442,6543049,1584327084,52877,1204315202,17656,12128,5860997428,2805,5.28,0.23,428240052,421892000,5998000,442399139,17
307761017,789615,308823707,38252633,308145146,38135256,559026,7169827,1898620902,56065,307359019,11929,17364,1541436463,2089,5.85,0.27,514501331,510185000,4001000,528669278,17
308501836,707322,207332932,1294710,208130629,1282981,531986,6047306,1530164264,44229,308150962,11320,13988,1844345785,2086,3.87,0.22,413655910,409148000,4001000,427980924,17
307224752,660089,207061023,1299614,206856310,1297285,546086,6125325,1536078071,48144,306929018,15697,14964,1940874550,2088,3.85,0.22,416494624,411119000,4989000,430635761,17
1223516551,698678,612463924,1439161,606801506,1439173,919634,5943180,1315395897,46375,1204679271,28056,11469,4583093580,2813,4.43,0.19,353464067,348111000,5001000,367581558,17
206240254,12957699,203901040,136627,203714977,144923,8223682,30431073,547343765,208235,205293431,8330,7790,1818718070,2083,1.69,0.19,176248080,162759000,13060000,242673588,18
209281122,13024439,204536549,135740,200619287,134860,7502428,28934292,547738084,221423,210666958,18635,6853,1879275393,2086,1.8,0.17,148206646,141903000,5995000,162511180,18
203234104,6472068,198953571,126118,200091364,123787,312524,15475618,473598225,17382,205275966,1854,3442,1829945891,1106,1.54,0.07,127997751,123771000,3992000,142245858,18
507618650,21048501,554384220,662288,555278791,671414,28106040,44361008,2257919009,785900,512455887,497223,254763,5307683746,98763,7.49,0.57,607235258,421438000,187640000,621374023,18
209908398,12934890,102845566,142103,102204357,146545,8094168,28477059,518550239,210243,210900801,10741,4808,1466142199,2089,1.7,0.17,140685654,136729000,4021000,154743012,18
208027120,12956362,103504820,137579,103056595,140519,7512804,28520666,512074081,220545,212360556,21460,7947,1661803671,2087,1.67,0.16,137762959,133889000,3996000,151886057,18
569043308,28388421,301760893,506909,299245283,509014,29031722,54903425,1444927963,311195,576387667,598156,110000,2650073092,99785,4.65,0.42,388407947,224592000,164433000,402556061,18
204085263,6561634,203462829,115168,203249561,116135,345185,15228843,438087644,23265,203195760,2169,3421,1720727370,1104,1.43,0.06,118160320,114093000,4003000,132073684,18
210876275,13163390,28989767,103259,29267559,105193,7078787,26413075,320672428,200639,207057514,38646,7947,866069326,4038,1.07,0.13,86562737,81364000,5022000,100690309,18
208208291,12958805,202312803,130599,198377411,137607,8083302,28714424,532793149,194614,209940874,9618,3974,1777313160,2084,1.73,0.17,143977555,139912000,3997000,158179411,18
572399763,28442852,304060006,562488,302299077,560244,28795307,55187539,1439041450,313003,573781866,508632,111632,2650496103,99783,4.66,0.42,387559076,215504000,172403000,401691016,18
209510759,12956209,202367843,135214,200491019,141137,7841315,28771429,534475087,210566,213747669,12590,4397,1787710641,2086,1.73,0.16,142175740,136941000,4997000,156498830,18
61498042,6778224,29533694,74465,27690217,76451,290391,12171338,150009992,15680,62327855,14988,4494,387005983,2089,0.5,0.02,41293735,37058000,4006000,55499252,18
305091865,12865611,300122492,158966,295618944,156796,8240160,29551028,662082574,215153,307446335,10763,8276,2328722750,2091,2.14,0.19,178408240,174407000,4009000,192565889,18
557973477,50333709,307899660,269390,309999153,277549,45673493,93059674,1369822749,630084,558494184,72640,17737,3592835049,7940,4.61,0.62,367901145,358210000,10005000,381883232,18
207845236,12979897,103742657,142851,104416031,144933,7806015,29392069,600381902,227295,208774515,7439,5086,1656410870,2086,2.03,0.17,162464733,157441000,5014000,176726760,18
209817682,13035785,206287891,144127,204161384,148271,8438233,28345797,563493120,212973,207777363,41361,9697,1870400030,4035,1.82,0.17,151682078,147443000,4012000,165924600,18
207445611,6534538,202215377,97066,203096914,96505,676174,14575663,342440788,18528,201684989,13292,4639,1447697933,2085,1.18,0.06,92544216,89406000,3013000,106613383,18
411398566,26210804,350844451,527780,347881784,526821,32958026,47620107,1402677908,730890,414599218,302972,301648,2694044449,98767,4.59,0.43,377635705,190926000,186928000,391857701,18
210071457,13027742,206719501,138159,204097251,139047,8171795,28230297,560779780,211064,207127690,40381,7905,1876054206,4038,1.84,0.17,152007638,146909000,4996000,166239710,18
211441701,13064100,207562543,146688,205028948,144749,7899706,29071789,558951402,210623,206551911,47241,18742,1874686523,4040,1.82,0.17,150606188,143297000,7014000,164744649,18
413371854,20753889,351736542,559766,349554864,562628,27204256,41629541,1586257328,745640,416352239,303246,109427,3723745462,98765,5.1,0.44,428518641,226276000,202247000,442697451,18
412759532,6824191,207441112,251411,206181162,265438,898434,18383887,993433139,30359,403136958,6712,6886,1444486650,1112,3.1,0.15,265722585,262655000,2996000,279942603,18
342251555,14844781,298152577,384670,297203279,387901,12317304,27121638,1040914260,220812,339213236,396897,306786,1988632495,98766,3.36,0.24,281292665,193190000,88086000,295668917,18
209256170,13048955,103568380,132730,103058921,136632,7228290,28292917,511452694,231331,212295100,8794,5185,1567738708,2080,1.66,0.16,138339125,133123000,4967000,152371346,18
209307272,13028889,204486482,132252,201391454,141251,7734750,28990245,553251189,212453,211214360,7385,7621,1876485294,2086,1.8,0.17,148409455,143064000,5002000,162660552,18
213751970,6680313,103557856,88608,103537188,89640,481086,14768627,265143935,17731,201466503,16826,5007,948285909,2087,0.92,0.04,71463989,67291000,3958000,85597903,18
515962221,21020539,558928788,551178,548620000,555499,26266443,41426268,1523052321,814143,510515593,498223,308565,3663768614,98764,4.93,0.42,410053651,236988000,172991000,424238489,18
206181630,13001390,204787018,135947,205016881,140070,7837247,29787297,526400481,205791,205973994,8679,4750,1741404477,2086,1.7,0.16,142013483,139767000,2011000,155980643,18
340486639,14954227,298972895,409291,299248238,412273,12970769,28674681,1272811401,218133,341506957,300609,301778,2685483340,98768,3.98,0.28,343651867,252412000,91148000,357752322,18
570971961,27991426,302022980,612024,300410107,611474,28466887,57278322,2109497621,327052,568648484,463759,172451,5237568509,99790,6.81,0.54,569456677,474690000,94938000,583532219,18
417888336,13648926,313089113,47566829,306123061,47467119,10169798,34756147,1888089043,151470,410741103,26713,15538,1512176617,3066,6.01,0.39,508587950,504648000,3997000,522742932,18
209665985,13086903,207361162,167647,205463537,160403,8164585,29813509,710567804,221026,205291111,40989,9029,1855389614,4036,2.4,0.2,191629094,189445000,2004000,205967503,18
209434831,13014262,206131540,146181,203810761,146384,8286252,28245298,562528957,212859,208235242,37488,7822,1869675686,4038,1.85,0.17,151934774,145660000,6027000,166240461,18
209704404,13049567,203859940,128910,199542210,140136,8103325,28654893,533763074,193073,208790852,12344,6915,1768040177,2090,1.73,0.17,144208795,139899000,4025000,158247645,18
208597568,12959504,203629246,131495,199588983,131401,7890234,29415493,548176617,181549,208808663,10176,5093,1661224514,2087,1.8,0.17,148043633,143820000,4022000,162103570,18
573458480,28092175,301936482,490201,300245461,489314,26815042,56000962,1440386272,318694,571702615,590965,110376,2657436311,99783,4.66,0.42,389146529,291950000,96983000,403348055,18
512600653,21022305,554018708,557960,548760847,559407,26346495,41490154,1631532923,768925,512207440,315066,111671,3636126642,98762,5.46,0.45,439114053,284000000,155000000,453099818,18
538796501,15150690,398794955,516665,399327878,517868,13256452,30368395,1726831302,232692,538634096,418207,153798,4385074512,98769,5.38,0.35,465328374,365152000,100041000,479384854,18
235006315,19460857,207238794,147034,203345298,149910,12499114,40993073,579543061,219933,232189552,12160,4748,1921561512,2083,1.95,0.2,156781425,152621000,3990000,170955088,18
207970615,12937609,202104315,128198,198363058,135869,8078780,29368955,534419783,197757,210185259,8672,5482,1777390182,2088,1.78,0.17,143938569,139749000,3992000,158409140,18
258732790,38274923,209929495,283541,209116999,290572,38483361,83736992,1446792793,438784,258394371,28343,13012,4025944865,4042,4.52,0.53,391016364,384823000,6012000,405325637,18
681739038,28990800,404898984,514784,399698598,512580,26700932,56258344,1533613046,316689,672125752,540611,263688,3416818585,99788,5.01,0.44,414396883,330240000,84061000,428413129,18
307984914,13080334,302141049,194320,297477395,206838,8383914,30499523,954504394,204954,305160579,12710,7523,3254490727,2085,3.03,0.24,257687890,253505000,3992000,271811299,18
203327834,6502744,202758358,112813,202201140,113275,439446,15792225,443196043,22036,204587645,16549,4196,1715890230,2079,1.44,0.07,120055870,116897000,2997000,134000765,18
204803679,13036707,204937895,230049,205363990,225523,8454626,31657177,1175090309,225049,205035018,12644,8990,3812105651,2085,3.75,0.27,318152545,314990000,3009000,332168764,18
205964403,7002410,205116362,423410,205690210,424120,955571,22985927,2337854277,64719,207166279,9512,14176,1726924367,1108,7.06,0.34,632781073,630693000,2002000,647127063,18
310110680,13000137,203862348,135316,202616999,135924,7981546,29632164,593511296,208450,308322837,12684,7541,1856577338,2088,1.96,0.18,159687939,157421000,2005000,173799964,18
210755095,13177561,205608525,120709,200561255,130081,7746091,29008516,528147492,192893,207383327,11707,5215,1768988136,2088,1.71,0.17,144648859,140347000,4009000,158959479,18
204964881,12916843,204266930,138301,204195615,135017,8521701,29878600,555832996,195389,203471327,10232,4970,1829263361,2086,1.8,0.17,150104843,146922000,3018000,164172739,18
205201885,6565317,205550934,116160,205623630,123697,585238,15009202,446009122,27611,200975639,21761,9422,1725886717,2085,1.45,0.07,119675980,117352000,2006000,133815252,18
209760869,13035475,202940254,140115,200457377,142923,7648703,29450475,529900120,210416,212345702,11358,5040,1786770355,2086,1.72,0.16,142966233,135301000,6964000,156857027,18
510953747,27175241,454101885,619450,454333208,622003,32398158,50112636,1959589941,887941,514460574,302551,110318,2371685946,98760,6.28,0.54,528794950,341269000,185602000,543310720,18
209424103,13053548,203764489,131641,199547175,140418,8083645,28723739,533636806,196203,208729400,10139,4780,1766576826,2087,1.71,0.17,144538698,138853000,4994000,158704812,18
206605279,6578838,104495887,104860,104237550,105309,574168,15006534,355500658,13712,200739829,3080,3214,1221030816,1110,1.18,0.06,94492193,90856000,2995000,108748319,18
410895950,6594547,204987624,129290,203710158,131096,754518,16167428,522790079,18759,400169195,3551,3069,1940744630,1112,1.69,0.08,141683734,138168000,2982000,155895355,18
203407302,6499865,202434257,109485,201931740,109426,631915,15746254,444269996,22081,204824708,17619,4315,1712990475,2083,1.46,0.07,120095458,115600000,4020000,134041034,18
208043533,12964528,202340790,131517,198728518,141635,8219390,29528865,537656250,195690,210700124,10000,5195,1778643156,2087,1.71,0.17,144437489,138756000,4991000,158877177,18
206089559,6483550,201447061,99710,201413724,101394,727024,15146761,315148391,11633,205863403,957,1838,1355455505,1110,1.1,0.05,84975337,80474000,3974000,99220319,18
208455072,12951593,203220903,129956,198796025,128865,8142987,29456402,549475550,182698,209188032,10757,5104,1665339276,2089,1.78,0.17,148443154,142928000,4997000,162532227,18
201892630,6436570,100561553,123162,102081983,122861,538918,15557948,461816242,15586,205910609,1815,3355,1613345376,1106,1.48,0.07,125421190,121956000,2998000,139649360,18
210862380,13102476,104374873,140391,103388104,142410,8038214,28582864,527520704,219705,209150373,40842,7401,1583778750,4040,1.71,0.17,142664378,134221000,8013000,156810237,18
570715811,28863345,303110073,552798,302165115,551775,27211354,57551792,1846839702,326219,561442050,448195,111101,4253498297,98807,5.8,0.5,498402615,343610000,153825000,512643457,18
205017922,6409789,99664319,108362,101037398,106833,573040,15237612,389876782,15382,206576908,2380,3417,1441921475,1111,1.26,0.06,105590478,102191000,3005000,119760726,18
210750671,13039175,207085345,138968,204947856,140814,7866242,29018146,558969143,211460,205566048,45872,8429,1873070233,4036,1.81,0.17,151723987,148259000,3005000,166061895,18
212414695,6752687,106071449,91246,103519094,93216,578630,14037085,267421930,21257,199908004,16895,3048,1053750626,2083,0.92,0.04,72729576,66397000,5946000,86955889,18
568372847,28252700,300908827,500740,298280054,507461,27275419,55177181,1437737316,317986,574462843,440640,110810,2646462461,99787,4.58,0.42,387987579,230559000,156700000,402203140,18
207644530,12975208,103602224,145037,104108987,142447,7839471,29380263,601480180,227678,208895342,7601,4892,1658824286,2081,2.03,0.18,163183581,159771000,2995000,177552733,18
566825641,28180812,302111216,579692,302719347,578563,27129449,57548070,1876241165,327271,564497321,511220,112159,4428757473,98806,5.83,0.5,506643295,345276000,160663000,520860041,18
210138637,13100887,204284167,126906,199837832,135275,7741687,29168073,530489159,192907,208544488,11451,8438,1770352441,2083,1.72,0.17,144239985,138778000,4992000,158537210,18
207428306,12902461,104570017,137289,104483609,136739,7994629,28696874,526715004,223859,206228941,44825,7750,1541899799,4040,1.68,0.16,142427657,136060000,6002000,156641861,18
207807388,12954353,202383139,145488,200359480,151579,8422536,29344944,610223247,214745,208386029,8432,5401,1756185136,2088,2.1,0.18,165773129,159333000,5975000,179938227,18
211046484,13091920,104267328,135491,103397859,137408,7866315,27925665,524671960,220350,209399807,39138,7052,1581490537,4032,1.69,0.16,142443167,136989000,4999000,156425008,18
205728112,12943964,104020727,139753,104825269,152877,8546949,28929327,519315483,213570,204173527,8624,5118,1535932009,2089,1.69,0.17,139866450,135520000,3985000,153975532,18
207303512,12917127,201589407,132979,198184205,135934,8515539,28765732,532395764,198453,210252519,8777,4360,1777850670,2085,1.72,0.17,143950189,138487000,4981000,157948722,18
207746066,12943924,201860081,135333,198185942,136151,8057872,28801382,531120305,198302,210211070,7813,4897,1777760416,2087,1.71,0.17,143978691,140517000,3011000,158118692,18
208812221,12962152,201955976,136730,198811320,138376,7825686,29245922,528431092,194023,210238566,8736,4327,1780302148,2090,1.7,0.16,142903475,138570000,3987000,157177073,18
573052848,28596099,302288027,505484,300494800,502236,27068156,56599705,1443128357,322137,570659069,326201,270456,2656156798,99788,4.62,0.43,390361000,222949000,166961000,404525656,18
578816304,29132268,306743297,488238,302841957,501542,27042280,54538780,1415034146,315282,564032836,482538,109833,2776184633,99785,4.53,0.42,382754093,236213000,146132000,397000315,18
209425740,13032626,203645363,132818,199501987,142733,8173409,28687151,535104310,196662,208936972,6758,6560,1767698860,2088,1.72,0.17,144412546,140072000,4002000,158777792,18
648804030,19745314,342665996,2302915,342336708,2324055,5247989,26906694,1022976612,663570,647668441,111390,33837,2769144246,24690,3.31,0.21,307414494,240555000,65150000,374324635,19
170565069,7097986,88638965,1087505,87891598,1074230,4135578,11150095,461999511,102820,168486762,223756,47957,669238665,45679,1.48,0.1,124515851,61624000,62617000,138841735,19
132122140,4710348,54402059,162012,54879444,161580,3675796,6342188,357634547,136142,129352955,63988,26544,557981222,20541,1.09,0.08,97159580,56905000,39933000,111551822,19
152232991,5466026,121491928,1018093,117244484,965526,5014529,8129616,371246420,140673,143992677,62571,26364,627136653,20542,1.24,0.09,100574074,62093000,38057000,114687234,19
251693250,6572096,104149780,159728,104787364,153360,3898802,6951711,361833795,58985,269118829,140007,24813,807779516,20592,1.19,0.09,97457370,60468000,36677000,111402954,19
189805870,12593748,143102034,1111136,143509712,1108443,7754001,12692440,616509854,142730,180851242,294819,46989,867354959,40989,1.96,0.15,166873176,100305000,66201000,181115349,19
168955778,6665699,64138391,977297,63258960,1029162,3943723,6865007,349938794,54981,176181869,149675,25782,511402719,20591,1.13,0.08,94553318,57505000,36684000,108774948,19
128641001,4667305,73896759,973243,73097279,972359,3723445,6162867,343898273,129254,127670185,60336,22113,539211826,20537,1.15,0.08,92638231,53207000,39152000,106864537,19
166049288,12924503,103867266,1073947,107248912,1061633,7982899,12387472,549406983,297195,167755335,210204,47856,652461817,40942,1.77,0.15,147724833,63173000,84231000,162306314,19
217077211,12123556,149187764,266200,148824928,273334,10966404,17629255,636681647,318316,215448129,216823,45512,1062608541,40944,2.12,0.18,172269507,88441000,83416000,186352052,19
173124544,9406360,84520410,237328,86727145,244470,7042755,11124119,536719921,270606,170789314,200439,45035,717565152,40944,1.7,0.14,145128330,62934000,81915000,159466215,19
728312942,46480619,408846234,2498667,407342710,2519703,12008736,61415296,1402648272,4230305,728170668,388457,109772,3303746425,55930,4.76,0.31,379618361,289493000,89842000,393852888,19
132176829,5706730,60504618,816583,61627009,748129,4917712,7725232,324172606,151240,121596875,62887,22242,454749643,20540,1.07,0.08,88108196,45910000,41918000,102587011,19
649420490,90678718,427243896,1154974,424308470,1149499,5160783,165033377,1302261273,5814241,644066626,124002,38040,3209913281,24691,4.65,0.25,351920660,313586000,37950000,366267994,19
933650387,25404521,521403855,8578732,520546535,8592015,5473138,33478803,1556514852,982498,927623102,211199,47920,3243155101,24694,5.32,0.28,421372406,381041000,40004000,435302723,19
160319138,3761967,107828360,154945,107833062,155549,2049958,6593677,409210549,43435,160792554,80879,25896,853040022,23367,1.37,0.07,110563171,77459000,32771000,124832005,19
620976688,16273842,366465601,2328277,367786978,2346677,9106738,24294526,1193271228,176575,620600713,226674,60801,2402191773,49124,4.05,0.26,322800785,229590000,92834000,336832428,19
809791845,13972135,424861715,2901970,419603706,2879847,5050876,18289806,1054601965,111444,798484255,119845,30701,2956656895,24772,3.71,0.2,284346144,243052000,41008000,298784098,19
239052254,9267034,149079932,1035128,145052599,990127,7088637,11357691,532500169,272497,235743578,196990,44950,851626308,40943,1.74,0.13,144516278,62095000,82126000,158702245,19
258185505,6669104,167466957,3240456,168062902,3258645,3989857,7593223,520407787,74375,263424246,151337,26883,858210741,20591,1.72,0.12,140942840,110645000,29904000,155210403,19
133092655,7025924,63151118,964611,64268754,936905,3816459,6804094,330238129,51279,134096415,155228,32302,475618371,20592,1.04,0.08,89776348,58254000,31135000,103890516,19
787610453,22186207,435301468,2277512,436216984,2302687,8604970,27118297,1155129284,163490,797258709,301239,50757,2830318695,41173,3.88,0.26,311243511,237897000,72968000,325464595,19
236260895,9139478,149880716,1118642,147892781,1086300,7529041,11494707,562938435,298781,230265970,123802,43535,824001579,40960,1.87,0.14,151979119,73855000,77847000,166098537,19
132822977,4755219,75263670,957722,74554546,917003,3904513,6527861,366531340,150375,129048630,68152,23726,577192662,20532,1.1,0.09,100113806,56896000,42922000,114479310,19
132647606,6736023,64098504,922782,64573378,921766,3897573,6887127,323872661,48905,135992530,176015,32683,499891619,20592,1.08,0.08,87712707,49626000,37715000,101939073,19
736825286,14937392,364685289,3057154,365376283,3085245,9675803,23001046,1307428789,179779,742056228,128414,160815,2645193414,50085,4.42,0.28,353088438,264810000,87937000,367328236,19
145001510,4702950,71451123,162941,72455563,170564,4490792,7100870,377428859,44010,139006464,110554,28263,659487921,24557,1.17,0.09,101063975,68904000,31955000,115445970,19
151955198,6547210,84124713,926756,85203734,976534,3951471,6907878,350927657,55915,158052966,144391,24992,559746927,20593,1.16,0.08,95640791,69438000,26165000,109657817,19
135751002,6691512,64049958,915753,64341299,913243,3865623,6864943,319375854,47303,139146714,113957,42115,527886534,20592,1.01,0.08,86592847,52344000,34224000,100870402,19
175949323,3016598,126356269,3011710,125922964,2981063,112087,1388861,265415741,6774,176911830,875,1680,705084649,150,0.86,0.04,71437379,70429000,1006000,85271344,19
154039247,6790553,65627181,911464,65755000,936174,4129781,7278429,366912665,73258,161376481,149864,24089,611612978,20591,1.2,0.09,98625883,61386000,37234000,112750847,19
140153031,3944843,47067865,143475,46813119,139784,2525227,6406207,310545874,56146,135461048,101731,27402,561530061,23385,0.98,0.06,83785478,44864000,38882000,97874682,19
138722580,4098233,68499382,965410,68255027,955898,2572127,6701464,372773321,61646,133613879,112033,27690,597277935,23388,1.14,0.07,100477495,62663000,37797000,114522543,19
222390234,6683204,106497605,957355,106075466,941477,3909384,6886026,331008820,50724,217269428,168044,33822,668185935,20591,1.09,0.08,89209533,46071000,43067000,103541439,19
291680606,12972596,126127133,225057,125889787,219193,8084360,13277250,555413939,120695,289317633,212247,47781,1024010107,41001,1.79,0.15,149612980,75749000,73756000,163815650,19
135145611,6900037,41391451,133561,43184816,138662,3972884,6978345,338017376,58965,133889373,177029,27115,495987856,20591,1.05,0.08,90779069,51401000,39307000,104776644,19
150514836,6780644,64407509,922695,64691931,970959,3926226,7024575,358579259,77613,157118163,125915,81776,630114139,20592,1.13,0.09,96922829,60851000,35912000,111051277,19
130738393,5368269,55084254,160241,53019726,151956,5338395,8274796,350198711,133365,124277197,91101,22660,537492832,20540,1.09,0.09,93709525,54321000,39232000,107999040,19
173538476,7407894,89265923,1045086,87850585,1047344,4392639,11380438,520103390,94892,168943707,224312,48538,798739029,45680,1.66,0.11,140282537,97172000,43076000,154364903,19
225133129,12690426,127527546,1067682,127206970,1066811,7735787,12607228,562275296,105814,220956624,300669,49915,735130952,40998,1.85,0.14,151579797,99265000,52139000,165679063,19
207254121,12895306,84396089,1054247,84107521,1054359,8082517,12951549,507695836,138027,205622359,304819,50130,724327762,41197,1.65,0.14,137381232,83507000,53683000,151644683,19
156181158,6802419,57779420,180687,55721511,177381,6913580,9162107,400937935,173209,162639669,78581,28922,637999947,24599,1.26,0.1,108321739,58100000,50086000,122500369,19
638917225,14171914,347214677,2217121,342691591,2167087,4945927,18276902,957370932,109659,621664001,107356,30908,2540653630,24774,3.22,0.19,258514218,232591000,26066000,272725636,19
174831916,13853623,70200974,228920,71909759,227663,8497598,13721042,547180221,115389,185293539,394990,57731,655018917,49221,1.72,0.15,147896782,88884000,58923000,161948527,19
174760825,13833842,74306489,249681,72683075,248479,8759706,14174605,577709286,128925,178270240,353005,56399,646754716,49114,1.82,0.15,156613192,87214000,69170000,170748058,19
201829636,12699540,126718694,227473,128932642,224926,8013880,13190707,521352959,107281,204014479,341162,49433,750010986,40999,1.73,0.14,141126090,84941000,55961000,155331828,19
149430221,5453626,97626180,4351055,96125631,4447848,5244431,8662508,462473929,150893,145530969,100122,22443,535852895,20537,1.47,0.11,124456551,84109000,40052000,138583108,19
258886118,6788784,105923140,152902,106119435,156533,4016282,7262845,441350048,79749,256575040,168731,26376,872138454,20593,1.45,0.1,119934977,90774000,28928000,133850948,19
889543523,97088969,432387943,5909515,430050217,5891165,4840202,182575795,1557886766,11219329,883431569,125198,37003,3071354270,24693,5.51,0.28,420569841,393636000,27043000,434902886,19
861471609,43052583,378205403,2305619,378522733,2321364,12003859,61630258,1412735072,1435323,863680687,303792,53721,2556501182,41138,4.52,0.34,380961106,335015000,46002000,395294134,19
175319451,9580991,105463659,1091778,103673952,1015925,7233522,11258175,507137406,305093,170155862,150492,43253,727931485,40943,1.65,0.13,136499876,60142000,76180000,150699543,19
257406857,6663802,105672274,159732,105719645,159206,4007246,7186411,419747769,68713,269942657,111533,24953,875317876,20589,1.43,0.1,113498413,88162000,25046000,127693389,19
177076428,7018064,63758612,972383,64819012,944736,3977845,6997567,335686900,51128,173519428,169400,27147,514945711,20590,1.07,0.08,90480743,60189000,30094000,104748617,19
257779348,6696566,105636103,166782,105505015,164613,4048075,7260913,421553925,68806,268387838,153798,32059,873710976,20592,1.41,0.1,113504644,89171000,24046000,127814887,19
505764775,68102617,301121237,1075881,296428636,1059522,4802872,79978735,840114431,534804,501365866,111937,67218,2030857851,24808,2.99,0.17,226506013,194319000,32052000,240843171,19
243846440,12997553,127408433,1059005,126985312,1057084,8024926,13003210,562573091,107257,243113782,204511,49362,758646067,41006,1.86,0.15,152349584,103095000,49045000,166512227,19
150635772,6814016,64306921,922052,64603398,969472,3888901,7005972,359417299,78433,157093667,110775,34215,628479856,20592,1.13,0.09,97316838,71011000,26004000,111574804,19
171546716,6610852,45018731,149740,43209014,149564,4042152,7084327,353249158,77463,179294791,168583,26125,619103557,20588,1.11,0.09,95378481,73102000,22030000,109666608,19
1199650712,48378757,338937367,2381631,339394950,2359769,5798250,57134965,1370047080,1301646,1190955438,158434,34728,3411408294,20872,4.74,0.25,369998141,338995000,30999000,384048394,19
147584416,4746198,94768844,3270299,94679463,3151446,3843307,6605266,394137365,134280,146239517,60188,22107,572613016,20538,1.25,0.09,107129830,68955000,37975000,121268512,19
131831721,6930381,63074198,1009789,63442344,980802,4006609,6929220,340026829,57240,132340884,166198,26479,493885746,20593,1.12,0.08,92549479,69256000,23085000,106707655,19
203073213,12855032,126665934,1085015,127283027,1068551,7802970,12823979,541341382,97860,208168877,333421,47990,735290635,40996,1.76,0.14,146776137,96381000,50198000,160956407,19
139310695,3974973,67205609,951671,67259218,938097,2578171,6511774,318583108,63549,135139548,124859,26999,512614916,23386,1.01,0.07,86174103,59965000,25985000,100465197,19
622906158,22030499,365222075,2331813,366062076,2343772,9665380,33104678,1157633342,773191,623466044,213767,59212,2548130989,49175,3.84,0.26,313280979,246133000,67036000,327651504,19
212643245,7097237,108282706,204551,108747913,205737,4057000,11195450,497515242,118602,213220814,221661,51055,770036868,45688,1.57,0.1,134274419,84992000,48995000,148256051,19
984493246,55223568,438605308,2674942,439032018,2692993,13556501,69958053,1415780232,1459069,989451101,346521,63659,3258095397,41241,4.88,0.34,382201392,329009000,53001000,396573583,19
441569579,67729302,194497626,1065906,192080692,1057170,4614531,76201702,734381259,515019,441113760,111758,88871,1717144040,23576,2.65,0.15,198743531,166408000,32078000,212739230,19
131678866,6889418,63368208,1001675,64093505,972583,3984581,6944462,339066257,57975,132206475,156474,38411,494014814,20589,1.07,0.08,91949412,62800000,28908000,106233104,19
84522330,8286936,43095811,881865,42736465,876667,96539,1090415,172031791,5565,84769298,1012,1100,363296695,157,0.58,0.02,46562652,45307000,1006000,60597224,19
262646366,6721822,105291700,152052,105061978,154791,4026320,7110714,373750794,64569,268146181,158370,28116,917939276,20593,1.26,0.09,101273905,72340000,28737000,115709540,19
1138753315,40544083,435354242,2352365,436928391,2383249,9276596,46083446,1477460007,786843,1150545068,326838,55887,3321171182,41146,4.9,0.32,395803788,345728000,49960000,410062074,19
159001378,3997041,97812447,4609842,97180037,4693152,2459290,6675742,459110500,59837,154814710,115141,26855,598784289,23389,1.48,0.08,124056085,103698000,20135000,138137600,19
210461796,6731284,103759599,958889,106121604,1012166,4029720,7025704,355569992,55815,223243549,146505,28763,642069812,20590,1.12,0.09,96209236,65983000,29992000,110288967,19
161490129,3762358,107119305,148667,107226005,150578,2147481,6708383,386096313,56032,161126947,107113,26671,882079341,23390,1.29,0.07,104806474,87690000,16940000,119077772,19
209026593,13003499,147862526,261588,149756985,269210,8787630,12838671,563663498,312272,207670429,141699,45201,856579159,40943,1.84,0.15,151694824,86638000,64730000,165676403,19
956271812,27903274,419108643,2319070,419031518,2316330,5448127,33055976,1282281380,839052,952350552,155627,44543,3125617969,20700,4.48,0.24,343928170,314820000,28983000,358147279,19
142831133,12503107,64950358,207221,63073429,205679,7921654,13148296,514148673,105590,144000147,298197,46270,579339537,40999,1.61,0.14,139302179,85050000,54031000,153584053,19
841986948,107831424,365068471,428079,365407780,427550,9320502,192230537,1618868769,10100373,845118176,143970,69495,2872900226,49271,5.56,0.34,435136704,367866000,66975000,449367569,19
219281792,12041079,171894646,1102814,168589493,1056938,11673495,17743816,607903405,298746,213872661,143614,44128,1069323877,40941,2.01,0.18,164257849,94472000,69611000,178674926,19
147376785,4687125,92951799,3056361,92876975,3133799,3832597,6575295,409210703,134348,150035153,59640,79461,579989519,20537,1.34,0.09,110147534,72947000,36973000,124162130,19
47210501,409278,34393098,90027,28532181,91327,150398,1248382,51204159,6284,43190107,4469,1640,141685276,525,0.1,0.02,40318210,34765000,4966000,103322485,20
1707868,72216,971342,27341,970720,27279,49743,287994,5325379,372,?,?,?,?,135,0.01,0.0,1641983,1419000,0,15435625,20
1116034,78293,996811,29087,996189,29025,54814,314258,6559212,3194,?,?,?,?,136,0.03,0.0,1807603,1475000,0,15940284,20
615055,79693,1037452,29468,1036830,29405,66394,315382,6585845,3012,?,?,?,?,135,0.02,0.0,1694679,1505000,0,15682859,20
91503295,544962,66282861,131561,65972834,126183,198836,1092461,111997030,4596,102237061,7416,2971,286518225,538,0.39,0.02,30244804,26908000,2989000,45575515,20
37294602,457772,22015254,66493,19942052,66222,226418,1072257,51382793,4819,40164831,592,439,138057208,918,0.18,0.01,14290086,11910000,1985000,28425393,20
95786676,509545,70551394,114332,67773123,115328,155668,1291895,112503107,7151,94745085,9049,1930,290009982,1036,0.39,0.02,31284751,31005000,0,45618782,20
82439990,305526,51241106,85428,50699012,85852,163055,942806,99454044,7589,91088072,5854,884,254913417,522,0.36,0.02,27067711,26750000,0,40996470,20
74510465,3799258,50151401,398198,47793477,404156,317197,1670570,198637800,10794,76604938,18555,4154,256922061,2481,0.58,0.03,53708251,48382000,5039000,67956593,20
46098913,503005,39877352,97323,40480318,101715,130556,1035094,65303855,5668,43584237,8362,2191,151685423,1042,0.21,0.01,17955196,14739000,2947000,32078057,20
32658192,186036,16570326,57280,16627692,58988,150756,608152,41828800,4440,37093442,718,772,107673092,525,0.13,0.01,11250188,9023000,2005000,25456567,20
984289,83584,1016539,29218,1015917,29155,57070,308753,6266455,2509,?,?,?,?,130,0.02,0.0,1822923,1458000,0,15954017,20
38103485,318012,26271091,75558,26640387,77440,153243,949626,55899890,6217,42118367,4593,1291,133855507,785,0.18,0.01,15403063,13067000,2010000,29412068,20
100537542,756991,68678557,96886,69110331,114834,237237,2092476,121449281,8224,92743850,16268,7991,291068873,1941,0.42,0.02,33083049,26849000,5966000,47157667,20
96660695,451831,68201333,110693,66930321,111390,173568,1227060,111412163,5658,98971081,5758,840,290259477,521,0.39,0.02,30322397,27788000,1916000,44527599,20
45033760,503885,35428416,93976,35401009,94625,134813,822840,52471619,2358,38942169,3233,1251,142832910,524,0.17,0.01,13982677,11753000,1958000,28138241,20
30965116,305109,24628162,76337,24746515,76241,137997,815936,52192590,2478,38792571,3430,877,121376137,525,0.17,0.01,13927173,9815000,3926000,28052493,20
584720,78914,973446,27707,972824,27645,52760,296505,5958308,2581,?,?,?,?,131,0.02,0.0,1647773,735000,735000,15545532,20
84285166,335481,51734256,77579,50050832,75941,154675,1161940,101570752,5609,88233779,10335,2748,269041480,998,0.35,0.02,27678392,26305000,1011000,41867434,20
96060664,438956,67261195,112237,66725639,112786,154600,1166790,109027664,5296,100300970,6497,806,286008432,520,0.38,0.02,29861395,28662000,988000,44051045,20
44900112,475477,39532245,99814,38305108,100080,145894,977145,60400973,3844,47019907,531,469,153683688,526,0.19,0.01,16850570,14462000,2066000,30949570,20
44654180,502773,38889521,96443,40132933,105894,131759,1028553,67598731,5390,44445868,7175,2964,152746528,1043,0.21,0.01,18380625,15121000,3024000,32339488,20
91394049,192046,56703659,65447,56611784,64779,128323,980208,106492512,4670,93407643,8849,2483,278983860,585,0.36,0.02,29099151,25886000,2986000,43162632,20
75526777,180897,44301127,61995,44603707,62881,136634,786655,88525085,3392,80522005,3664,1151,225905667,324,0.26,0.01,26280710,24038000,2003000,40494180,20
45659767,928489,38830411,99125,37251720,99963,222111,1356539,64231138,4348,50633244,535,536,159714971,915,0.22,0.01,17353083,15076000,2010000,31522314,20
45447223,803381,38600989,97660,42876132,108459,198073,1735520,70331803,7312,42821054,12545,4650,142970642,1947,0.25,0.01,19007909,13794000,4926000,33105599,20
30585649,248748,17743210,69216,18484985,69395,163481,745983,46040890,4475,32141388,6293,3275,101457604,1041,0.15,0.01,12232928,8956000,2985000,25980592,20
47346488,390016,38882745,99943,37794024,100682,143206,1047324,62308189,4757,45873610,897,480,156859645,528,0.22,0.01,17184110,15927000,995000,31396909,20
372204,74066,979043,28431,978421,28369,53193,305743,6608352,1905,?,?,?,?,130,0.02,0.0,1689637,1400000,0,15728178,20
44122617,774515,37154540,94774,41641142,108080,212048,1734132,70883025,6972,43441684,12579,4579,145361843,1945,0.23,0.01,19156914,13909000,4967000,33247858,20
939579,72675,991737,28071,991115,28009,55109,302215,7260986,6657,?,?,?,?,134,0.02,0.0,1626190,1420000,0,15556699,20
45569341,485528,35299109,91585,34972190,91016,133320,903222,52298515,2619,39465721,2871,1330,142992956,523,0.17,0.01,14415694,13101000,1007000,28445999,20
83148233,286205,49115290,73035,49116143,73107,164302,984709,98106062,4362,90339248,6656,742,260201045,522,0.34,0.01,26643918,25442000,1017000,40665616,20
91969420,516958,66527398,111452,66469660,109091,154920,1120287,110450370,4586,101545112,5802,1112,285894067,521,0.38,0.02,29788877,26569000,2952000,44014625,20
43724728,266149,39769394,79657,43109087,89147,129580,1024779,65644825,3795,48420725,2843,1388,174166115,522,0.22,0.01,17709907,16502000,970000,31827713,20
78393557,135136,43202633,63651,43287442,55128,115941,711856,87724539,3765,80703768,6057,1228,231807079,327,0.31,0.01,23581069,23331000,0,37623827,20
29083065,154417,16067094,59226,16218199,64181,145334,625677,41871349,3550,32867302,946,747,101102365,330,0.14,0.01,10902312,8756000,1945000,24929207,20
26885021,151284,17442509,57324,17434967,52707,93528,474969,40567706,1223,31387519,688,801,98526433,133,0.12,0.01,10691019,9536000,953000,24955332,20
45871714,832009,35910569,88900,36233093,108185,212982,1434934,67534295,4644,49335527,1237,1258,160474228,918,0.21,0.01,18644132,15332000,3066000,32626294,20
79375628,130883,43498764,66182,43501645,57655,117349,728358,87085215,3844,79825378,6033,1277,229743942,326,0.31,0.01,23602458,23329000,0,37715446,20
44595498,803510,37812156,94183,42337035,105541,211581,1713486,70595666,7316,43183470,13682,4738,143708099,1944,0.22,0.01,19424055,16161000,3030000,33688798,20
308708,58072,992946,28000,992324,27936,57670,300584,6362019,4090,?,?,?,?,135,0.03,0.0,1699749,1418000,0,15838347,20
29154093,126959,16713321,56129,17221042,56264,137597,738176,41605817,2523,32236168,427,393,97830455,330,0.11,0.01,12598305,10299000,2059000,26920510,20
44067233,495282,35063578,87257,35076869,87374,130496,815590,53150738,2331,39294026,4958,865,141884206,525,0.18,0.01,14241490,12021000,2003000,28052691,20
97317621,474204,69188175,113335,67248951,118082,157577,1341658,116219032,6532,94752782,11321,1926,291879718,1035,0.39,0.02,31671761,29482000,1965000,45745752,20
98918672,773715,68445834,98913,68824585,112622,251851,2099919,122265893,8350,93082523,16628,8007,293165075,1940,0.41,0.02,33474072,31189000,2012000,47601565,20
78974688,146217,43966113,64371,43483695,57724,122940,723289,87298582,3679,79685591,5356,1281,231217371,325,0.3,0.01,23866995,23653000,0,37994859,20
565346,80768,1035657,30124,1035035,30062,61020,320108,7013434,2633,?,?,?,?,135,0.02,0.0,1753536,1458000,0,15757706,20
45648217,822414,37875305,99629,37680711,102409,219137,1454262,62999199,4511,47859653,1125,638,160083674,917,0.18,0.01,18031297,15755000,1969000,32353420,20
44967187,897883,42645664,112118,47356101,118134,274616,2041622,78486017,9874,42454780,18894,6209,144065412,2817,0.24,0.01,21304915,17019000,4004000,35322826,20
95919272,511390,70235910,112504,68116881,113494,167468,1308999,113191536,7185,96227719,9283,1915,289434237,1034,0.38,0.02,30902490,28666000,1977000,44986783,20
83729327,279221,48008749,65325,46190188,68745,246798,1173839,98729558,8710,84731008,10700,1995,249342138,1425,0.34,0.01,26761823,24516000,1961000,40764533,20
96843719,487109,69595833,122232,67585899,123357,161234,1321429,113973759,6600,95861721,11224,1854,291500142,1035,0.39,0.02,31036738,27644000,3071000,45106565,20
93774744,469993,65939704,110137,65880340,109872,155542,1189039,112568146,5420,103524242,5084,802,288152176,520,0.38,0.02,30241562,27986000,1999000,44133557,20
35279558,504699,23717112,67537,23731805,68285,163411,880830,50918018,2612,42154386,430,386,135574838,526,0.17,0.01,13615911,11317000,2057000,27567216,20
95647966,497457,69000334,113563,67811453,114592,159398,1321140,116278704,6983,96847139,11715,3677,291049032,1036,0.39,0.02,31478799,29234000,2016000,45550192,20
94280281,583065,56559937,102138,56182555,100922,135105,1235621,109796702,5656,99661391,8290,2764,287071728,779,0.38,0.02,29975796,28727000,990000,43882768,20
46470314,479374,38509371,92064,41366521,104873,136327,1177332,66899907,5770,43969732,8346,5804,148162305,1042,0.22,0.01,18521835,14194000,4055000,32808674,20
80567357,382662,50401922,75652,50450621,75073,136299,1003774,100164358,4320,88502947,7888,1727,258949792,780,0.34,0.01,27288886,26025000,1000000,41500957,20
31682848,539329,25255970,82450,25255725,81949,190179,942759,50217759,2649,36861051,6091,1548,121966566,917,0.16,0.01,13502500,12218000,1018000,27742746,20
97061604,500940,63545537,115182,62933069,114046,166942,1137477,100788532,7749,92490316,5864,947,284837183,520,0.35,0.01,27580839,27321000,0,41695361,20
44934630,806312,37679683,85812,42436192,101568,210244,1733184,72368923,7303,44075332,11307,10496,146438992,1946,0.23,0.01,19457924,15185000,4049000,33482564,20
45326088,871089,38275194,87919,42645635,102792,195950,1729990,71052529,7472,43975168,12129,4929,146991890,1944,0.24,0.01,19076615,15817000,2965000,33384610,20
94139871,538735,63005175,100181,63020903,99934,164505,1133024,103872660,5643,93859428,7136,739,283065871,519,0.37,0.02,28054741,24825000,2979000,42387892,20
75986550,184622,43912307,62758,44574757,53048,116641,722701,87142686,3608,79120330,4911,1131,227861504,325,0.29,0.01,23725937,21315000,2030000,37588052,20
28537163,175028,17856510,59113,17965238,58542,109347,531788,42145806,1556,33023329,2042,975,101450547,329,0.14,0.01,11112752,9851000,985000,25324990,20
45680525,913478,43013680,109055,47843134,112671,294573,2081694,78652833,9928,43015594,19608,6665,143256944,2815,0.27,0.01,21276387,19039000,2004000,35359564,20
35229104,498386,24082687,83826,23224111,83691,215524,1009922,51674245,8762,40221208,555,399,135923065,916,0.17,0.01,13947236,10723000,2924000,27998381,20
96657998,889347,68077234,114977,65938023,118329,283184,1691929,113165392,6695,99064450,3791,1454,292359133,913,0.35,0.02,31181822,28914000,1994000,45389799,20
1044923,70523,961514,29475,1007208,29084,56084,308980,6500688,3434,1086907,255,?,?,130,0.02,0.0,1721444,1398000,0,15600852,20
94858507,529920,62733418,113567,62744833,107123,164057,1087567,101990167,6929,96273480,5189,722,280189152,521,0.35,0.01,27193629,24940000,1995000,41292230,20
101370580,779837,74177578,129426,75441895,146424,237571,1690222,126090625,6200,104890332,3584,1522,343623929,913,0.43,0.02,34050488,30839000,2984000,47938947,20
30524851,281666,18287439,60330,19170449,60535,168907,730741,45738036,4541,32096695,7228,2375,101960380,1044,0.16,0.01,12030098,8909000,2969000,25908993,20
87096798,573762,53050259,78804,50962116,79079,206207,1662909,109926508,9293,86559482,16102,3122,266665283,1899,0.38,0.02,29613196,25296000,4047000,43880580,20
76621355,2494716,48367709,138849,44650094,139865,2753462,4413847,278640128,73864,71190104,158162,94240,280637656,31044,0.86,0.06,75535830,27076000,48136000,89610669,20
42868494,441275,32327454,83956,32727984,84847,140780,1079401,62150593,6754,41290479,8163,4435,148524047,1043,0.2,0.01,16953140,12740000,3920000,30866201,20
43994467,505031,39389204,96988,39907409,102781,139507,1078685,68053107,5953,45598655,8822,6754,154411153,1044,0.22,0.01,18142801,16881000,993000,32382594,20
449136,77131,990700,28703,990078,28641,55813,307319,6024835,1932,?,?,?,?,132,0.02,0.0,1690202,1416000,0,15745056,20
93456150,478561,66626251,111345,66357492,113486,161059,1184760,112928336,5290,101927456,7955,917,286286363,521,0.37,0.02,30655873,29233000,1008000,44699848,20
97689755,449930,69569840,110759,67781556,111445,166835,1217429,110520360,5517,99801248,4914,807,293639886,519,0.38,0.02,30564377,29297000,1010000,44719491,20
10405977,37225,8640206,40988,6403126,54933,96925,682933,14223062,3572,8092236,1887,899,39413247,132,0.03,0.01,13068031,9169000,3056000,76607409,21
53156596,3534757,55778335,208713,62729314,232342,806211,3896723,91362416,36187,49237414,10998,9792,167572323,3064,0.3,0.02,24606429,17150000,7062000,38830717,21
21627174,549754,14289606,60980,12888485,64522,265996,1190146,41177475,8281,23296465,12453,9061,68012700,3111,0.11,0.01,11759771,5769000,5769000,25876085,21
15215716,370533,9177267,59952,9391542,54935,786579,1408285,74669944,16924,15583812,24000,17170,54786579,4327,0.22,0.02,20236908,11002000,9001000,34387599,21
669567616,277362,993863143,664073,991765080,650154,104450,2701016,712393262,18983,672251053,2741,5189,3531832285,140,2.35,0.1,192847686,191549000,1002000,206922566,21
1946016,156554,7758265,30896,7584929,32075,56725,336922,14216398,1327,8448207,1619,?,?,136,0.05,0.0,3773388,1749000,1749000,18005255,21
199436677,47445766,137745499,925274,137930343,926299,1162793,5094302,735134133,32727,198849513,37340,23715,594945006,5991,1.93,0.11,198522853,189346000,8969000,212644257,21
115802048,2717245,57550690,130786,54893287,123417,953619,4186202,132334208,23373,100839205,18005,9167,298657670,3058,0.46,0.03,35999245,29756000,5951000,49975233,21
25228417,522570,15281610,68000,15629425,64853,311612,1263259,52904072,11185,15366036,25386,16870,69087613,4143,0.16,0.01,14265376,9600000,4266000,28492703,21
40018377,2427223,25857209,82042,24657624,82208,660729,2935238,63182761,16697,20137028,20945,17390,137235765,4143,0.2,0.02,17154757,9918000,6943000,30936069,21
268583468,52739571,236148180,1812067,238141056,1798772,1595654,7188508,956386524,41587,268892854,45317,31662,904918412,7926,2.64,0.15,258326340,245924000,12045000,272663923,21
673515656,50675110,500905979,613746,501009640,630380,280640,3013299,655410030,22318,675593817,2946,5691,2704537540,150,2.12,0.09,174625442,173331000,1001000,188790280,21
665063,80584,1112701,28952,1112079,28890,58696,313597,6923625,2577,?,?,?,?,140,0.02,0.0,1831743,1561000,0,15995762,21
3450494,154380,7618943,34380,8585112,31465,56556,336136,18140196,1540,15622153,1157,6317,5796567,122,0.06,0.0,4744008,3400000,1133000,18723126,21
336318411,365308,662633542,671070,662903967,661712,132411,3307477,879864000,24060,337887416,3156,7621,2014467003,139,2.76,0.12,236159808,233883000,1999000,250110078,21
335674226,248690,497978175,603785,496541334,616277,113893,2155245,535007606,14262,336391357,1708,3809,2360570040,143,1.69,0.07,144510594,143241000,1001000,158417994,21
48518104,2084683,52741391,202913,52239195,183723,457849,3181630,96653820,13467,39850973,18384,15359,179447130,4145,0.3,0.02,26516934,15569000,10704000,40838951,21
335330010,249396,498470218,590483,498591265,601545,105156,2163344,546447516,14791,337064198,1658,4039,2188833652,134,1.67,0.08,147351750,145093000,2001000,161283756,21
29788274,1923822,19771018,81720,21134035,85396,1686484,3736144,122184242,29512,33865965,58540,41855,111673255,12066,0.38,0.03,32669285,16193000,16193000,46665658,21
1821740,121959,6729166,32087,7094193,32026,60592,337562,13723528,1712,11161647,?,?,?,137,0.04,0.0,3428585,2140000,1070000,17336684,21
334867997,340063,415903828,646738,415984520,632287,127436,2907924,770563304,20755,336405448,3028,5824,2264906240,139,2.35,0.11,207822782,206520000,997000,221750579,21
501196910,294259,662511716,620139,664016633,632077,115795,2616691,703998955,18608,503570226,2095,5111,3355377911,139,2.25,0.1,190085654,187685000,1996000,204035829,21
68579023,3390635,68708183,185980,69074125,197764,1353712,5149285,121987717,28609,63633988,18621,21905,219518531,6140,0.38,0.03,32894860,25453000,7126000,46949888,21
8130815,247502,5965019,48527,8341056,33212,60821,368944,20926871,1426,16467487,691,1049,50743815,136,0.06,0.0,5933564,4706000,941000,20106429,21
3191151,169487,7684920,34217,9617823,32927,63879,355788,17677511,1561,15989775,1375,4439,4356215,138,0.06,0.0,4606423,3255000,1085000,18749041,21
3562966,166290,6984973,36044,6828044,33888,59878,363796,18426567,1547,9745590,1481,3128,2945553,136,0.06,0.0,4884452,3427000,1142000,18743870,21
69400751,1839937,85058117,226449,85328597,195249,371991,2942596,126913090,13337,66620293,16568,12873,301452104,3335,0.33,0.02,36656608,29261000,7063000,50974088,21
22678093,87352,12109641,56193,11450043,56770,99837,651773,49767552,1954,19493657,117,336,86474673,138,0.16,0.01,13475694,11337000,1889000,27703089,21
1310972,210397,4712078,46549,7131667,37980,102485,426470,19629363,1660,17402916,672,2301,27875861,139,0.05,0.0,4737087,3480000,870000,18900256,21
68963890,1583332,86053760,197647,90237125,194663,254158,2514818,128476665,12483,65761706,11742,13924,297362224,3141,0.4,0.02,35326308,31041000,4005000,49566743,21
164891544,24364932,109342263,957167,108599429,954210,1405838,5890315,770830237,35365,164832293,24842,30050,509764461,7939,1.99,0.12,208062556,199945000,7997000,222369858,21
840068963,600734,1668658458,2443098,1668271995,2453829,274995,6631082,1784809034,48649,840235156,5958,13813,7523702469,135,5.42,0.25,480859782,479840000,999000,494867745,21
26343593,968489,13040045,77802,12547524,69578,594070,1516348,86114255,14835,24341798,15450,17774,84747500,6208,0.27,0.02,23579064,16493000,6791000,37998237,21
2807819,171366,7856594,32211,8691762,32253,57418,342433,14950213,1373,12620045,1733,?,?,133,0.05,0.0,4075448,3864000,0,18207785,21
14868972,310599,10043227,69618,8955980,62208,182651,921743,35133254,5687,14924151,8400,8038,51776920,2136,0.11,0.01,9748172,8380000,1047000,23691575,21
669219799,329424,498106960,618448,499028413,625134,174358,2826062,709153689,19521,673216988,2653,5996,2690564304,136,2.23,0.1,190428998,189148000,1000000,204800825,21
16471785,965075,11347577,62822,11360041,63027,708493,1816839,63750549,13178,18040496,19938,20110,62498649,6093,0.19,0.01,17087170,11850000,4937000,31380717,21
1179963,152944,4741301,43481,8289930,33818,62085,366211,18435144,1952,16793156,1067,3681,46804631,138,0.06,0.0,4902134,4669000,0,18920890,21
335866671,256839,496830408,596261,498200363,604207,145397,2231796,546757689,15131,337576102,1694,4659,2190457352,137,1.68,0.08,147599176,145337000,1990000,161588343,21
15130312,152819,4362263,50786,7874890,35317,62789,379893,19886856,2138,16007119,633,1309,55880876,132,0.06,0.0,5856181,4492000,1123000,19846042,21
334613872,245536,498511327,579304,498364976,591324,100109,2037454,495386557,13772,337589726,1574,4204,2025387159,135,1.53,0.07,133317573,132140000,1001000,147364552,21
345793845,238527,501547727,779018,502377379,765289,127406,2259327,550714527,15274,346210865,2239,4388,2221322011,139,1.72,0.08,149138513,146017000,2979000,163185157,21
24601123,510547,15145107,62710,15402347,63977,309597,1284490,54475050,11063,15753684,13805,16531,69627244,4141,0.17,0.01,14574199,10139000,4055000,28483774,21
18556650,162322,5239209,52466,11191108,34618,60772,390918,21977028,2068,24588637,574,1141,78236961,135,0.09,0.0,6059665,3824000,1912000,20200524,21
16995345,87500,6600518,58301,5666575,57705,110612,554259,39305457,2059,14072915,747,969,47909707,133,0.12,0.01,10755158,8675000,1927000,24879992,21
41060119,149915,14867874,59961,15198262,55553,87591,613878,82146365,3175,42283747,739,1103,111779269,139,0.26,0.01,22283104,19950000,1995000,36223126,21
337804862,408278,499528357,613087,500327735,627784,162828,2615893,543682757,19146,339172456,7592,5375,1524670936,134,1.73,0.08,147420587,146230000,1001000,161447661,21
334477703,315648,498397947,620681,499653657,629147,149963,2750647,704489196,18809,335746185,1924,5633,1348183586,145,2.23,0.1,190353493,189142000,1000000,204336432,21
2123714,145547,6718963,30784,7081728,32104,59664,347111,13656323,1553,9228560,2953,?,?,138,0.04,0.0,3741014,1765000,1765000,17796877,21
19186534,330265,8615194,58654,8436555,58933,577339,1140454,57432040,11348,12437500,4618,4031,56505436,2198,0.16,0.01,15831715,9748000,5849000,29909299,21
672061869,287690,498324613,631294,498836027,624156,118657,2609177,626374733,17290,678622319,2032,4518,2705062225,139,2.01,0.09,168230472,167030000,1000000,182210194,21
1154452,184924,4714256,39051,7554598,33712,64713,366601,15187067,1657,9985285,1113,3017,10458577,136,0.06,0.0,4228221,3865000,0,18403682,21
336309299,315807,663341893,627528,665971117,642704,132753,2734467,703313094,19355,336416997,3147,5876,2844891687,145,2.22,0.1,189755800,189577000,0,203916256,21
1684893,152101,5510546,30717,6608479,31802,63360,354979,13836639,1659,9621213,1841,?,?,137,0.04,0.0,3599767,1690000,1690000,17481368,21
1059658,196844,5671693,44534,9702537,35005,58553,354367,17309248,1675,17526162,861,1548,36135488,137,0.06,0.0,4760961,4551000,0,18651280,21
934762,78794,1366350,28570,1365728,28508,55565,313719,7741549,2840,?,?,?,?,145,0.02,0.0,1953609,868000,868000,16042454,21
1363021,194006,5598940,43470,8532736,32467,59397,352009,18542142,1675,18364704,869,2895,49948380,137,0.06,0.0,4996344,3847000,961000,18846074,21
23772374,524466,11315118,59265,10726571,58170,629348,1402338,71848820,13095,20356142,17119,12453,72355176,4200,0.21,0.01,19551067,13176000,6081000,33581740,21
676379856,49399809,500118490,689957,499900528,683616,128169,2644485,630229082,17890,677966262,2085,4188,2540392279,149,2.09,0.09,170072637,168877000,999000,184178193,21
79721150,1672707,43906815,103520,38543915,87851,830165,2856414,71294469,13501,52668241,10987,4532,188187775,2083,0.25,0.02,19296596,13009000,6004000,33344811,21
10304293,148484,5199835,64561,4394574,51307,82983,436265,37233287,1313,9513871,495,761,31761439,131,0.12,0.01,9944988,7710000,1927000,23928849,21
3986622,574883,7326624,32591,7756213,33548,61671,358419,15853604,1630,14162254,2841,984,754303,155,0.05,0.0,4361639,4139000,0,18160404,21
335065488,357963,499412440,682621,499786212,679680,241212,3505304,882164854,22519,336705489,2684,5800,2344599828,139,2.8,0.12,236851735,235549000,998000,251016606,21
335309374,276803,500580110,603969,499588890,616543,120472,2458677,593850591,16801,336144872,2285,4625,2521288660,141,1.82,0.08,160470077,159260000,1001000,174540373,21
23431192,523170,11064950,58382,10512001,59418,632745,1397693,73420149,13610,20432690,18249,13019,73315820,4202,0.22,0.01,19448901,14163000,5058000,33484301,21
335168773,276845,499693778,774569,499557154,793949,182794,2268775,541186611,14670,336209900,2279,4021,2185960697,136,1.67,0.07,146200789,144853000,998000,160522015,21
18389333,945842,11020854,63910,11575777,64172,737115,1820880,62156229,14095,18717644,23260,19903,64038634,6097,0.19,0.01,16960606,9834000,6884000,30743949,21
35029379,1703818,22133639,80863,15082889,61492,638697,2211333,48760394,6212,34993558,2384,1262,136299744,2084,0.16,0.01,12980414,7831000,4894000,26929462,21
344837255,999801,508436326,672604,511150572,675470,424426,3757164,917763620,56672,342216079,18834,19915,3705459015,4034,2.81,0.13,247474175,238237000,9008000,261701688,21
174145776,9448573,166116241,321068,169630662,287541,4446768,12991959,289559712,42990,182260148,55796,35965,699897308,9997,0.99,0.07,77940398,60503000,17142000,92046806,21
26660215,1565368,14950044,81306,14421293,81671,1773670,2538640,111179538,24713,23648943,41551,24545,90118637,8647,0.34,0.02,30059861,16870000,12900000,44141852,21
1079805,163786,4887919,33998,7563203,31520,59251,332398,15071499,1398,10539997,1323,?,?,134,0.06,0.0,3982210,2838000,946000,17899855,21
2951493,149696,7027601,32677,7235158,32980,59937,354673,15402417,1478,8949356,1813,447,345337,130,0.05,0.0,4099160,3804000,0,18215557,21
335973393,327995,499477312,662982,499510614,659598,145013,3372266,875472906,23155,336782117,2840,5972,2346104419,143,2.76,0.12,236536852,235332000,997000,250454949,21
2424206,185222,5484063,34436,7070910,33364,63987,350753,16848726,1472,11938771,1138,2121,12589315,135,0.04,0.0,4491609,3118000,1039000,18226164,21
170871834,228988,497821070,592958,497829833,608641,122383,1923864,432435903,12555,171073981,1851,3400,2020415307,137,1.35,0.06,117240724,116003000,1000000,131398426,21
335375820,226187,331225209,597184,331152218,594145,126121,1897354,418979612,11296,338814932,1485,3303,1862099879,139,1.32,0.06,113029792,112790000,0,127279454,21
334843702,295333,333579132,609242,334231767,618287,113076,2696373,702778012,18827,335443385,2558,5218,1846063438,131,2.22,0.1,189610994,188328000,1001000,203717394,21
16572905,979492,11152961,63969,11573779,63335,766333,1877406,64454376,14184,17872379,17242,20279,63782264,6095,0.19,0.01,17191405,6898000,9854000,31150779,21
3504207,160195,6864391,33661,7102218,32597,59671,349528,15768976,1514,9922499,1838,372,288501,135,0.05,0.0,4346529,3048000,1016000,18632733,21
29645947,89040,18114750,49958,17202011,63062,100764,958029,39169881,6723,26702122,3194,2032,91460477,134,0.08,0.02,33157103,28200000,4028000,98643868,22
36102287,149356,18827092,57344,18825759,57528,139495,665853,45301448,2362,38771180,3513,1007,112477092,524,0.16,0.01,12431722,12145000,0,26588035,22
77671393,157518,44125880,62543,44477506,62190,107289,715426,87248219,3339,80995588,6233,1306,229244974,322,0.27,0.01,24945060,24685000,0,39031385,22
78349714,386485,42957780,65573,43003336,65566,210708,930550,98112622,4474,87277349,6405,1750,233695244,912,0.34,0.01,26500942,23128000,3016000,40594547,22
77807097,124156,43764161,64580,43870614,55951,97233,656267,85529373,3148,77997163,3712,1203,223148986,128,0.3,0.01,23418204,23154000,0,37405410,22
27705221,239336,13985786,60475,14072402,59826,155059,606422,40861595,2381,32722059,718,902,101450271,525,0.13,0.01,10777788,7682000,2880000,24979347,22
34027614,560145,24568169,79379,24512379,76973,236724,1167784,57135527,5020,39263948,9114,2721,125387610,1307,0.2,0.01,15434923,14138000,1009000,29363561,22
27399992,242541,14157771,60608,14001255,59081,154579,620670,41116632,2203,32671582,652,992,101945099,525,0.13,0.01,11009314,7809000,2928000,25327944,22
28305329,245116,14584539,57957,13828290,59153,147830,609601,40323148,1997,33464525,674,854,104195681,524,0.13,0.01,11350019,9051000,2011000,25724591,22
29079917,313745,17388010,57467,16849933,58024,184314,672503,43506559,2608,32009366,5032,1642,101043834,917,0.14,0.01,12236650,12013000,0,26378834,22
28101393,290422,16490368,58581,17528857,59001,151749,733346,47228989,4124,31582796,5907,2368,99548251,1042,0.16,0.01,12484676,9188000,3062000,26558092,22
28674212,314404,15010342,58868,14565551,59301,191665,703234,45406591,4653,36692075,2176,1391,102141261,914,0.15,0.01,12560964,9230000,3076000,26525070,22
77931009,277645,46418486,66787,45515336,66544,159696,933933,94945433,5772,80633732,7539,2185,235862462,1035,0.33,0.01,25741954,22330000,3045000,39917450,22
76754062,375250,42778216,64951,43707827,64166,153560,803606,94136284,7465,82992809,4737,1854,235056009,908,0.33,0.02,25118965,22850000,1987000,39497785,22
78573125,276019,46181207,67631,45206472,67947,159060,941852,95266223,5976,80751321,6420,2210,236105895,1036,0.33,0.01,25477722,22185000,3025000,39765618,22
31476052,172849,15505345,60201,14116757,59733,160097,646464,39758564,5688,32616528,724,750,104909157,524,0.14,0.01,10928565,9567000,1063000,25361775,22
27709334,298268,16103194,60119,17146765,60748,157831,692777,45468733,4128,32022813,5508,2497,100183683,1040,0.15,0.01,11965467,9752000,1950000,26236248,22
26615635,212621,15843407,57449,15137763,57066,120979,568746,40017529,1481,30869464,866,763,98408595,328,0.13,0.01,11233853,9988000,998000,25313338,22
28716291,222589,14176015,60295,14172074,59724,156513,634045,41926165,5095,34144986,747,755,104444179,524,0.14,0.01,10905136,9651000,965000,25157468,22
28019018,236983,14038651,58867,13854824,60232,147884,612493,41148313,2242,33439658,719,886,104568541,526,0.14,0.01,10962931,8791000,1953000,25200074,22
25119656,159817,14269269,64221,14550984,51252,94298,467321,37039810,1379,29061168,726,894,91311980,134,0.12,0.01,9865829,7718000,1929000,24031418,22
76783479,252386,43741746,65015,43596763,58112,146795,809268,90395518,4408,80675728,2668,1182,234055887,517,0.3,0.01,24571544,21473000,2928000,38769659,22
28516299,222666,13851019,60035,13847314,60055,157648,629912,41789353,2520,33849454,768,1088,103952181,525,0.13,0.01,10865151,8668000,1926000,25092946,22
75107869,155284,44083316,62557,44136032,57898,92094,704935,86633413,2797,78590926,2797,1132,225675499,128,0.27,0.01,24630018,23362000,1015000,38849166,22
49937612,776487,33493961,79158,30678945,71216,721421,1971289,89452361,12796,57352473,11814,3265,197100816,3261,0.29,0.02,24016488,15466000,8248000,38416886,22
76902248,213603,44379852,64014,44337808,63384,133399,763451,89860479,3572,80993373,6208,1504,231469554,518,0.29,0.01,24631545,24403000,0,38799414,22
75798107,261764,42883855,67277,44316657,57321,141569,784784,89034100,3813,80351898,2259,1253,232413624,519,0.31,0.01,23967112,23680000,0,37816374,22
78044197,240266,43616693,65711,43485453,57665,143296,799631,89255367,5536,80914226,1800,1099,234875396,516,0.3,0.01,24200098,21943000,1994000,38493888,22
26094971,213183,15128494,59345,15208836,54153,125412,546164,40871829,1429,30912950,797,851,99121322,330,0.13,0.01,10864865,10620000,0,24836602,22
131429476,3216818,88465202,173460,88963259,175816,3526965,5549504,404815755,94454,118370520,109336,45699,441161127,39194,1.27,0.08,109493614,41103000,68171000,123583609,22
26953920,252618,14508621,62351,14573551,57970,164162,627977,41520085,3063,32148876,820,797,100134525,526,0.13,0.01,10971493,8576000,2144000,24866790,22
77243111,198752,42700851,64925,42646477,56978,140911,782244,90499133,3864,81856478,4006,1625,235965703,519,0.32,0.01,24075172,21912000,1992000,38324011,22
79930800,209475,43719525,65057,43225115,57905,155655,770125,88720672,6800,80148914,1513,1449,234031321,518,0.3,0.01,23950202,22806000,1036000,37998765,22
26426305,208577,15107087,60502,14860739,60483,146566,601820,41666862,1555,31728812,653,847,99750087,329,0.14,0.01,11181122,8958000,1990000,25275652,22
29018797,389865,14763679,58509,14454258,58457,195640,666869,45142608,2612,36943330,2261,1505,105810538,917,0.14,0.01,12064327,8905000,2968000,25913850,22
26803488,149609,15100130,60774,15199789,53774,101093,483649,38431926,1372,29180889,712,792,92055968,134,0.12,0.01,10259445,8033000,2008000,24105087,22
72897081,5419292,39768111,260301,37262840,261085,478782,1957997,194138681,12814,83191195,19615,5228,252844076,3259,0.55,0.03,52014375,46839000,4982000,66136548,22
26399819,212260,15133643,62517,14866019,56445,122589,563377,40414546,1454,30550911,705,948,97675549,329,0.13,0.01,10818092,7412000,3176000,24857709,22
78265492,188182,42765150,65906,42727118,57937,148787,811122,89970043,4017,81965847,2885,1307,237431817,521,0.31,0.01,24161310,20947000,2992000,38169411,22
77961680,237637,43494646,64892,43552931,58671,146284,797979,91623231,6185,82330574,3459,1102,237627519,517,0.33,0.01,24257883,22049000,2004000,38522120,22
80639162,139181,44587234,63335,43814227,61097,125715,757647,87012523,5529,81829937,4765,1147,234994475,322,0.31,0.01,24327635,20089000,4017000,38503747,22
30673926,192063,14716398,59282,13920014,58865,164418,635177,39728817,2882,32830076,788,872,103930097,524,0.13,0.01,10709739,9424000,1047000,24839262,22
31149365,311650,15986138,57274,14362793,57549,245160,725279,46368142,9297,35618886,421,797,114473488,915,0.14,0.01,12209786,9004000,3001000,26341375,22
77729287,234800,43519985,65301,43624344,57829,143612,808719,90240338,3951,81129931,3988,1299,235934474,520,0.31,0.01,24263108,23095000,1004000,38427019,22
71147734,3162643,52835058,293423,55361907,298698,573123,1725435,139339860,11306,80414451,13664,4637,251655090,2868,0.45,0.02,37453225,32195000,5030000,51637529,22
75868768,192223,43875997,64106,43973596,56042,119101,725853,89028351,3218,79503523,4230,1144,229690533,322,0.3,0.01,23993812,21824000,1984000,38040341,22
78830476,166962,43910581,64848,43581714,58550,127861,744706,88533236,3884,79640507,5676,1270,232636643,325,0.3,0.01,23963023,23722000,0,37891623,22
25430047,236390,15600050,59349,15603127,58680,132755,547253,40592776,1983,29961368,3401,1540,93217566,524,0.12,0.01,10981744,8814000,1958000,25069836,22
27503553,251319,14070126,62032,13989201,56079,146305,610577,40397298,2256,31841110,863,906,100162615,524,0.13,0.01,10737312,8380000,2095000,24662203,22
74485093,155627,43437110,65000,44813150,54287,91452,647763,87013901,3400,77906102,2344,1197,223401467,128,0.3,0.01,23229807,22000000,1000000,37497779,22
26784017,137810,14192904,61817,14228473,52659,96699,481318,37663791,1332,29987681,731,727,95316424,134,0.12,0.01,9889500,9664000,0,23669545,22
29871476,210171,14469945,58521,14231495,58240,164884,655427,41249076,2735,33880159,865,902,103643828,525,0.13,0.01,10904090,6807000,3889000,24841211,22
29221580,241826,14999620,59113,14329531,58988,153373,632076,40664743,3725,33863582,673,791,104464368,524,0.13,0.01,11300366,11088000,0,25484906,22
28329021,298984,16485942,57927,17624274,60932,166779,714635,44349817,4331,31290695,5671,2475,96348785,1042,0.14,0.01,12026065,11714000,0,25903423,22
26714361,147914,15073592,60813,15057823,53078,97485,489927,38618217,1414,28930657,806,736,92441185,133,0.13,0.01,10114269,7917000,1979000,24214184,22
31375542,177595,15157580,60857,13924231,58637,155891,646447,39398717,3285,32325558,859,874,105131681,524,0.14,0.01,10788994,10577000,0,24841941,22
78465773,164480,43812792,64978,43649401,59820,127338,731510,88390631,4006,79947197,7788,1557,232059323,519,0.3,0.01,23910547,22689000,1031000,38070684,22
47494052,325897,28358317,64190,26323419,67181,396487,1450812,71176237,9606,33596037,10283,5055,140377082,2994,0.24,0.01,18997672,13810000,4932000,33213929,22
26903209,137762,14383985,59803,14359521,51485,98611,479003,37952583,1352,29811293,652,794,95121349,136,0.13,0.01,10007636,9770000,0,23964721,22
31099968,179292,15611355,61290,14443660,61201,165182,669154,39811934,3315,32326297,713,946,104209838,525,0.13,0.01,10928902,8570000,2142000,24907103,22
29417115,212584,15218037,61121,14894804,60525,161689,657344,41802571,5021,33505751,612,869,105948835,523,0.13,0.01,11105180,8860000,1968000,25097094,22
28622294,219215,13775413,60277,13769088,60278,159075,636371,41726628,2810,33976571,726,882,104304045,526,0.14,0.01,10870645,8669000,1926000,25096703,22
77208921,239424,43156698,64655,43027765,57426,145138,809258,91169156,3881,81103247,3092,1295,236169939,521,0.32,0.01,24386757,22174000,2015000,38566159,22
78885138,99207,43457092,63555,43282015,56062,93767,670939,84505567,3767,79239345,2402,1233,227353861,128,0.29,0.01,23354035,22015000,1000000,37395473,22
82949192,303819,46218168,67436,43758620,68103,257292,948656,94362678,11635,82351635,2402,1117,241925498,909,0.3,0.01,26166348,24913000,1038000,40339362,22
26240812,217546,15317628,57962,15487368,58191,127311,576921,42876425,1681,32331282,669,900,100672257,330,0.13,0.01,11199584,9995000,999000,25502046,22
85973038,440434,47435469,67139,43224310,67599,353030,1384337,100042519,15264,84933795,5349,793,257837254,1300,0.34,0.02,27779623,22389000,5088000,42318715,22
31147653,146485,18075381,57752,18265190,57918,104074,520590,42748920,1423,37512503,591,777,106377901,134,0.13,0.01,11277480,9266000,1853000,25381901,22
74606564,156434,43397896,64436,43985642,54543,90666,668875,87699070,3347,79306422,4219,1085,228366062,128,0.31,0.01,23615194,22377000,1017000,37712306,22
26797317,254756,14173141,61880,14224788,57564,153534,618893,40996625,1958,31958993,645,864,99506302,526,0.13,0.01,10930087,10677000,0,25024310,22
37380236,460720,23301411,73980,24266681,74149,151777,950707,56901396,6066,40312867,7441,2297,137922414,1042,0.19,0.01,15359283,13078000,2012000,29571206,22
27313904,253103,14187609,59910,14061904,58070,157597,613466,40668083,2064,32188394,652,849,100107203,524,0.13,0.01,10983153,7831000,2936000,25105010,22
78962347,240456,43998682,66713,43187284,60919,146530,814619,89644866,5841,80918091,2463,1098,236276622,517,0.31,0.01,24664085,23379000,1016000,38716795,22
30628293,260134,16613127,59318,17419356,60665,164425,822611,44852189,5117,32158626,7061,2222,102581033,1040,0.16,0.01,12257103,10144000,1844000,26443233,22
82270669,170596,45339180,62739,43097621,64289,159092,830755,87972755,4961,80473663,3873,1257,236724265,521,0.3,0.01,25041924,21810000,2974000,39300820,22
29355316,207493,14967167,60651,14573528,57645,159515,644843,40782591,2734,32810806,762,947,103439664,525,0.13,0.01,10822525,10564000,0,24940696,22
78511853,200152,44047950,62831,44006234,62633,163602,1063098,90484835,7587,82664639,1207,745,236729689,517,0.26,0.02,27403704,25157000,2012000,41665834,22
78772503,97448,43641709,61670,43625793,56430,101940,682194,86364405,4046,79453484,5015,1364,229081474,129,0.31,0.01,23426384,22170000,1007000,37735958,22
27527061,225262,14572546,58191,15166354,59112,174273,662238,42224405,5552,33624593,646,754,101790840,522,0.12,0.01,11789438,8667000,2889000,26260816,22
31531912,133613,14893348,58977,13816118,58244,163059,631836,38979744,3139,32472350,641,905,104056045,525,0.13,0.01,10629174,9381000,1042000,24793669,22
94338145,1452796,65778982,326449,62869950,236806,425574,3954147,136992551,14914,80168122,17168,4922,289344788,2215,0.38,0.03,53730242,45370000,7890000,105532777,23
319359690,2974950,197028031,1264724,194842421,1265698,1966038,10401910,477735784,139962,320520865,25591,15795,970205200,2467,1.67,0.09,128949339,123654000,5026000,142886330,23
310810203,2873321,193163953,1210678,193712229,1121294,974620,8453312,440961649,48426,314445901,24286,7289,942904973,1955,1.55,0.07,119182344,114826000,3959000,133350189,23
309927174,3526282,192010391,1164192,192981804,1079899,1200047,8961379,442877189,55750,314804666,33951,6733,935298287,2061,1.55,0.07,119582617,113287000,5962000,133636252,23
114189613,3606780,88154049,558639,85972491,632143,1458254,8459476,256847643,54774,104085814,39145,11012,394608223,7165,0.85,0.06,69752150,58302000,11057000,83880774,23
104803078,3108336,72967522,689473,75949217,584920,1009207,7529813,225262988,43042,109027179,12084,3567,361821286,2656,0.76,0.04,61276154,51910000,8984000,75497832,23
122040932,2780950,81423780,715374,79118830,751027,1132385,7273430,246937350,40217,127610845,29908,12765,409967626,1893,0.81,0.05,66701536,59482000,6939000,81019713,23
105013485,3123643,69686830,752944,70843774,748668,1921436,8797490,239413557,100718,113779076,11304,4985,373715847,2476,0.77,0.05,64798942,60387000,4025000,78967676,23
252424090,27513022,191659312,12171534,189870770,12322244,18301770,64404094,1704836579,2766884,253268218,43085,24508,855048721,7993,4.85,0.41,459910899,433583000,25975000,474044348,23
315987529,3230060,197187990,1235261,196686549,1254858,1942977,9546734,468042149,134983,319936354,24726,6801,963958187,2467,1.61,0.09,126338918,122069000,4002000,140675692,23
311106339,3064581,192505818,1178618,194798730,1100887,1177222,8620701,451644994,48708,315461038,21336,9070,942658236,1956,1.55,0.08,120533033,112134000,7938000,134479918,23
313360956,3401097,191510614,1190640,192748098,1112032,1204671,9299570,450720328,50548,317538185,28419,7239,942053444,1998,1.54,0.08,119192206,109900000,8991000,133612397,23
103415554,3518606,69052513,787911,71189296,775846,2025558,9698533,241349318,116605,112912348,20797,5757,367122217,2731,0.78,0.05,64850489,57469000,7057000,78994943,23
79560882,929196,52294121,404985,53264525,392780,178407,2045458,124419719,6376,82043893,2714,2351,259992546,234,0.42,0.02,33668645,32385000,1012000,47729858,23
115281623,3355886,79422967,724338,74061129,751259,1947569,9187193,250908256,123036,109607543,15505,4784,397260430,3596,0.81,0.06,67388110,60111000,7012000,81333933,23
83745725,1730907,53777737,510397,56851594,434695,180919,3453349,156759644,4738,90624539,2900,1325,275322946,389,0.51,0.02,41913388,39553000,2028000,56169230,23
110690715,3090723,74565533,716896,70773527,739882,1848105,8345456,244151832,110009,112530940,17059,8341,386980967,2475,0.79,0.05,66382831,58989000,6998000,80747439,23
98720644,3248461,72235500,676211,76428673,587343,1110803,7632638,215688765,41856,105375548,11270,2471,341874737,1888,0.71,0.04,58015690,53648000,3973000,72389856,23
110884327,3866457,86375818,600336,87560924,581019,1993727,8917135,262413891,55953,103069234,47372,25601,379971241,7154,0.86,0.06,71467037,59124000,12025000,85691839,23
314589925,3128866,193291659,1193067,190957616,1084235,1277978,8615012,441393313,38806,317530197,24392,8671,943627244,1865,1.52,0.07,117843001,110093000,6942000,131884857,23
106027089,3194237,70625726,734088,71204867,756732,1826008,8451016,245880163,102597,113063269,17814,6107,380579705,2472,0.79,0.05,65890661,60517000,5043000,80221958,23
312299982,3435293,190865191,1216165,190703439,1155659,1214494,9121596,443787098,46647,317386207,24635,17894,939588824,1864,1.53,0.07,119742843,109422000,9947000,133765852,23
305002893,2792443,193926333,1099758,195615621,1048766,1099008,8546384,442254363,48470,313837507,22340,5621,933449888,1955,1.53,0.08,119629361,112334000,7020000,133783151,23
83618031,970593,58964823,262077,57881126,295317,165560,2279238,128458661,5804,79177494,2834,1734,266847212,378,0.42,0.02,34868161,31633000,2965000,48901488,23
97872854,2659890,72742027,685639,76337648,641408,1256169,7768913,223456491,38064,107833970,10599,4478,351688351,2028,0.72,0.05,60544511,57234000,3012000,74657498,23
108687532,3469194,73278136,800044,72544825,689833,1378129,8204529,238257997,46654,109801511,12496,6241,378632588,2603,0.76,0.05,63816227,54663000,8944000,77996372,23
114541923,8025835,76911902,1874896,78068103,1787932,2475116,19050099,294507468,278730,123100845,17298,6534,400473633,2655,0.96,0.07,79097988,71895000,6989000,93128945,23
104512190,3156502,70669371,738553,71440345,740338,1792184,8535310,242844687,103191,112364948,17470,5680,379831923,2475,0.76,0.05,65533030,56224000,9036000,79743537,23
108404345,3147692,73889332,732242,73734529,785945,1964380,8179514,254059549,112681,112851989,15661,13475,379651474,2496,0.8,0.06,68641651,59334000,9051000,82910053,23
105126025,3388614,69481683,812787,70489718,780358,1950467,9249217,236657206,101065,113929110,16289,5101,368373126,2374,0.77,0.05,64090018,57871000,5986000,78177991,23
111204384,3334097,76500710,727077,73452962,747783,2442025,10390876,259595744,146691,112909520,24460,13925,384332284,3122,0.81,0.06,70258700,66006000,4000000,84213888,23
103992646,2964767,72008796,822857,74200639,721530,1196134,7706375,237864929,44679,110570892,10157,19680,371686024,2106,0.76,0.05,64544694,60263000,4017000,78648342,23
308866176,3196233,190494036,1146738,191993089,1054963,1073641,8520309,436282371,47071,315805616,21752,5742,930950861,1889,1.47,0.07,118559792,113354000,5015000,132736959,23
105699142,3370611,71821055,753884,71809513,657190,1175678,7952463,230580158,50166,109378869,19427,4185,368173508,1989,0.75,0.05,62615990,56324000,6034000,76643437,23
308075637,3285160,187831732,1146870,192181484,1079747,1412356,9780894,434842616,53691,319989189,27225,11221,933565940,2048,1.51,0.07,117798335,114507000,2987000,131984874,23
99277481,3219210,73082970,659396,75712324,620714,1179326,8066734,217146865,46077,104858728,15580,2904,337653325,2080,0.73,0.04,58838163,53542000,5051000,73035207,23
101132673,2606856,68363590,732800,73578097,641968,1253143,7815587,226375804,34851,113502713,8779,3949,361768059,1960,0.74,0.05,61209664,57925000,2996000,75174122,23
124876212,3618853,81215628,777819,77903741,765114,1455232,8136822,249956811,43938,131036107,9275,4718,425574654,2211,0.8,0.05,68168544,61838000,5984000,82527771,23
292498147,844976,178582321,748054,178394633,815271,174412,2703909,337267476,12058,287715936,17055,3346,838702407,286,1.2,0.05,91248114,89988000,999000,105598334,23
145410120,9514358,102559237,5153238,105317313,4988522,2792535,23471648,607220719,351398,154295439,23494,10190,488503312,3601,1.86,0.12,163482863,152122000,11081000,177771640,23
106500006,3318623,70339913,791687,70235806,754213,1877323,9056169,233569973,93823,113385975,15716,4088,371108806,2384,0.76,0.05,63572812,58355000,5030000,77822660,23
306021206,3252920,187168239,1151723,192069136,1072868,1265124,9258144,434600590,44625,318493672,25535,8115,922066629,2039,1.5,0.07,117495844,112253000,5011000,131720835,23
313949205,3065420,195041593,1172948,193093831,1142547,1229809,8150249,452037101,50762,315515907,21986,11641,952110519,2556,1.55,0.08,122298333,119085000,3002000,136609791,23
309027918,3519413,191760181,1159867,193577221,1079484,1231964,9164847,444498835,60779,316296099,26850,7908,935553290,2057,1.55,0.08,119775834,114524000,4979000,134223156,23
147672788,10325136,107488154,5749222,107602864,5740202,2258103,20889059,571644155,171795,153554652,20787,6437,496621529,3119,1.77,0.11,153799660,148488000,5016000,167910862,23
311299419,3024407,192632915,1169504,193704847,1088789,1038686,8659178,443261380,54925,315058693,26255,7534,944326057,1955,1.52,0.07,119696255,114436000,5019000,133996227,23
100437709,3238613,72168024,721646,75948059,656193,1313960,8127877,222364215,42089,108767985,12172,4570,351073964,2260,0.74,0.05,60441309,53130000,7017000,74904999,23
314664614,3580201,195679284,1205761,193179862,1240337,2086025,10701418,466030641,158310,318647053,26692,9453,950933901,2539,1.58,0.09,125975330,119647000,5982000,140338131,23
303891037,2817147,190027117,1106785,194348859,1050497,1193465,8682796,432558755,41021,316723000,20136,5212,925150481,2034,1.49,0.07,116940037,112703000,3989000,131294894,23
310395182,2614752,188637405,1146988,190965270,1082788,1284134,8913941,434344800,41963,319215873,25935,5865,941857851,1955,1.51,0.07,117525394,115285000,2004000,131754020,23
109346965,3062864,74891295,707519,73921055,728307,2139347,9004521,257510867,118496,112767891,43978,13586,386097917,2540,0.83,0.06,70151252,62790000,6976000,84357704,23
311352017,4051523,196887003,1673387,198607121,1641955,1792737,10120926,499126220,137466,310589620,29893,13129,926357775,2661,1.72,0.09,134769938,128446000,6020000,149034173,23
108566528,3182272,72639881,711795,71045406,747681,1887452,8335699,246616831,110203,112713535,15885,5673,382923435,2537,0.79,0.05,66484824,61156000,5012000,80731914,23
99498781,3253337,72994968,657185,75534168,621073,1191007,8200211,219709202,51058,106488210,12258,3354,344154950,2066,0.73,0.04,59727336,56389000,3020000,73874539,23
99690149,3260114,71631796,698657,74573744,624643,1041700,7692542,214923882,37722,105367380,8848,3219,337041057,1877,0.72,0.04,58330182,53940000,3995000,72356446,23
103758894,2653859,69861559,732429,73780956,646254,1437935,8239811,231044531,42281,114521979,10098,3851,371864087,2029,0.75,0.05,61883748,57381000,4026000,76139499,23
316312778,3483876,195398239,1188847,193447533,1244616,2325469,11812667,473670832,153476,321599745,22612,25331,955943865,2563,1.63,0.09,127898617,121650000,5982000,142330891,23
98824859,3234667,71705172,704770,74411507,645808,1164709,8141457,217720842,45496,106263442,11477,3507,342365470,2060,0.72,0.04,59245457,53061000,5895000,73713910,23
98400685,2673891,72588249,682224,76114537,635933,1246747,7726197,223516677,38708,109237990,13624,3306,355113926,2026,0.74,0.05,60440939,56143000,4010000,74872257,23
101051927,3214316,69956347,750397,74994873,656856,1371161,8531702,225259379,47538,112215299,14312,4009,356371630,2142,0.72,0.05,61714386,57277000,4019000,75798745,23
110959171,3338954,77700630,659192,75097017,692877,2307657,10371649,260349456,172393,109998761,16456,38333,384531153,2862,0.79,0.06,72694355,61509000,10912000,86941614,23
97964337,2659516,72304568,685232,75897842,641334,1299497,7846048,223776813,39877,108435438,10128,3444,353539653,2028,0.71,0.05,60443592,57064000,3003000,74861006,23
317849358,2931609,207854980,1007872,209770148,993868,1985669,10137338,483503571,58282,309899770,47186,17073,957093461,7059,1.66,0.08,130950610,115658000,14955000,145220085,23
101664311,3256830,73076665,697489,75199989,638487,1131808,8105154,216984746,44367,105797910,12149,3637,344457646,1988,0.71,0.04,58770543,53463000,5043000,73069160,23
312294200,3086301,193679278,1158150,194512189,1081073,1029806,8667429,445314058,51508,314762495,24469,16155,948801744,2557,1.53,0.07,120513537,113218000,7013000,134797688,23
103830186,3040313,69308990,770893,71620803,726739,1686941,8542241,239315180,101960,112640961,12864,4905,373862238,2378,0.76,0.05,64810997,59372000,5031000,79261733,23
103932793,2822609,75553059,520185,78101797,526333,861446,7175058,202710204,37415,104783109,10536,3366,354613171,1806,0.68,0.04,54450846,51184000,3010000,68612176,23
310955961,3500071,191196806,1409929,191846386,1372960,1162235,9213098,450177337,59214,316598505,29155,12686,938669117,2063,1.57,0.08,121001486,115714000,4987000,135153588,23
98793019,2714665,73215030,661024,76217832,623562,1181456,7742744,221543708,41440,106776141,14266,3140,352154006,2093,0.73,0.04,59612285,58328000,1005000,73823075,23
100989341,3165518,71883928,689233,76438535,590543,1259830,7964111,228381460,52806,108742316,13903,3235,351052492,2042,0.75,0.05,61897154,54514000,7066000,76356754,23
100564475,3186080,71520725,676684,75385342,607038,1123562,7924364,231190809,52173,109963889,11052,9987,354495064,2094,0.76,0.05,62256311,56973000,4997000,76602234,23
99855253,3201435,72527546,658009,76380382,577973,1047048,7680669,213549378,40622,105339917,11291,2559,340368078,1936,0.71,0.04,58233484,51908000,5989000,72170845,23
104030282,2702751,73746322,683775,75466426,631752,1099071,7499179,234574145,43799,110521304,11493,3843,371746309,1958,0.76,0.05,63457721,57226000,5919000,77832265,23
107884171,3641116,73010628,1000521,71551526,966663,1972918,10019506,237444965,99547,114033929,11118,5102,379821755,2511,0.75,0.05,64940972,54646000,9935000,79302779,23
286553074,1703409,173206465,984374,176957461,922888,187562,3940226,359485499,10240,295716719,16673,5257,835980300,479,1.25,0.05,97508653,94257000,3008000,111602411,23
308998078,3257031,190176648,1187977,191777207,1092598,1178879,8615379,438932127,46582,315586605,26077,5881,930614266,1850,1.52,0.07,118885558,108578000,9961000,132929055,23
314609587,3589983,194180571,1207972,191225414,1183078,1291908,9389209,454348402,54092,316522423,29311,11383,948908480,2605,1.55,0.08,121899665,116494000,4978000,136105573,23
302593396,2793763,190694742,1090953,194750227,1007586,1022185,8211261,425667294,37478,312104251,18378,5653,917826868,1775,1.48,0.07,114814201,108567000,5976000,129078347,23
111521315,3472865,75298036,720538,71072516,758117,2196234,10086120,248892815,141820,112560769,16423,13784,383965821,3317,0.8,0.06,67325324,55951000,10990000,81648011,23
88946870,1100949,59144562,233354,59042120,274396,206911,2984076,136299766,7157,87640501,2594,1632,281401468,585,0.46,0.02,36515539,35229000,1006000,50644329,23
202867997,31236309,139545411,2271948,139451989,2241401,1177793,32136640,499181249,63465,199872134,36703,22349,733123994,4781,1.62,0.1,165478340,147738000,16969000,234984811,24
328612919,2887664,212145418,1522039,215310488,1518982,1128169,8946717,468519415,35017,332200783,24557,11549,1001718560,2925,1.65,0.08,127046667,120779000,5989000,141292256,24
104292573,2458892,76098676,506300,79404079,439689,885201,6650073,200137320,21263,105237519,8638,6677,359536720,1961,0.68,0.04,54098332,47833000,5979000,68373616,24
104755689,2455262,76197051,486435,78813952,466512,830107,6735569,198534784,23143,105586998,10099,6078,360528710,1951,0.67,0.04,53668831,47479000,5934000,67791260,24
103807724,2517062,75563377,539590,78197858,438680,853668,6641727,199130881,21143,104294577,8814,6358,361553035,2008,0.67,0.04,53979534,48635000,5066000,68141184,24
307515535,2663728,192337440,1171438,193923294,991475,995572,7621099,415683034,34736,312081204,18483,6638,929642579,1955,1.47,0.07,111841457,106493000,5023000,125961221,24
321337974,2867795,199169049,1305589,196270686,1407783,1804083,9975478,453309603,84866,311778530,20938,16738,966313969,2745,1.57,0.08,121594230,114339000,7020000,135845825,24
308158170,2620095,191942113,1149557,192267925,997064,960606,7912168,412250922,28204,312804509,20656,7571,926320197,1882,1.47,0.07,112011039,106728000,4987000,126383818,24
302906063,2601061,193890127,1173688,197619674,1000545,963601,8344248,416237677,30047,309776170,17356,7625,922868151,1861,1.46,0.07,112405635,108020000,4000000,126705788,24
106237530,2458346,75981050,551449,77495445,441574,846797,6529604,196962750,22260,104499442,7315,6105,364410563,1857,0.66,0.04,53643734,49260000,4021000,67967030,24
110073748,2926592,75882386,803198,74852936,767050,1794440,8768073,224316136,74400,114997294,12653,9746,382064132,2487,0.75,0.05,60497800,53220000,7029000,74651842,24
321719435,2828900,198888409,1336544,195385840,1406263,1825964,10066942,444682624,86512,310521371,21709,12261,964502322,2875,1.56,0.08,120611009,113303000,7018000,134692379,24
308899615,2678781,192502757,1127721,193017940,957397,1031258,7806165,410326885,26914,313412198,19796,7340,933147414,2054,1.4,0.07,112276725,110039000,2000000,126313819,24
115634396,3150048,87374332,1393090,91801198,1152252,2572211,10139445,290434136,88456,118599333,46327,34094,422281942,8207,0.94,0.06,78456269,68150000,10022000,92792414,24
117156143,3113289,82649583,867680,78431973,1022184,1850105,8367812,250079313,74184,115603965,12444,10422,412085791,3654,0.83,0.06,67683927,60392000,7045000,81986471,24
303953441,2619232,194755879,911368,199214146,850945,850093,7476849,408467437,29540,309089755,18528,8023,922017035,1859,1.43,0.07,110275926,103981000,5998000,124491685,24
105655547,2541255,75561199,776885,77241429,551341,1026491,7138479,206253119,21787,105971140,7351,5242,366041941,2060,0.68,0.04,56143606,49765000,6093000,70324296,24
115531072,3552241,86240473,578683,88088044,462835,1892633,8241663,264641879,32756,116982681,45609,34581,426921157,9017,0.85,0.05,71276757,55742000,15202000,85657312,24
109009228,2801686,74135394,787066,73547306,752489,1685726,8455641,225207645,71031,116009777,12778,9918,384587550,2489,0.75,0.05,60628109,52292000,8045000,74726576,24
102114213,2446572,75126344,542449,78477505,435842,974657,6572618,204755307,20464,104716862,6809,4209,367342613,1866,0.68,0.04,55244746,52936000,1997000,69598141,24
112945106,2571502,77280882,731588,75356322,621974,996007,7637706,207066301,28064,110669011,14342,8875,380211199,2821,0.7,0.04,56687723,53380000,3021000,70970717,24
304342099,2657053,194181795,1056697,198191721,882763,921111,7632208,412122478,27079,309067358,19989,7544,920085861,2001,1.44,0.07,111325276,105040000,6002000,125466966,24
105343009,2457086,75678456,507896,78665269,437381,880663,6613556,199780910,20786,107186033,6928,5159,364237840,1889,0.67,0.04,54039004,46769000,6965000,68301974,24
303861575,2591783,193686145,902184,197492350,855926,909493,7492038,409261754,27645,309859868,18336,7150,922230246,1883,1.41,0.07,110125678,104838000,4992000,124624949,24
113272468,2909962,76169020,812970,74226613,758037,1983443,8705197,230109273,71236,116139718,11863,8859,397205751,2879,0.74,0.05,62157609,57967000,3997000,76286492,24
106688172,2519166,74893555,655563,76529164,506091,1101324,7058772,209298965,30123,107766654,7641,4885,371219872,1959,0.69,0.04,55949540,53767000,2028000,70073822,24
105469867,2516069,75804683,598187,78559645,478891,1084360,7014859,208778647,22456,107782623,9424,5989,374314575,1964,0.7,0.04,55805022,51702000,3977000,69773866,24
154864283,8376102,114780280,5716793,115675623,5663801,5950921,22538330,674134260,762836,156496071,16990,18684,525157170,3398,2.0,0.15,181323178,174282000,7011000,195755513,24
196101785,10776017,166209613,654552,165010016,809909,9583481,20394561,694286871,153347,193093850,306152,194254,815788970,60166,2.2,0.17,187931378,105525000,82410000,202101800,24
317134390,2960522,202595055,1116869,199020614,1242926,1915557,9405776,455583979,84007,308340962,17005,11337,948660521,2867,1.51,0.09,124310270,114099000,10008000,138683091,24
110718225,2937457,75662038,805559,74631547,760628,1941834,8782399,226374938,74101,117524002,15180,10184,392441137,2682,0.74,0.05,61273762,57957000,2997000,75043317,24
105936746,2516945,75238272,620444,76945829,453251,1007671,6710597,205336905,21772,106163955,7922,5107,371165038,2056,0.68,0.04,55606772,50342000,4935000,69710219,24
316854768,2157201,194131836,1340922,191661360,1307527,1272247,8774093,436017863,30707,317271879,17364,22033,958640000,1954,1.51,0.07,117893101,110685000,6980000,132149402,24
105084943,2546075,74587511,610188,76688558,432934,1055909,6665787,204965278,28120,105488595,7886,4754,366242330,1960,0.68,0.04,55374368,50102000,5010000,69559466,24
130379795,4292660,91763933,1419804,91469376,1497640,3470723,11940098,325533252,224130,133520329,11502,12595,452428974,3722,1.04,0.08,88171401,80887000,6990000,102268624,24
109718838,2895298,74627507,801439,74317495,762866,1888571,8600359,224137324,68149,116188820,14380,10435,384189837,2684,0.73,0.05,60953604,53704000,6961000,75029684,24
103205927,2594139,74824465,606981,77826268,470904,986606,6903153,203231098,23525,105192135,13985,7592,360135466,2347,0.66,0.04,55821720,51609000,3969000,69982988,24
389406176,7644588,258869715,1019811,257367843,1018724,9267859,20896139,832781611,651839,376899494,55926,45937,1222873726,8568,2.62,0.2,224597118,214570000,9980000,238951295,24
318111322,2803601,201212085,1226277,207013979,1206075,1562806,9423217,446478947,44136,325739735,28862,14346,975264217,3320,1.56,0.08,120624783,112500000,7964000,134947719,24
109473581,2432255,79449108,628349,80788164,570271,1093559,7755075,219893069,28679,115368971,12995,7948,398015230,2432,0.73,0.04,59649787,55519000,3965000,73793404,24
110941329,2777933,74179284,819200,73670880,767740,1922770,8714251,233765815,75012,118584663,15515,11541,393832464,2687,0.76,0.05,62911800,55689000,6961000,77136316,24
103354574,2481145,71412140,692275,74482394,580352,994579,7336259,204578540,26342,112121403,8283,5190,366234587,1869,0.61,0.04,57910608,49717000,7954000,72200733,24
105360889,2375560,74629440,948049,77524968,773024,1063299,7733568,219087166,30514,113192289,9113,5529,366621127,1961,0.73,0.04,58906964,54694000,3977000,73115186,24
303207967,2728117,191976352,1021022,196179112,880913,1082726,7607630,415877692,30808,310204582,23225,9027,918949405,2153,1.48,0.07,111784799,108598000,2988000,125935445,24
318599960,2803996,197074288,1390478,195069720,1381826,2025833,10185700,444363336,77148,316158154,16731,11638,965641515,2673,1.55,0.08,120241956,115059000,5002000,134266502,24
107428502,2459518,74162996,656210,76634707,531159,1051164,7300401,206055289,27861,109047446,9886,5674,368483857,1961,0.7,0.04,56377394,55130000,1002000,70659198,24
318767176,2524910,197326968,1279195,193279231,1351571,1702779,8950703,444179952,71614,312480236,22802,9607,965152980,2676,1.53,0.08,119565931,116308000,3007000,133748087,24
102942239,2518499,73931866,583165,77356261,428810,975040,6489354,202666921,21416,105173985,7954,5493,360525092,1861,0.67,0.04,54874005,49658000,4965000,69180682,24
326301940,2658442,207338737,1014746,204254127,1142784,1714582,10317870,451009847,55947,307349149,30102,13929,974192445,2875,1.57,0.08,120677367,115310000,4970000,134993862,24
105126457,2445437,75137202,571852,77920659,435161,981180,6621746,206120238,21653,106781957,7416,4983,371360933,1866,0.68,0.04,55389701,52023000,3001000,69449281,24
102662266,2533289,75042927,512688,78428252,440337,895204,6613643,201297163,21730,105911103,9491,6504,361819614,2004,0.68,0.04,54185900,47934000,5991000,68391783,24
106894819,2545862,75243481,572507,77248719,436254,928768,6587273,203277319,22669,107272110,6914,4910,370171811,2060,0.68,0.04,54940392,50614000,3969000,69127536,24
135556147,2409326,102511190,3219687,102981031,2969142,1135996,8197972,311417225,24697,136529970,8171,7004,521678014,1956,1.0,0.05,84205954,80833000,3031000,98504857,24
115588830,2800008,78267606,837029,74946713,814291,1975704,9082229,234802873,76812,113429251,9956,8909,403237942,2683,0.78,0.05,63586374,60337000,2967000,77939851,24
110893597,2860042,75146868,850020,74247819,796782,2011098,9023415,228126127,75914,116257912,11416,12567,392090625,2685,0.76,0.05,61784859,56375000,5033000,75922080,24
105403518,2487138,75936612,543450,78100342,447316,876718,6542213,197553090,22203,104685241,10917,3423,365395750,1857,0.65,0.04,53754982,52477000,1009000,67870221,24
103782365,2483955,75815377,508498,78338198,442300,881273,6583000,200292779,23614,105313499,7967,5589,362542488,1862,0.67,0.04,53778573,50449000,2967000,68000894,24
303331763,2673029,192495913,966555,196991512,849651,912165,7355388,409143743,26099,310111030,19189,7328,920272835,1883,1.45,0.07,110678118,106438000,4016000,124714382,24
104306781,2526633,74749244,553491,78159292,437766,1026153,6582039,205001743,25018,107650778,9341,5664,364666191,1984,0.68,0.04,55050905,47816000,6973000,69243423,24
105445665,2642565,74943747,624533,77047309,436024,1122082,6616759,207720249,23615,106280909,8518,5297,369711937,2448,0.69,0.04,56090512,49704000,6086000,70479296,24
112952722,2472589,76346982,659625,77997341,558732,1088266,7503812,209564732,25508,113296602,9759,6258,388650101,1960,0.71,0.04,56859853,50548000,6065000,70786820,24
100559340,2136739,72538884,487080,75511554,453263,851037,6525974,193674584,20771,100677330,7912,5526,344767484,1920,0.64,0.04,52142964,46868000,4985000,66381853,24
105240299,2505736,75198378,561572,77935771,438482,1050126,6664930,204210140,23498,105429025,7355,6319,361982117,2005,0.68,0.04,54496566,53230000,1004000,68811718,24
104739805,2492870,75021685,577009,77723271,439306,994772,6538155,202009092,24807,104053465,8046,5739,363131259,1880,0.67,0.04,54503059,50185000,4014000,68678500,24
109506282,3367244,85792022,448694,86874777,519332,1580539,7767939,247890924,37206,110153702,39620,24477,393501315,7236,0.75,0.06,69796894,57400000,12084000,84037034,24
102481260,2451261,74418763,604136,77216978,478314,1108306,6957236,207981625,21924,106061968,8351,6123,368671993,1867,0.69,0.04,55833432,52515000,3029000,69931640,24
107133573,2889115,74140357,805773,74210069,765136,1839675,8619419,226619024,69308,115862614,12744,12173,378547429,2683,0.75,0.05,61417106,57149000,4010000,75839601,24
324810701,2938193,202670723,1113575,201091933,1171094,1275881,8661938,448720060,38034,332872674,19946,7841,998982771,2521,1.49,0.08,123825316,119564000,3985000,138259375,24
107645535,2142892,78169255,1624106,79565172,1378935,1073734,7639533,231933425,27493,113981415,9698,6596,398070270,1960,0.77,0.04,62838176,58608000,3973000,77014121,24
305851718,2666049,191124819,1077283,194354326,912698,991124,7483920,412965557,27603,313982869,19415,6726,929990603,1954,1.42,0.07,112349833,106110000,6006000,126637579,24
112879371,2860382,77058243,838121,75686725,786132,2056730,8893682,232717140,70029,114472449,11790,8434,397253241,2683,0.77,0.05,62363678,53734000,8110000,76628552,24
113306224,2736150,76516749,817825,74639265,777341,1778914,8810353,234913482,75557,115731738,8546,8455,399876959,2489,0.76,0.05,64078149,57817000,5981000,78299454,24
307902519,2556322,190719174,1251266,193726940,1142477,1056634,7733680,419244837,28577,315952067,22221,9430,930529548,1863,1.47,0.07,113354947,109109000,4004000,127572708,24
328383364,3155231,203973900,1042500,207728185,1035699,1652477,9416158,472191693,35982,332476413,25699,12740,1001688589,3160,1.61,0.08,127960104,120678000,7039000,142030480,24
126383527,2821923,92214190,1445753,91661167,1405693,1944440,8899330,274628654,77878,132116755,10771,10709,438811276,2684,0.9,0.06,74910052,69552000,5040000,89133185,24
303138293,2585235,192195682,1018161,196108910,906587,1023119,7776437,416242027,26400,311781076,19125,8876,930241270,1858,1.46,0.07,112362399,109047000,3001000,126379186,24
303226802,2694350,193230120,952505,197910500,848678,1000326,7510319,412435621,30218,309109377,20542,8119,916011265,2053,1.43,0.07,110895299,104669000,5981000,125373016,24
241972865,11854621,179389017,8314664,177916886,8375050,9595430,27774349,1011714957,977173,244138411,49607,37521,821986554,8737,2.97,0.24,274050337,259753000,13986000,288243478,24
122350465,3207735,89363429,470106,91955189,424985,3070711,8507851,278085688,258085,127855452,20423,13664,433830092,3993,0.89,0.07,75159498,70792000,3988000,89302721,24
105146447,2502901,75449189,544473,78948742,440187,1020896,6705670,204380751,27605,108472628,7664,5793,361643904,1979,0.68,0.04,54962208,52708000,1989000,69368028,24
130756432,4261072,91959957,668900,91777094,626351,2482906,11557977,280228181,200320,114584691,20475,19411,432856493,4216,0.79,0.08,102578487,89128000,12874000,152278598,25
131702397,3127900,89041748,633640,82713019,709720,1731822,9803456,259190339,58860,128962285,12641,9047,464006948,3528,0.84,0.05,70047131,63644000,6061000,84207117,25
110168508,3791283,77208147,765846,84285236,718247,1185616,8817195,241472715,55645,128807773,15501,10276,397774282,2729,0.81,0.05,65114418,59765000,4980000,79252227,25
116510282,3539210,76079902,767093,79943719,737393,1224659,8407071,239399166,46985,131528801,12356,8926,417863642,2441,0.8,0.05,65408635,60112000,5009000,79740306,25
111564599,2825292,80857636,681251,87349169,585953,989277,7686390,236508209,35208,125599081,7850,5489,404720108,1787,0.78,0.04,63561142,60172000,3008000,77633045,25
129895572,3632457,89136992,779336,84007280,846752,1656362,10919445,250739720,69947,129061025,10548,8368,449903440,2861,0.78,0.05,70668608,63435000,6938000,84925770,25
115901002,3419901,80681363,750337,87675843,663608,1008712,8009596,239530379,42276,130925661,10946,7255,408369956,2170,0.78,0.05,64491376,60176000,4011000,78744345,25
124342915,3245543,82156525,720830,78789697,753106,1377901,8816450,247759019,55894,131371929,10519,9664,447221757,2841,0.8,0.05,67634338,61301000,6029000,81957367,25
126580484,3245382,83923699,745296,79414527,775037,1474181,8907185,255026479,51605,131083834,13652,8987,455148235,3328,0.83,0.05,68883591,63621000,4970000,82907928,25
263254870,29577089,191862619,17466126,193705542,17555839,14153122,68336808,1766749748,2192148,268592295,24724,53024,836243462,5469,5.04,0.39,477307166,464982000,11999000,491457629,25
108415439,3801766,83042089,738040,89509313,668451,1154190,8568495,236088988,50878,118795529,13679,9698,367362288,2485,0.78,0.05,63488007,57198000,6020000,77829730,25
324748128,3482900,200024802,1147536,201516362,1162905,1420199,9936279,463369055,57194,339184902,21887,13925,1002220035,2656,1.6,0.08,124924538,118600000,6030000,138996299,25
153123651,14774565,110156747,5590517,116963643,5532014,7827018,33362118,854847775,1077377,173994893,26476,21724,533878365,4854,2.45,0.2,230695432,220208000,10009000,245075295,25
110594106,4104769,77612100,826880,82286739,723925,1616907,8740561,244383793,69161,129369889,11233,9890,400590186,2518,0.8,0.05,65905715,62623000,2982000,80253507,25
100558692,3404220,86179010,738484,89094775,779616,1257370,9005548,240921754,45636,108409177,13490,9721,444648190,2610,0.79,0.05,64986673,56759000,7966000,79290575,25
126824521,3270701,82350373,645264,78481975,748300,2456383,10535505,263880310,144907,135845842,12722,10686,442731584,3034,0.85,0.06,70749944,59549000,10917000,84936409,25
330756417,4291000,208346856,1240571,208892473,1165315,2017106,11067948,496965602,180175,326424886,21148,13068,990027558,3225,1.69,0.09,134351549,127042000,7002000,148570853,25
127725947,3047837,82701358,613358,77379626,734992,1487781,9615288,242287580,53631,134982723,11596,8266,445024227,2687,0.71,0.05,69237207,61950000,6994000,83268972,25
124368865,3483337,79999477,737304,77105084,760781,1431102,9325460,255638757,54696,133415073,11305,8020,450283812,3072,0.81,0.05,67802529,62396000,4952000,82084323,25
119376848,3278529,77646611,777707,78766025,754058,1264400,8407042,237342930,47138,130958417,13330,9873,427023956,2638,0.76,0.05,65666797,58329000,7039000,79943476,25
120308761,3881617,76343763,795737,77869354,725772,1580598,8901708,253889276,92812,136568243,12306,9098,436423302,2520,0.82,0.05,68217267,61914000,5991000,82492239,25
132036304,3582520,88872607,587013,82835687,645622,2267853,10807600,265513923,157899,126649599,14015,10003,451085216,3237,0.85,0.06,72368765,64204000,7902000,86600825,25
319011921,3313502,202867256,1105061,208033922,990445,818106,8002190,442520112,43364,323865561,22043,10376,961249344,1966,1.55,0.07,119568210,113370000,5966000,133847421,25
318685808,3563017,201102081,1116659,207644093,991721,1002934,7881503,445345572,47249,325758940,23538,8497,963283086,1875,1.53,0.07,120109526,110714000,9058000,134285738,25
132605867,3615939,89871567,666013,87697207,595936,2081627,9744006,273425439,157690,118254418,17361,11662,435841170,3636,0.88,0.06,74573257,64149000,10023000,88974303,25
115882586,2738296,102279190,580238,96597483,689660,1567353,10172238,256777780,52136,118071974,11941,8049,509547122,2529,0.81,0.05,71462297,66167000,5012000,85838062,25
118593159,3478113,77457521,763667,79852489,731815,1212282,8392566,241449478,46722,131828436,12344,8950,426673776,2440,0.79,0.05,65731662,57395000,8055000,80114774,25
342545739,2994050,209927022,1308801,202895227,1383949,2355181,13207112,474679379,139773,333077827,20913,12634,1040629101,2536,1.65,0.08,128674540,124849000,4027000,142750864,25
323684755,4919363,204465836,1369424,210040964,1241039,1669552,11665927,494221432,90012,327888886,25753,12977,977253090,2656,1.68,0.09,132949736,125038000,8002000,147103432,25
113475774,4235691,82126241,757783,86014771,620980,1269649,8334041,234435887,37476,120328371,13758,7708,385418211,2662,0.79,0.05,63291855,60253000,2963000,77374672,25
115249454,3863439,74366651,792948,79313926,747930,1181184,8866814,238260754,43256,131673582,11159,8108,411849446,2242,0.79,0.05,65242363,60293000,4942000,79238813,25
322228962,3526403,204461253,1100085,208826786,977159,896033,8054502,442340243,48860,323713585,22884,8972,969028276,1971,1.55,0.07,119407385,115474000,4016000,133451307,25
109484955,4067281,78085683,809782,83521470,718716,1633943,8844917,244221874,73082,129243487,8222,9672,397791628,2517,0.81,0.05,65935512,60748000,4979000,80194613,25
113919871,4174804,79116035,826657,81441401,762072,937759,8141657,228895056,33712,129869551,6559,5534,407912573,1927,0.69,0.05,65265012,62138000,3006000,79118787,25
323373305,3740024,200810015,1169429,202552045,1240688,1579801,10624955,467651027,66674,340321982,25125,12020,1004841329,2731,1.59,0.08,126156784,121160000,5006000,140449450,25
332768093,3140344,204442624,1082259,203403170,1222557,1726807,11341607,470770615,67563,336460128,26246,12882,1015019625,2953,1.63,0.08,127227522,126161000,1009000,141424602,25
120325603,3010430,87364009,579963,90364888,477584,967550,7736174,223119661,50214,109464995,11187,6397,402874059,1973,0.75,0.04,60267612,57024000,3001000,74462222,25
329346921,3224761,201573755,1140095,198310636,1227960,1602093,10789232,467900212,59439,341494594,26450,9089,1017527006,2456,1.62,0.08,126271598,120239000,6011000,140508727,25
323583303,3550522,198667334,1163975,201699293,1159669,1406700,9776195,462640205,49083,340030476,21684,9574,999356697,2280,1.62,0.08,124471045,121272000,3006000,138653665,25
104767976,3471272,79488302,745404,87795511,686858,1245560,8443809,237499555,48331,122459589,12018,9675,374358248,2439,0.79,0.05,64160380,61954000,1998000,78487124,25
113374712,3794965,76039772,764265,82026653,734684,1326534,8888608,247069090,50366,132257320,13672,9622,411173578,2686,0.81,0.05,66393751,61215000,5017000,80642463,25
131102699,3747923,89443756,631871,87442211,601424,2091863,9840059,276133822,149763,115795814,13145,11062,439695050,3439,0.88,0.06,74666308,68453000,6040000,88744675,25
323040255,3524830,199274636,1184683,202018073,1181871,1429679,9500216,463049474,50250,339956662,25076,11631,997202366,2606,1.59,0.08,125165766,121049000,4001000,139049144,25
120038292,3187388,80185672,844285,80559370,852952,1195115,8525931,244716682,47836,131486526,16729,8912,430173533,2435,0.82,0.05,66615683,61329000,5026000,80885735,25
110693453,3853528,77041085,776281,83548297,735902,1254473,8760700,240235205,50890,129449612,16727,10534,402767296,2729,0.79,0.05,65036775,62705000,2022000,79148112,25
123659032,3274548,81424304,731563,79196100,741531,1372339,8757417,246142496,56382,131430073,12480,11663,441192582,2839,0.81,0.05,67030267,60732000,5973000,81230456,25
115289161,3967018,76175113,831584,78915249,772113,1649099,8960245,244337197,73274,132917811,11451,9110,413983210,2520,0.8,0.05,66149977,59899000,5891000,80324775,25
119536787,3064033,86300332,612384,89217740,501572,950500,7733067,224395825,46854,111982461,10355,6542,400276470,1974,0.74,0.04,60611852,57330000,3017000,74729597,25
125877348,4103454,97687089,728450,99473786,634638,2150972,9383454,289444352,76299,113512340,50555,30259,419787864,7761,0.94,0.06,78126821,67939000,9991000,92174808,25
325124129,4812227,203062069,1360294,202705512,1284155,1271612,9702021,456564795,37259,336196906,22826,13598,993394269,2658,1.6,0.08,122861282,117595000,4982000,137177657,25
338040294,3658736,213461620,1389616,211799600,1392133,2188503,12436801,495513261,151166,326953193,20766,17310,1019004700,2788,1.72,0.09,133389648,127231000,6010000,147618743,25
327887547,7192044,211612090,1531381,217917365,1565369,5684692,19515717,707337808,545327,347975693,33915,22545,1027165838,4578,2.26,0.15,190556067,182280000,8012000,204612031,25
110220980,3701555,76953264,772869,83715777,728880,1189300,8698985,238481734,45817,128260551,12191,8575,399915630,2435,0.79,0.05,64640124,62392000,2012000,78915588,25
324642203,3553422,198915226,1156363,201196498,1163471,1407183,10102978,461488012,55095,339689965,23217,11048,998762886,2483,1.58,0.08,124808741,120683000,3989000,138944578,25
117018408,4140093,75597575,820797,80098728,775457,1657632,9443230,251847060,86645,136732190,15750,9707,422391153,2719,0.82,0.05,67877725,62650000,4972000,82205610,25
130315962,3617016,87893181,580363,84543802,644252,2357741,10849709,268312440,164693,125960906,11541,11677,447767258,3436,0.87,0.06,72622771,68363000,4021000,86792745,25
114352531,3634226,85218794,682125,89186958,570291,1107075,7512310,229624097,44878,116332704,10828,7455,386011230,2063,0.76,0.04,61976617,55758000,5974000,76270850,25
337919989,3065151,210527946,1038192,206970186,1038834,1652744,10562379,470902825,74918,332669205,22714,10157,1016358051,2832,1.54,0.08,130786088,123473000,6970000,145058257,25
108986421,4133909,77818448,810132,83966834,705502,1620804,8873079,244531633,75630,128294067,12453,10693,394882821,2517,0.82,0.05,65701377,58508000,6941000,79926626,25
115946585,3638325,76162970,767420,80010700,751230,1296991,9041701,242394039,51268,133167602,13255,9712,417979374,2688,0.76,0.05,66695463,64409000,2012000,81145589,25
331020412,4296943,204241021,1494458,203071228,1476479,1531470,10104559,508471840,59735,346454100,22688,10500,1023180148,2720,1.74,0.09,136691625,133488000,2988000,150807518,25
124604114,3128642,80266549,729168,76509127,763901,1499836,8935627,249149152,58043,132689617,16084,9242,445522947,3117,0.81,0.05,67394341,64140000,3006000,81722879,25
329623710,3173896,201982172,1127350,199497181,1171125,1629509,10063990,467995542,54743,340591050,24012,11104,1021151316,3114,1.61,0.08,125882798,119676000,5983000,140228233,25
108743110,3782772,78580999,788614,85337055,725222,1159155,8615895,239509738,45146,125731138,9336,7181,393029363,2216,0.79,0.05,64791578,61556000,2978000,78984845,25
320764856,3452895,198594737,1161652,203278002,1151226,1244619,9187956,460018114,47193,338516608,19903,9871,986757207,2233,1.59,0.08,123773434,118570000,4981000,138010901,25
353598333,4071707,230489182,1086231,232359125,985570,3255928,12585937,558640433,109601,320892130,48098,46652,1073155442,13663,1.9,0.11,150278514,130956000,18993000,164608937,25
321050722,3728679,201011832,1297471,204424460,1184209,925541,8170247,448878205,36032,330892087,17646,8602,967822536,1876,1.56,0.07,121007577,118737000,2012000,135132677,25
106675177,3675058,77608611,771394,85541126,719903,1197252,8632770,238854388,41318,126300647,12568,9830,389516519,2530,0.79,0.05,64528483,61215000,3010000,78842090,25
333182521,3763851,207702593,1053960,211043984,1089090,1563071,11137002,487490069,82780,331672883,26954,12474,1012532092,3134,1.67,0.08,131449248,126019000,5000000,145707437,25
122095201,3402415,80355803,811876,78817415,838586,1377014,8679172,252140083,51611,132601815,13091,9115,443293703,3202,0.83,0.05,68063289,64669000,2984000,82320488,25
152301317,14775426,109638786,5567107,116486848,5514757,8110164,33132277,860776723,1082872,173136178,25409,22639,533764755,4855,2.56,0.2,230779294,222595000,7985000,245158281,25
124981482,4434441,92849368,749780,92796566,656291,2156387,9513811,281072762,139301,112879323,22951,19626,409205693,4666,0.91,0.06,76372646,68979000,6997000,90535475,25
322579671,3307609,198815453,1161523,202281486,1156868,1336959,9360137,461824412,49137,339354162,27625,12123,994226536,2431,1.58,0.08,124349615,119057000,5044000,138719963,25
130401360,4252393,94751195,726979,90821922,631682,2449682,10327226,282134427,177075,112022890,13417,14975,426748884,4600,0.9,0.06,76336510,71169000,4942000,90807391,25
110217352,4046675,77932734,837354,82623680,732397,1627185,8757608,244280007,75414,128726513,11029,8355,396898940,2520,0.81,0.05,65675462,57484000,7928000,79819087,25
354513114,5845494,226875101,1282372,228383547,1309839,2926279,17559366,577143812,156437,360261183,32817,19811,1105716812,4543,1.95,0.11,156353302,147130000,9007000,170617281,25
118095907,3239139,85370322,674121,87750822,547123,969362,7073495,220857535,39178,111871165,9435,7744,391189546,1880,0.74,0.04,60750388,57457000,3024000,75254051,25
120435623,3480344,108245507,722380,109903519,679966,2101410,9626997,289299220,125301,117707875,11678,18004,505088604,2999,0.94,0.06,78121311,71837000,5986000,92496192,25
125554316,4376886,90540086,770099,88033447,677032,2424110,10400610,283885231,177599,116050616,18872,14123,420245288,4413,0.91,0.06,76845802,71616000,4973000,91037985,25
203475272,11257693,167125259,13018116,161398812,13041388,2797238,26951511,915922598,329446,207223463,24354,18218,758941589,4845,2.81,0.16,247405469,240248000,7007000,261463349,25
309265955,2350371,194185438,901823,193066103,895955,893155,8028244,396467274,33024,306491401,24332,10455,923899653,2068,1.31,0.08,127330772,115702000,11067000,200168312,26
306482683,2102042,191315892,895545,192678489,887548,671283,7472659,392030708,31205,306428074,18817,7819,914401568,1864,1.41,0.06,106113045,102809000,2994000,120359854,26
306747732,2260586,191453491,924690,192263811,919043,636951,6900073,397517988,31643,306174539,20297,8776,917872206,1845,1.42,0.06,107196671,103888000,2996000,121251893,26
307073810,2264639,192500357,899499,192274901,895572,680163,6912317,395482191,29038,304908549,21675,7583,917370914,1899,1.44,0.07,106921956,101493000,5024000,120966448,26
102947071,2048346,71183183,502279,72028718,480510,734282,6456477,184701935,22165,101741990,7555,6242,349868509,1949,0.62,0.03,49955277,46704000,2981000,63957303,26
104482034,2587377,73291567,508563,71061947,493191,1198433,6569600,205348601,60785,104097254,13429,4497,360358560,2901,0.68,0.04,55268761,49009000,6001000,69303559,26
102820882,1990265,71387710,492317,71595579,472804,733221,6410206,182990736,22071,101469983,8402,7723,349942218,1896,0.62,0.03,49466077,44143000,5016000,63631625,26
304331453,2320204,191531010,900635,192793303,908507,767469,6891273,402848705,34066,306254580,23158,6778,914546303,2044,1.4,0.07,108194713,102674000,4984000,122518329,26
310840032,2464832,190964572,1294852,189530995,1292416,1335798,8258152,427511691,61768,314738523,21057,8172,938024974,2451,1.5,0.07,115340312,109045000,6002000,129602802,26
102499652,2495923,70636314,506043,70760706,489350,1337366,6819542,210381627,59167,108024865,10471,7298,354847081,2471,0.68,0.04,57198843,51048000,5890000,71459896,26
312028309,3118938,193338373,1111009,192844359,1204348,1478754,9848062,451567423,63020,314114547,25973,11088,943278773,3151,1.51,0.08,121946655,112648000,8971000,136220464,26
100942986,2562653,70111841,502882,71959573,495668,1042919,6454302,201563495,61156,104698833,12713,4999,347552082,2306,0.65,0.04,54210867,46946000,6992000,68316912,26
101890597,1920741,71185657,488928,70819048,455968,756984,6382140,182975851,21729,103115026,11882,5928,353057701,1903,0.62,0.03,49226877,43939000,4993000,63611605,26
305051900,2293989,191620875,893838,192163632,891922,671066,6747496,398424111,29701,305772487,21266,6546,916238870,2040,1.38,0.06,107943109,100659000,6976000,122050772,26
102805313,2502967,71733148,508398,70443523,490250,1184663,6500110,202418768,59592,104974810,11639,7550,355599826,2472,0.66,0.04,55336692,51964000,3056000,69522130,26
305643024,2290755,190093322,990559,191027155,1006815,635042,6665384,403572517,28216,307878669,19889,6192,915229342,1855,1.41,0.06,108777693,102502000,5970000,122977034,26
309937105,2347245,193767149,887653,191663364,899800,833504,6834843,405981114,36822,305267194,27187,12926,924223123,2725,1.42,0.07,109640412,105316000,4012000,123770342,26
310244444,2402130,192277192,877387,191539315,879154,1091284,7373547,410538721,34442,314682650,27536,7411,928676757,2819,1.43,0.07,111174915,104885000,5993000,125574596,26
102962720,2144350,71739865,493997,71808189,477417,741937,6250144,187340070,24122,102604315,6638,6262,355052170,1944,0.62,0.04,50975461,46686000,3973000,65199908,26
112414045,2858319,78275049,525061,75421646,503191,1973470,8135518,225720310,62393,107378053,20049,10760,382305018,4597,0.73,0.05,61093271,54813000,5979000,75032518,26
101921876,2507813,70920770,499827,70550709,489439,1198025,6628348,201971752,59183,105426087,15690,5568,350624493,2629,0.64,0.04,55612464,50366000,4937000,69664975,26
99119162,1833258,68907553,474176,69216246,455519,687679,5506608,180714676,20868,100118791,10266,5393,341576821,2062,0.61,0.03,48620205,45268000,3017000,62897233,26
101807337,2591867,70619739,507289,71817198,492319,1149911,6602212,205297192,66982,106797451,13984,8556,352548556,2460,0.68,0.04,55371115,49975000,4997000,69683054,26
103089375,2530316,71635335,507407,70501446,492240,1335709,6745715,207645106,59626,106939358,12492,7693,357304451,2644,0.67,0.04,56221676,51842000,3987000,70532454,26
120425475,3812729,86343806,544752,84493784,524041,2729097,11713608,325824547,196502,118332895,12472,10667,416927624,3036,1.0,0.07,88165810,77893000,9986000,102341818,26
111204233,2859693,73630641,599593,70957520,600030,1644824,9666323,220760905,71247,110773693,11319,9768,378900575,2456,0.74,0.05,60076631,55713000,3979000,74405887,26
102531603,2535102,71173234,507225,70546627,497731,1247305,6579856,207422562,58121,106718843,10270,4178,356273903,2551,0.69,0.04,55683874,50450000,4946000,69997735,26
101181398,2503186,70036736,502609,71769937,508112,1074191,6443559,202679964,60425,105775111,13109,5507,348287189,2464,0.67,0.04,54467321,49157000,5016000,68513780,26
103111417,2148171,71885284,486371,71262209,480329,733246,6126811,187711903,23969,101165054,7415,5480,350807180,1855,0.63,0.04,50732467,49438000,1008000,65021843,26
100919260,2153349,71545903,507733,72223027,494068,812414,6221247,189744777,23779,102741521,12547,6150,350576776,2042,0.64,0.04,51189724,46914000,3992000,65633983,26
303872455,2308356,190842525,893527,191608716,896483,738008,6680047,401950419,28384,306655041,22728,6956,916068709,2035,1.4,0.06,108323664,102133000,6007000,122476235,26
305084259,2288595,189708732,882224,191336194,893316,680373,6655179,401137482,31290,307788786,22335,8492,916319702,1932,1.4,0.06,108830456,104672000,3987000,122844949,26
101874465,2857200,71058979,542675,74029652,489330,810048,6890243,194444348,26693,103153963,9552,6355,351178271,1952,0.64,0.04,52494799,50248000,2009000,66583783,26
305446728,2284419,190952389,890585,191418485,890145,701566,6889647,400322713,30132,306683690,19322,7512,919719756,1941,1.41,0.06,107717003,103448000,4017000,122078104,26
84211076,853578,52433615,95788,51345153,95510,290903,2084015,114985987,8294,83461919,6205,3829,273162791,1611,0.4,0.02,31002868,25794000,4960000,45221982,26
101138355,2150809,70898034,486799,71775657,475211,794907,6231907,188547817,22691,102307282,8482,4546,347416792,1897,0.63,0.04,51036305,43797000,6967000,65253159,26
101808290,2181461,72169783,503975,72425578,498234,831126,6191322,191667806,25277,101688893,10998,7780,348596461,2060,0.62,0.04,51169700,47951000,2996000,65209087,26
320807825,3953223,202308147,970813,204788014,971654,2731194,12055708,542604287,220440,320164891,31626,11587,972140385,3116,1.79,0.1,146621274,143472000,3009000,160740720,26
10920157,523890,4629839,68543,6599738,60034,201237,1309626,27118153,3960,11639263,2713,2555,46873442,1135,0.08,0.0,7548795,4183000,3137000,21649068,26
101774134,2512383,70727180,504369,70396782,493376,1197750,6457422,204999842,61082,105980702,12739,5763,352047068,2458,0.67,0.04,54922146,50664000,4053000,69103882,26
101080847,2127631,70716811,489117,71251610,474608,786667,6232251,189631263,22517,103258216,7500,5999,350728934,1895,0.63,0.04,50864773,45699000,4967000,64764250,26
105420303,2801670,74161353,557271,72128956,469981,1035530,7289664,203101280,36736,103894857,9380,5419,361481305,2468,0.67,0.04,55559048,54322000,1005000,69765108,26
101485936,2062025,70590849,490335,71803580,470630,768643,6445120,186917748,24754,102390104,9455,6379,347880014,1949,0.63,0.03,50452142,46196000,4017000,64751169,26
108891541,2979849,82504192,228292,85862075,211889,2655659,7863829,262201478,237432,115818553,16731,13258,390773606,4044,0.82,0.07,71210685,65850000,4988000,85528670,26
321186736,2315124,195909074,1153561,190958721,1128071,1657914,8561991,432382698,73119,308343327,24708,13420,950006714,3392,1.5,0.08,117159843,111024000,5947000,131603440,26
116472288,3784368,79490885,731154,76427957,677164,2053013,9321526,260993897,128695,122373295,21500,21640,403852913,3893,0.85,0.06,70268311,59922000,9987000,84534075,26
324824421,4044633,203053507,977761,205556256,966134,1166491,7961575,465077257,30686,332433445,27417,8306,989303973,3010,1.55,0.08,127032504,121831000,4993000,141373462,26
101996666,2127987,70884780,490994,71573285,476815,728999,6258764,186860707,24243,102642474,8868,4916,349666115,1857,0.62,0.04,50646405,47412000,2963000,64798818,26
321174517,3507818,197786263,1168133,198088365,1183084,2166012,10933545,473920983,198011,322490344,22790,8775,973552472,3203,1.62,0.09,128002222,121678000,5984000,142306854,26
103054575,2127473,71598440,497515,71277342,480540,742760,6282971,187037777,24620,101986270,8473,5290,352327946,1946,0.63,0.03,50524667,47269000,2954000,64711289,26
100635003,2519374,70106005,503277,72535869,502001,1107798,6498170,203606058,61186,105085552,19219,6916,347016914,2797,0.68,0.04,55165191,50815000,3985000,69463686,26
321646115,3997649,202693551,980547,205359069,981558,2731364,12157460,547700518,227965,318547266,31503,14742,967481196,3026,1.81,0.11,147725369,141432000,5976000,161858839,26
312473283,2402694,191027514,1087363,189454506,1081650,1505341,8460593,429509155,66540,315900901,21661,11676,947366555,2653,1.46,0.07,116305639,112099000,4003000,130512284,26
304020835,2348963,191712163,900918,193097388,900632,700098,7081723,399454789,33355,306572533,21492,6203,916411786,1948,1.41,0.06,108019893,104667000,2990000,122043987,26
102390156,2176046,71635488,490714,71837634,479749,692097,6146584,187351605,22971,101970483,12262,3989,350109468,1917,0.63,0.03,50915544,46609000,3966000,65105950,26
102651141,2530934,71288454,504753,70830821,495922,1206293,6500017,204657247,61589,106526581,10277,7396,353513305,2644,0.69,0.04,55633018,50302000,5030000,69917857,26
304871799,2230090,190962187,895548,192806679,893576,748945,7155563,395747411,30224,306026739,18620,6073,912912874,1848,1.39,0.06,106885748,100663000,5980000,121162353,26
108742258,3286246,71689308,646157,71627698,673347,1773483,8969896,247914626,139034,116898854,19449,10263,389723019,3266,0.79,0.06,67090295,61633000,5051000,81390869,26
101025446,2104546,70197361,487341,70927886,472883,751524,6250562,188548407,24944,103525577,7835,7427,351721078,1809,0.62,0.04,50798843,46536000,3960000,65071772,26
101140505,2557530,69812753,498409,71620148,501349,1309070,6757259,207835327,59611,107584643,14574,10583,352721284,2857,0.68,0.04,55988997,48659000,6951000,70295942,26
100534067,2527454,69937930,498770,72184340,502484,1153566,6497285,204186606,62738,106423769,12071,9251,347975401,2652,0.69,0.04,55357556,48999000,5999000,69479332,26
304242235,2288178,189664248,877671,189560862,880552,811181,6729489,397418588,28610,312028862,21973,8259,913094031,2051,1.31,0.07,111063902,104822000,5989000,125252728,26
105700596,2257137,74287386,484036,71574848,487491,839081,5979492,193480322,27156,101541043,10935,4337,357987321,2452,0.64,0.04,52570876,47283000,5030000,66684834,26
100489111,2501950,70050120,494467,71143515,498851,1039729,6379174,201244578,60410,105500381,9928,8075,347790919,2270,0.67,0.04,54309774,49010000,5001000,68671167,26
103106310,2603795,72327181,504471,71055977,490458,1285728,6728024,208059650,59786,106379557,13547,6478,359619902,2912,0.68,0.04,56313754,50050000,6006000,70591460,26
308293252,2599779,189457785,1098682,189212701,1089398,1484070,8439069,425896747,61441,319049287,20947,12755,934261111,2485,1.49,0.08,114882162,108693000,5983000,129105579,26
358838426,10555657,242901869,6580929,242685667,6616539,9115657,27271255,1056038142,1180479,359894027,50354,29974,1109347958,6970,3.27,0.24,284946233,272687000,12030000,299025655,26
101680885,2117090,71521773,507015,71892719,486998,772090,6286994,187107851,24361,102285636,10784,8329,350463678,2061,0.63,0.04,51001824,45604000,5067000,65327367,26
47611830,447122,31155638,135615,28354342,130689,459954,1812156,77736271,14314,39003210,12483,7000,142844049,2948,0.25,0.01,20885519,15701000,4906000,35079286,26
111626486,4316402,77213929,886929,74990378,807363,2590346,12109806,280658390,162419,114609204,19743,7578,387754199,4043,0.89,0.07,75596772,68282000,7029000,89822303,26
109294944,3491474,74871826,885663,76801611,848546,1333387,9111628,240743889,56612,119397941,11071,13910,397180850,2801,0.77,0.05,65058998,58683000,6070000,79016203,26
305095040,2274535,190641637,893608,192119332,893586,721853,7017720,399881477,29357,307393826,20280,8658,917320585,1855,1.4,0.06,107441613,103169000,4006000,121618245,26
304175760,2311182,191278474,897861,192252906,899764,695439,6736593,401982414,31059,305366259,24414,10210,913175742,2072,1.41,0.07,108070858,100805000,6986000,122284372,26
101147362,2530646,70322390,501275,71629201,502782,1195298,6505256,205908250,63175,106369706,12361,8263,350577510,2469,0.69,0.04,55202305,49910000,4991000,69260081,26
320538722,3959831,202481108,975833,203885470,970846,2696829,11979376,544922392,227434,319831841,31255,17662,970809675,2936,1.79,0.11,147386728,141118000,6005000,161460505,26
103299120,2536040,71778417,505918,70548488,490455,1404732,6801652,208346064,59327,106806818,12609,6722,359535915,2656,0.69,0.04,56245815,48959000,6994000,70506791,26
313247616,2423747,192515330,1159224,190399873,1156895,1553190,8547689,426800951,62166,311895329,23921,8194,938859990,2260,1.47,0.07,115233942,110920000,4033000,129528480,26
287397209,2446044,183143395,1015609,182707830,1015219,1295432,8112188,395664540,67922,280324848,17812,8438,864257708,2646,1.39,0.07,106545438,103270000,3007000,120746815,26
96622505,3314241,70344602,722676,74540230,686009,1153721,7908780,214732429,38332,105003967,11324,6840,332423817,2055,0.71,0.04,58367332,55102000,3005000,72583825,26
108220009,3463938,85522761,523652,84246221,527486,1727238,7395274,256866403,76281,110205067,30336,30674,389222872,8089,0.83,0.06,69886704,59544000,10092000,84001963,26
184510718,2055209,131418656,1071261,128029900,1184029,1234740,6339567,310406301,37302,173337866,19988,9734,621040449,2240,0.96,0.07,111859101,104476000,6965000,170719117,27
538734546,1402193,329898269,1102774,325967764,1233728,915344,7170453,634818342,34257,526073055,27938,8864,1598208660,1822,2.28,0.1,171944649,169710000,2008000,186078989,27
167216344,1615248,117362158,839930,117273820,801621,1158481,5544312,282917184,31447,154895486,11956,4794,557976255,2243,0.95,0.05,76280018,73032000,3001000,90308117,27
193919444,2720383,140427623,1575033,142931980,1491818,2886476,11026836,429167537,84020,189566506,67824,45455,668830903,3570,1.28,0.07,91065265,85875000,4992000,105362314,27
38790744,1641809,33499032,906409,35382720,722393,813749,4649458,155756909,13465,38618783,13768,3761,195636065,1868,0.5,0.03,41931444,37656000,4070000,56086294,27
160159136,1760318,116384079,888403,117639028,852121,1073972,5562517,286868339,33691,157377423,10319,4490,531608920,2288,0.98,0.05,77313317,71988000,4999000,91633540,27
161245777,1713653,116985170,862746,117362808,823754,1097540,5455421,286776843,34932,156928304,9879,4661,539295805,2438,0.95,0.05,77508843,75156000,2004000,91669383,27
165780943,1748407,117464045,903912,117853927,856900,1135284,5523638,284853224,31763,158484048,12764,6597,545807242,2341,0.94,0.05,77395350,72157000,5010000,91401358,27
154103146,2002253,112856173,970425,118057899,882011,960961,5094014,293961177,34218,164152689,12383,5336,538002386,2240,0.97,0.05,79454336,75191000,4010000,93294088,27
164749266,1393943,117433923,683963,117162468,659545,814050,5253942,277217166,17682,149451508,7876,4374,557824332,1826,0.92,0.05,74376511,67108000,7011000,88632434,27
522115540,2095191,328358864,1533704,328469618,1521729,935676,5946782,662365826,46888,517834937,32188,9417,1555396406,2239,2.33,0.1,178600989,172299000,6010000,192647882,27
596174695,8437539,384510426,3080051,379723242,3049685,3833473,11649757,946951028,251148,606866751,38923,18703,1826447042,5097,3.19,0.17,256022035,245886000,10036000,270134810,27
154689337,2022161,113137699,937547,116956434,864003,935865,5087947,291453027,32942,162663742,13869,5116,538010740,2243,0.96,0.05,78828694,74593000,3978000,92915797,27
521708931,2115145,325181968,1911116,327941935,1823278,1232244,6467532,676850295,44738,532208395,29465,7840,1577238318,2239,2.36,0.11,181182615,176902000,3997000,195353041,27
157075519,2155502,110792588,1051120,114958852,869521,998412,4803002,298401309,34747,170320338,13831,6028,561243907,2828,0.98,0.06,81114343,72028000,8880000,95374605,27
179502654,2034447,122407869,1197553,118652357,1270103,1156234,4838272,310822398,28556,184181743,12184,6181,620826130,2340,1.02,0.05,83822683,81617000,1990000,97999020,27
163762879,1665931,117212397,808964,117868698,771549,1143199,5558233,284946623,37711,156821171,14303,4576,541988760,2265,0.95,0.05,77129461,70943000,5995000,91050753,27
159149297,1995815,114430923,1043581,115945700,999635,917182,5148096,290689624,36664,164055459,11035,5024,558011316,2246,0.95,0.05,78861449,77626000,1008000,92806756,27
180005123,2594653,121173069,1397773,116484091,1565651,1303840,7926486,317097511,35965,176125453,15042,5538,637163068,2287,1.04,0.06,86228391,80955000,4997000,100474007,27
164442458,1682914,117701562,895808,117263993,858058,1077863,5439994,283315136,33063,156077717,12501,4622,540349836,2244,0.93,0.05,76935785,69788000,6978000,91197777,27
165723670,1610548,119084673,796486,117356251,760311,1211032,5534297,282044040,33314,152811734,15045,4853,545473407,2289,0.93,0.05,76349080,72104000,4005000,90633077,27
540826878,2478614,340107057,1778692,336456847,1927185,1859837,8617372,699986737,60289,530099472,40040,10701,1629190065,3427,2.44,0.12,188234018,182989000,4999000,202636459,27
154427031,1992664,112363661,941212,116101064,864202,919591,4948292,286740383,33529,162586306,14053,4684,537118985,2242,0.91,0.05,78927964,76555000,2014000,93148757,27
585578832,3065032,369366839,1948770,362865054,1993256,3938882,10579108,843578373,372769,565141564,43567,15204,1778242943,4908,2.89,0.15,228021644,219818000,7993000,242212628,27
160994176,1840475,114939245,938678,117015375,898095,1104489,5524389,289696656,32857,160838785,15619,9443,535893796,2630,0.96,0.05,77836951,71625000,5968000,92065470,27
522567963,2101301,327940103,1665720,327151365,1654598,976248,6079780,662602052,49092,521858734,28399,7508,1565732189,2258,2.32,0.1,179059251,176854000,2009000,193088228,27
209701372,6380531,159947977,2232552,162731775,2129551,1501859,6530381,466843157,53875,220907469,29198,10775,725121075,3997,1.47,0.08,123264171,117040000,6002000,137646299,27
178599184,4354153,137350960,939521,140445554,922648,3033183,8001607,419609407,70383,185358398,84525,83524,662174763,17090,1.36,0.09,112941612,90745000,21938000,127073643,27
159092735,1928181,115012795,959274,116310625,922612,1033513,5295023,287567379,34815,160057399,14164,4998,539947076,2629,0.95,0.05,78127428,71884000,5990000,92466329,27
163932743,1692758,116726292,890653,117576771,852411,1076483,5557315,286347945,36019,158368917,12865,4317,540955271,2240,0.95,0.05,77249764,69007000,8000000,91203065,27
155692813,2054241,112984587,912868,117159596,837631,937718,5038625,291084977,33026,165047878,14415,5819,545962244,2242,0.94,0.05,79274289,76877000,2023000,93523096,27
218314684,3196900,147208353,1173181,144623314,1171126,3509064,8325931,458166596,321500,226090943,19928,8756,784466393,4209,1.46,0.1,123508714,116241000,7014000,137810848,27
156753446,1983783,113098591,776902,115015047,746381,966238,5049223,292353520,32848,161251378,12674,5610,551047732,2243,0.96,0.05,78790429,77449000,1005000,92990268,27
171019151,1376900,118113190,699707,117091999,737749,839800,5262219,273335608,18132,154621901,9711,3847,577541931,1828,0.92,0.05,73645422,70417000,2975000,87758634,27
166125647,1674412,116610361,900081,117032144,865467,1206673,5557943,288558008,32854,158114714,14619,5793,554773513,2246,0.95,0.05,77266982,73007000,4000000,91631973,27
516073898,2112844,323751257,1916123,327892837,1813236,977613,5764341,668498016,42472,527114493,29980,7353,1553392926,2237,2.37,0.1,180120557,172707000,6988000,194291980,27
157938180,1947314,115265792,878668,117165866,793886,1090318,5231762,289909152,35484,160188810,19949,4753,541872053,2834,0.97,0.05,78554496,73221000,5015000,92763971,27
155128365,1853937,114817137,860248,119178048,819683,1076417,5538850,291797968,33781,160454260,10841,5762,527428613,2290,0.93,0.05,78865269,77569000,1007000,92942969,27
517645683,2144662,325726309,1739659,328216853,1707593,1002602,6062162,668575351,42903,522822760,32107,7333,1553196264,2240,2.35,0.11,179834782,175405000,3986000,194026237,27
164472397,1636072,116692753,555619,117053632,529010,1201699,5683517,283755894,35188,154016766,14540,5190,546164342,2243,0.93,0.05,76295397,71919000,4051000,90597152,27
523106563,2102374,328577375,1674841,328568778,1628987,1219752,6128131,663146641,42526,525997872,30580,14665,1568468105,2237,2.32,0.11,180356739,172007000,8000000,194687309,27
170776472,1544953,116487502,830447,115182746,961582,816652,5372769,270608295,19784,162797619,8489,4473,589134149,1828,0.92,0.05,73554126,69399000,3965000,87824557,27
157002712,1987608,114753817,924349,117208300,865731,1144829,5299298,294147346,35132,161448847,12613,8211,543300611,2873,0.97,0.05,79176293,72923000,5993000,93349923,27
163141274,1648527,117737574,878760,117620580,834728,1127275,5498407,282296798,31359,155153623,9841,4468,538556978,2247,0.95,0.05,76719669,72406000,4022000,90758838,27
167625327,2358292,119731514,606139,122249364,576963,1214556,7407561,293203373,46411,155296760,10528,4998,561875001,2497,0.99,0.05,79349801,70996000,7999000,93602189,27
168264606,1358292,118471430,689264,117158642,672874,803325,5155314,275230732,17350,151226915,10287,3850,566683866,1834,0.91,0.05,74221187,70900000,3038000,88464291,27
520552433,2227338,323245725,1719535,324559393,1552639,1313361,6494910,674396674,42531,535502213,37217,14708,1584444906,2875,2.38,0.11,182174779,175941000,5998000,196177601,27
541292272,1892781,336039880,1861745,333453461,1990055,1409583,7523372,686335847,45342,536734645,34933,8860,1618699480,2237,2.41,0.11,185513032,179211000,6007000,199705538,27
155163494,1957650,113970237,987601,117737979,948024,1043582,5227870,291834974,33894,160049262,9957,18197,532560350,2341,0.96,0.05,78777799,74550000,3976000,92837931,27
527555661,2055829,321065580,2014670,320981394,2013320,1347344,7383901,669137966,44115,538268630,34595,10462,1601996391,2434,2.3,0.11,184398490,179165000,5004000,198569521,27
163893962,1649794,116715681,872240,117691937,835821,1118791,5435140,283783796,30561,156673918,12541,4339,542952587,2241,0.93,0.05,76980592,71667000,4976000,91181420,27
517738040,2153815,323193653,1805008,327307724,1652213,1158390,6365178,672374511,41338,537283373,32683,7816,1577408274,2237,2.37,0.11,181861028,178511000,2991000,196131197,27
154739406,2025371,113991230,903131,118535922,819458,1026142,5105567,296053856,34755,163568057,15523,4913,543812533,2442,0.97,0.05,79404042,74091000,5006000,93460893,27
521451862,2128053,327747614,1640834,328471243,1629648,892565,6057109,659632309,49908,516924561,28955,11892,1551064760,2283,2.31,0.1,178577141,172298000,6010000,192608861,27
182706685,2000300,126302558,1072307,123387361,1194458,1380530,5958184,317591944,32428,182030784,11205,5487,624670890,2437,1.05,0.06,85681330,80387000,5024000,99813494,27
167461417,1400723,117528866,769369,117616183,733800,789430,5147457,274322427,19296,154218485,8434,4267,560869760,1829,0.92,0.05,74764800,71506000,2979000,88897923,27
588959771,4963052,375510945,2308969,368029452,2344577,5069296,16747322,903082935,378768,574129630,62223,19872,1794037635,7401,3.02,0.17,242183072,226013000,16000000,256171519,27
158490258,1934276,114314290,947587,117360585,905121,1099409,5445795,289224248,33468,160930516,13670,5358,532765632,2632,0.95,0.05,78481910,75101000,3004000,92391382,27
519039080,2158677,322467037,2060203,324899914,1885390,1216881,6587130,670133325,46934,534684017,32584,11646,1574579388,2431,2.36,0.11,181530939,178285000,2988000,195849925,27
172324767,1648123,117056140,466636,115016592,609052,814921,5412177,268137929,17248,161638453,10785,7494,586705781,1829,0.9,0.04,72419170,69140000,3006000,86733824,27
517683179,2096556,319663522,1927811,322869720,1755789,1160618,6483708,664343205,41334,537701611,31248,7538,1573432411,2238,2.27,0.11,182242632,175985000,5999000,196243939,27
168133423,1402043,117130347,707781,117171940,687704,797373,5189740,275065514,16152,153494298,10334,4134,566598017,1826,0.92,0.05,74430122,71177000,3007000,88755444,27
535317375,1409769,329134199,1305569,327729753,1443935,816638,6695181,640941749,25952,522256013,25344,9455,1588636002,1820,2.28,0.1,172926534,165591000,6982000,186898284,27
518663178,2228471,323977860,1966343,325243819,1786286,1317153,6394432,676205676,41583,532579540,31300,8039,1574821284,3016,2.37,0.11,182053488,175797000,5993000,196442014,27
542576916,1887215,336195855,1887379,334959869,1877946,832075,5744538,667410833,25832,541259794,32664,9799,1615889183,1823,2.34,0.1,180322567,177063000,3001000,194491870,27
517830914,2157448,325266549,1785145,327533646,1728553,1002445,6024902,664551495,46171,524900598,30072,7649,1554771201,2236,2.34,0.11,180460581,176186000,4004000,194871645,27
534848182,2086013,330692727,2053115,328112760,2102958,1481142,7476768,682106953,41849,535135592,29993,11984,1628956111,2237,2.37,0.11,183878421,176538000,6981000,198194310,27
155927573,2040668,112968778,928002,117390441,812628,990286,5109199,291838457,34044,164996799,11683,7072,546713908,2245,0.96,0.05,79218170,74811000,4043000,93320816,27
187072351,2250379,124577468,1161997,118752633,1412388,1980967,6876331,318647736,47011,179703146,32821,8731,654948856,4141,1.06,0.06,86488393,81037000,5002000,100536718,27
166186231,1397374,117966342,747720,117634859,710831,839984,5221651,275758764,21049,154039453,9483,4971,552740411,1832,0.94,0.05,75046318,69654000,4975000,89384287,27
168149589,1428967,117987419,797912,118427676,774050,842050,5272185,278268471,18628,153988941,8852,4605,563973180,1837,0.92,0.05,75218875,69832000,4988000,89574938,27
157968449,1885230,115268065,845657,118781043,804226,1022212,5369983,290525352,33851,160073413,10512,4623,531143777,2240,0.96,0.05,78619506,75318000,3012000,92714505,27
534720638,1450356,330054625,1392929,328135839,1436004,858728,6805717,640749373,28947,518310482,26506,10026,1581317038,1822,2.27,0.1,174087958,169797000,3995000,188178015,27
169830609,1600729,118863222,560207,117234205,537002,1194178,5659815,278587833,33406,151024213,12151,6246,563333599,2244,0.94,0.05,75371464,70081000,5005000,89638448,27
158429789,1864101,114863492,867161,118222108,825049,1046970,5494127,290132338,31667,161239599,13122,6208,534944868,2243,0.97,0.05,78384107,72108000,6009000,92516312,27
163426599,1662510,116057975,887268,117392549,848314,1128271,5494756,285043475,31932,158027854,13713,4604,541116746,2287,0.96,0.05,77121304,71853000,4989000,91157154,27
163419431,1883371,115226659,1035638,118032785,984232,1078386,5367152,291935595,31904,163707904,13560,4509,549705839,2242,0.98,0.05,78580669,74284000,4015000,92615625,27
165643799,2053580,113070237,1017571,114561844,982542,1009659,4671473,300270782,38355,175262807,14293,6672,581512668,2437,0.97,0.05,81805346,73571000,7953000,96086822,27
157541016,1939450,114587624,886674,117870660,850590,1094726,5350552,296615714,35275,160426369,13630,4689,533304146,2445,0.96,0.05,78618417,73185000,5012000,93008063,27
523687431,2116237,330297645,1566944,330088011,1551232,971691,6194857,661482189,45123,515491528,27749,9345,1556666592,2260,2.33,0.1,178176428,171928000,5997000,192026694,27
452106597,16015736,299457619,791518,298593334,790867,245011,35660291,713650727,122353,452019946,66286,299197,1277995775,624,2.24,0.11,214035568,182617000,30935000,260381964,28
421133457,15705912,169361963,428268,167969497,429134,215397,35344088,417542251,14462,436607848,3277,3649,1490345220,643,1.49,0.06,112431113,111054000,1000000,126548459,28
347904587,6292656,344145350,655048,345683205,646047,179718,15604570,451495700,13577,346038350,3152,3868,1540442351,632,1.49,0.06,121592508,118342000,2983000,135734639,28
572254295,16209108,239300700,927548,238817242,937444,310293,34223567,955462277,229299,581452765,397375,367261,1768600930,616,3.13,0.13,257217342,197954000,58986000,271318793,28
564884037,16382373,158913682,416985,158065321,416124,216047,33414406,424558118,14452,566126809,2119,3022,1471419462,632,1.55,0.06,114676726,113299000,1002000,128935951,28
527854750,16119109,219101834,669284,219970000,674783,672231,35493030,714633220,120637,529310487,9775,109307,1603983099,629,2.44,0.1,192756876,160249000,32049000,207021701,28
431678601,16030293,159080959,423134,157088527,418088,266408,34544726,405126275,14554,433585692,3300,4226,1464970180,1131,1.51,0.06,109097792,106823000,1996000,123516712,28
284454466,26068174,343899738,711852,345428592,697752,184830,23077378,501913771,17432,283643512,3430,4163,1515175433,627,1.64,0.07,135761752,133490000,2007000,149821541,28
430188791,15981277,158374270,418947,156418006,414062,177309,33949343,397990015,11981,428188679,2756,4106,1443833214,632,1.47,0.06,107738232,105457000,2008000,121864806,28
371055038,113507622,346961883,667661,342066680,667371,495919,34176632,567672575,18322,366884732,5090,3972,1377996812,1118,2.14,0.08,153644247,152323000,1002000,167871914,28
434116114,16162179,284698217,584198,282551461,583027,316302,33211173,525195402,21643,433088731,2464,3299,1074885576,1125,1.7,0.07,142139066,138846000,2996000,156364981,28
311608633,8288464,280813137,787914,277971335,793802,222107,17849980,303840314,11529,316012593,5462,2341,1091941414,1037,1.02,0.04,82438030,79185000,3007000,96806103,28
343790709,9685041,219446922,773650,218340360,767352,191580,22671269,598871137,118811,341052669,8447,104496,994617826,624,1.93,0.08,161850042,129647000,31913000,176273274,28
541764383,16968409,219004320,699734,219240958,695665,318424,33441252,794929910,124665,536939709,262728,102286,1789060547,1566,2.69,0.11,215496833,179358000,35871000,229792009,28
427838863,16501712,165309307,420051,165520620,416744,184371,32881285,399304318,11721,422021949,3493,3901,1361240690,639,1.43,0.06,107927406,103657000,3986000,122062587,28
431918277,16609739,157558707,412329,156637620,416180,215800,35018444,390071312,14142,426834059,3003,3286,1321933460,650,1.38,0.06,105876160,103614000,1992000,120167019,28
433868129,16325699,159403595,418700,157045380,415330,298047,33639529,396447789,14460,427372929,4148,4393,1461793577,1124,1.43,0.06,107594878,104339000,2981000,121779357,28
535579477,16426778,343031329,793186,340995214,795468,258343,34006442,794323466,121007,538222584,9311,102128,1378619593,625,2.63,0.11,215307888,183036000,32006000,229593327,28
428288038,15775438,157624583,416959,156680171,411362,199907,33490024,399436945,16547,430661364,2825,3135,1446943932,632,1.47,0.06,107571766,104286000,2979000,121699920,28
338860766,9096212,276119822,775083,275050215,781381,219106,23863349,670885230,115938,345974587,47250,103640,1378991679,625,2.15,0.09,184878967,139698000,44903000,199084375,28
538486938,6502055,360641126,978080,360940795,980335,313111,16444282,671336997,120622,537875946,246180,107808,1655646091,1124,2.08,0.1,183897832,155677000,27942000,198137624,28
636248070,6450527,494983399,830328,494794816,829416,193472,17182110,1118951366,134512,633109016,9262,109192,2514190735,618,3.73,0.15,302950392,277729000,24975000,316978922,28
551271815,17495623,224317873,682314,221196798,678021,885716,37711230,742127410,123354,535323811,19192,102989,1803315549,2122,2.52,0.11,201100783,165711000,34939000,215302769,28
549692748,205997354,155723042,543380,159973094,554385,263478,69028837,1216002664,32203,556639268,5601,8569,1682278575,631,3.98,0.17,328296764,325998000,1999000,342517961,28
560927919,16144189,157865802,420315,157886515,419382,216599,32722843,418556413,13057,569748411,1713,2781,1462364751,632,1.54,0.06,113876092,110547000,2987000,127926325,28
532452235,16410678,220315333,726365,220942759,731074,311365,34883505,714183268,121838,529151790,7377,108515,1614493476,1120,2.38,0.1,193223653,157956000,34990000,207186875,28
428233517,16565992,283236227,558924,283668131,560640,372913,37452658,559985104,17966,429511896,3572,4771,1195250438,810,1.87,0.08,150328802,147962000,1999000,164565151,28
421743193,15449261,169150482,426585,167191139,426217,223442,34186311,411277147,12937,431758686,2807,3095,1479020135,624,1.52,0.06,111260563,109010000,2000000,125070415,28
455362675,16379657,174251193,656786,173769958,654535,222094,34038666,634369826,119305,454751387,306654,207400,1407537400,631,2.14,0.09,171420161,136154000,35039000,185615470,28
590828364,16309643,176328841,710167,176069846,706328,271647,33966317,671686851,119215,599176495,14150,104889,1561550962,632,2.25,0.09,181150166,150628000,30125000,195239267,28
535076566,16459525,345944494,789811,344765525,793698,202747,33743522,806151199,124286,533920427,304734,104431,1643238069,623,2.69,0.11,218102827,179861000,37970000,232081552,28
649367104,16270125,213457706,695472,213474314,692108,270940,34622263,781155606,119697,660039955,4917,103726,1737046810,624,2.73,0.11,210989578,174567000,35911000,225135796,28
535196414,16494286,218589845,674302,217829170,680611,279513,38487285,742924181,119536,542978347,360060,204088,1775008967,831,2.56,0.1,200283740,135175000,65084000,214259490,28
589829975,17138389,181328295,679012,179943775,672402,604306,35358673,698490092,129872,567358915,318036,110864,1538047421,3372,2.31,0.1,188758350,134804000,53921000,202682608,28
415499472,6661215,359025646,801582,359423321,801075,229805,16497913,831757671,121475,414121319,304207,105164,1541003825,642,2.7,0.11,224066265,179781000,44192000,238095085,28
528724109,15934500,219418770,690784,218981598,688210,209558,34419217,790562334,121489,541348523,9128,104557,1760526072,622,2.77,0.11,213218722,152114000,61046000,227587921,28
538826045,16029624,339838705,846482,333137917,848367,331761,33685499,684289979,124807,549328956,11317,104578,1397233858,1109,2.26,0.1,184929068,125767000,58891000,199251471,28
569869952,6158892,381265615,814039,385141679,818922,252690,17335165,937053870,122699,577966049,302038,108373,2199334265,623,3.13,0.13,253174802,188076000,65026000,267331191,28
339882781,9068644,217422706,767873,219768723,767956,229317,24672589,665155277,118223,344473486,7098,109020,982904537,624,2.17,0.09,179455503,121591000,57806000,193477082,28
431397998,15923403,282826121,684331,281769971,689438,220371,35859811,555240103,17003,429507376,3281,4859,1195854569,623,1.85,0.08,151213018,149045000,2000000,165527071,28
368719455,6478545,587554224,790073,591656024,785045,204244,16832704,843336723,123141,370270586,300874,107709,1962042819,632,2.67,0.12,230838393,190827000,39963000,245014239,28
580248610,188427947,174246421,714843,173884491,712872,308962,50612759,964229895,124481,584240352,74997,504552,1657697956,630,3.22,0.14,260043879,221718000,38123000,274095625,28
453531645,6716368,410502251,954982,405233520,955095,408231,17369098,952015486,127955,452328499,13245,296366,1733702957,1119,3.04,0.13,257569173,205428000,52108000,271844663,28
542692101,221042015,362203659,1259788,359495476,1275269,385632,26955081,949934646,128628,535867842,299775,170530,1832528839,628,3.17,0.13,255537285,209264000,46058000,269777240,28
420795272,15684753,169252826,424214,167442824,422318,196217,34528230,412514950,12257,431744983,2927,3372,1481706841,633,1.51,0.06,111482180,108245000,2979000,125623235,28
565083537,16669866,159677348,427594,159271433,427441,214046,34348508,426023322,14048,565835280,2151,3104,1472004237,651,1.55,0.06,115047061,110862000,3995000,129267390,28
526292451,55315481,417255509,1033981,417677075,1029233,733549,26744047,956607584,129947,530294143,277063,104028,2060702744,2000,3.05,0.14,257946129,235839000,21985000,272241336,28
560212401,16137037,158922623,432963,158545324,432319,211464,33417270,467854935,14032,563807796,2412,3139,1453890558,631,1.8,0.07,126641351,124415000,2006000,140905116,28
426071376,15876855,157446207,417899,156181907,411907,180011,33756713,401533797,11568,430361052,2917,3255,1444886770,645,1.45,0.06,108463616,105261000,3007000,122690759,28
538210106,16653059,344305529,812270,341611081,812129,237940,33999750,796548612,123126,535819123,196624,118004,1379644296,625,2.59,0.11,215787108,179703000,35940000,229966681,28
386711841,6264157,401626084,871759,397843638,871038,337118,15746347,734873516,118166,392408721,19370,162073,1728701490,1104,2.34,0.1,198279705,171094000,27014000,212471702,28
825680243,16418773,423564045,922689,424722834,927758,253242,37383436,1112713715,131250,828548958,298510,172046,2394731676,632,3.72,0.15,300000368,273889000,25989000,314240796,28
426071642,15710363,157908062,422261,156916190,420273,184266,34060358,403581017,11991,432766553,3118,3256,1440970542,630,1.48,0.06,108901343,106691000,1994000,123191572,28
453720052,6788883,445765360,1139603,432588092,1127971,500853,17317352,741981048,121177,457619269,10955,228191,1658532886,1638,2.29,0.11,200914270,168598000,32113000,214984056,28
433721315,16592597,157004648,413381,157620821,418004,230020,32741203,390636804,13638,427160438,3337,3877,1322091483,631,1.39,0.05,105502793,104279000,1002000,119713285,28
434133014,31951102,160393300,425532,157632949,419878,1628575,65341213,455445183,16188,429759966,5206,3992,1460300316,1122,1.7,0.08,122635695,121397000,1003000,136931189,28
431657800,15956973,159319668,427393,157535886,423270,198220,34723710,399736867,13125,430696318,2866,3595,1451060112,643,1.5,0.06,108520196,106234000,2004000,122755728,28
424918789,15557780,157991736,423455,157963948,425686,228759,33887023,402183336,11705,437664970,2452,2999,1443918524,624,1.42,0.06,110765074,108578000,2010000,124940314,28
347365424,6315589,342087910,640828,340492815,643332,231758,15428899,403543472,12683,348077212,1925,3333,1404179333,630,1.33,0.06,110078247,108798000,998000,124412388,28
586176058,16487690,173736032,665695,173322246,668088,244903,35319262,670516529,120703,581549972,147991,106412,1537253144,630,2.22,0.09,181311611,147040000,34009000,195703856,28
523954943,15712387,216829786,675178,218094663,678800,239551,36054901,723213758,117388,536849549,22099,107044,1741799352,625,2.45,0.1,195770457,179520000,16046000,209787704,28
343598096,9795124,219718918,829928,218915431,819013,200320,22710147,549182724,118474,341019196,6380,105171,996559457,624,1.76,0.08,148533376,135209000,13020000,162492017,28
424710636,15843875,171164024,419177,167979606,413212,276776,34498673,418251608,13358,433809457,3124,3535,1496987133,1064,1.5,0.06,111915887,107714000,3989000,125960642,28
558543813,16139493,158681407,435705,158646567,433473,215623,33224833,470245067,14551,567302963,2767,3439,1456727063,631,1.78,0.07,127823230,125548000,2008000,142091404,28
511568743,6714727,528809906,812567,523621187,810086,218420,16018006,845008164,121434,513010370,6719,102623,2116436336,638,2.75,0.12,228177893,213014000,15001000,242206276,28
229078594,6639199,259036960,658213,256368915,675758,227985,13897883,465572503,115138,223821963,4104,105406,978501334,629,1.46,0.06,125793127,89681000,35872000,140180132,28
446005974,6352355,397036727,1000715,399772844,1005817,260603,16726770,722490343,116498,454991136,9560,105968,1702467515,624,2.27,0.1,196533853,177337000,19036000,210511978,28
306090344,811664,405905858,1069177,408636589,1072112,193924,2668116,556454774,15205,307332703,3700,5109,1201579236,647,1.85,0.08,150661678,149360000,1002000,164689774,28
433233679,16556372,160143401,423772,158007772,420341,327260,36497880,407533936,15243,435336966,3258,3132,1469116445,1546,1.47,0.06,110537337,108213000,2003000,125242508,28
455338030,16257565,173417118,660225,173548661,661617,227793,34228202,672522015,121847,454390038,4778,106431,1526887583,626,2.27,0.09,181368358,143151000,38040000,195235269,28
281419904,6447664,389660411,555077,385482095,555502,205456,15132353,579167234,17748,278894701,3204,4316,1320165536,630,1.91,0.08,157356541,153146000,3977000,171512318,28
536644726,16107041,337715049,819019,332356614,814394,263036,34753048,678000261,116225,550538298,6445,103744,1386772744,626,2.22,0.1,184634094,159160000,25025000,199003725,28
536585468,17223841,346549849,799778,343396530,791387,461386,40047121,809487198,126546,528133848,306947,105395,1512719819,1122,2.75,0.12,219143113,197876000,21093000,233087597,28
344987748,6271620,339903117,706883,344177535,706606,191962,15655206,402426753,11582,346125140,3068,3253,1403935769,632,1.34,0.06,108553108,105226000,2978000,122803918,28
536191025,267662125,225713067,759930,225000854,759450,276486,83060820,1161871781,139253,523694746,201080,107737,1874053348,1083,4.02,0.16,314486262,288221000,26019000,328687660,28
427896354,143554632,157567166,536142,161107610,546071,788483,74372110,1160205635,39130,430631371,13496,9122,1692155136,2093,3.53,0.17,313707915,309527000,3993000,328016455,28
426902222,15813995,156906596,416495,155935128,411070,180652,34348558,400288565,12945,432407962,2873,3104,1449225450,632,1.52,0.06,107697833,106313000,1002000,121980316,28
561862006,16175740,281777900,540081,279899745,548261,225809,34114055,468361966,14296,563417627,2084,3137,1328228415,632,1.66,0.07,126775959,126510000,0,140904963,28
521613883,15659218,216275364,667921,218076618,670039,213272,36142628,723052273,117171,536505966,8432,107412,1732431190,623,2.47,0.1,195267530,170985000,23997000,209326381,28
428840790,15863252,159240938,422796,157994055,418217,190452,34808927,402050956,12445,431740272,3225,4305,1447216178,630,1.46,0.06,108928674,107688000,997000,122845041,28
67821061,603617,42028388,75509,40400005,87029,393592,1445931,89019639,10189,67570692,15751,10097,226828442,1958,0.19,0.03,53332547,42952000,9989000,122104121,29
69320688,636646,39277127,69848,35884753,70933,435590,1354618,92648940,7248,71140744,7178,6232,233546200,2603,0.31,0.02,25177924,22805000,2073000,39386354,29
147007699,1158202,93609141,94373,90630156,94171,637725,1916078,199357446,18164,141799016,19124,7466,486518766,3485,0.69,0.04,53927650,47545000,6069000,68044767,29
129843570,525711,75951701,74567,71816159,77749,671998,2174733,159075686,16670,118256690,13176,5892,394082024,2606,0.55,0.03,43567520,40179000,3013000,57874233,29
128213358,471828,74934394,75635,70961701,77942,709218,2138629,162383037,17943,121873830,13765,4773,404139263,2608,0.53,0.03,44369984,39096000,5012000,58627607,29
143404938,1264129,92003778,93612,89136789,96203,562786,2146227,199929390,28294,144805678,22296,8287,483589122,3483,0.68,0.04,53821789,45414000,8073000,68027908,29
67796898,700297,38944587,69990,36343971,72749,536481,1441103,95005201,6356,72518042,7465,3869,239869039,2544,0.31,0.02,25817274,17704000,7868000,39860686,29
69887491,609174,41398828,73257,38447186,71568,434296,1620114,95122877,13820,75541649,4750,4229,248791404,1956,0.32,0.02,25518451,20202000,5050000,39858550,29
68951529,677975,40457490,75518,36793487,72480,463949,1594811,94143293,15727,72852361,6272,3718,245052765,2154,0.31,0.02,25341277,21054000,4010000,39626502,29
133347428,1583993,92489644,106852,94926844,99757,1913491,4441491,245948130,45682,121645390,53126,41627,442227063,12499,0.81,0.05,66150351,46861000,18944000,80268162,29
125134112,598592,72647822,81639,69411013,82434,601756,2002779,158881310,10591,123394165,12234,3549,401122413,2246,0.55,0.03,42884835,38646000,3963000,57056754,29
89338203,1401202,60585381,83348,56915847,75189,653483,2085658,140383765,18660,83829540,25919,10142,329939411,4820,0.47,0.03,37955834,29746000,7932000,52367956,29
124695348,442176,73100446,80057,70650384,80136,452805,1790721,155424602,8878,122288515,12107,2900,392839553,1951,0.49,0.02,43459275,38158000,5020000,57405041,29
72932607,477574,41768432,67381,37793504,69172,682538,1553982,92172051,11277,69165042,10229,7663,236372296,2606,0.32,0.02,25451373,21157000,4029000,39711748,29
89160644,858792,60820180,69720,60730363,66528,805061,2153719,125756481,19927,82141223,13448,10189,323035194,3490,0.42,0.02,34204429,27002000,7000000,48367863,29
70180799,588200,40510555,71414,36417274,70875,405016,1332716,89981031,5903,71165450,5374,3205,238897761,2152,0.3,0.02,24594951,20260000,4052000,38799208,29
126514196,632729,72938155,76510,69629890,78567,624932,2044584,156496848,10508,120894456,10686,5719,393178338,2597,0.53,0.02,43001020,39695000,3053000,57156395,29
89538673,1070889,58488064,76461,60382077,73187,688674,2120135,129707377,19482,82009835,22042,11069,321599362,3876,0.44,0.03,35670104,30541000,4926000,49796317,29
66306191,641496,38791890,71158,37017662,63987,376787,1236861,89987070,6259,68225675,4395,3878,230913967,1959,0.3,0.01,23979107,18757000,4936000,38242466,29
92019738,1160133,58383788,77077,58070618,73035,718702,2222198,135146244,19924,83131268,19979,9949,324314726,4138,0.45,0.03,36299467,30010000,6002000,50655354,29
125014710,661265,72939165,76554,70237652,80662,635804,2151178,162016107,14236,124263430,10970,5817,403704326,2599,0.54,0.02,44020139,37786000,5966000,58278904,29
71409128,725124,39019487,72204,36858664,72420,669757,1712864,98906414,7497,80402401,4165,3654,262206424,2929,0.33,0.02,26738644,21345000,5082000,40871975,29
94926038,1262619,60206944,83852,60122577,83937,1205542,3095534,159636700,13295,106386087,13663,13357,358611853,4290,0.52,0.03,42840145,34642000,7918000,57091009,29
70366694,623197,40933620,70279,37256073,71168,486193,1438526,93750532,6243,72376387,8180,3253,249005797,2154,0.3,0.01,25106791,19861000,4965000,39434546,29
66308413,631680,39322116,68985,36509435,65795,400539,1269709,89181566,5397,68723286,4665,3306,233664291,1960,0.28,0.02,24620314,21305000,3043000,38460776,29
54706792,362241,33767157,50631,29183675,57172,364743,1382411,65312755,11919,40926803,9786,5965,180262904,1958,0.21,0.01,17482615,14155000,3033000,31797808,29
125254286,504094,73671229,73280,69745887,75976,496373,1821038,152191698,8741,120006636,10157,3065,390334606,1952,0.49,0.02,41648799,37421000,3939000,55834648,29
69458563,287689,54834936,68716,51445539,68979,464577,1544986,112749630,12271,69994729,2558,3109,303323683,1955,0.39,0.02,30653919,28305000,2021000,44787346,29
71474004,229620,57179671,66872,51736814,68830,490930,1640644,113322633,11700,67675041,4791,3159,306344614,1955,0.39,0.02,30607194,24393000,5854000,44761927,29
90927050,1107385,58249972,72969,57693976,72600,771841,2203453,132897375,22129,83248337,20025,8684,328508908,4139,0.45,0.03,36000040,28607000,7151000,50145346,29
91121804,1363502,58969933,82885,55970267,74425,616358,2040947,139381180,18287,85788558,18721,9626,326756400,4527,0.46,0.03,37451781,26422000,10764000,51401755,29
68143408,722276,40295137,71361,36765333,73501,547573,1548723,94848692,7095,71525083,9091,6172,236685947,2605,0.32,0.02,25425118,19203000,6064000,39659028,29
98548560,863688,63676413,70946,61341025,72516,806527,2284577,127724713,21756,79391251,15307,10018,330452736,3688,0.43,0.03,35369768,26154000,9053000,49656325,29
144790985,1841407,100828120,109777,98440909,108160,1453697,3911022,249649785,37512,150738519,31529,30901,510412246,9539,0.82,0.05,67339969,52208000,15060000,81463060,29
125047870,543844,73354870,76469,69836796,77750,522634,1847654,153329653,8731,120550750,11813,4269,392358082,2146,0.52,0.02,41640414,38361000,3028000,55599387,29
126472361,550116,73454255,76799,69006137,78893,620598,1985127,158406851,10612,123333500,11994,3693,403446063,2147,0.54,0.02,42282579,39154000,3011000,56023804,29
70576013,623458,39467629,69632,36448458,71251,598680,1606253,96341077,8357,74085180,8813,5652,241669758,2606,0.33,0.02,25897388,23559000,2048000,40135431,29
92656189,1292830,59468969,79675,57262743,73035,772253,2225344,138750879,20184,84909186,15385,12315,332675439,4528,0.47,0.03,37352290,29136000,8037000,51666652,29
139934633,1231410,89789306,88599,85967432,80493,548066,2316398,195789383,24022,140336480,19018,7978,475723380,3680,0.67,0.03,52502149,45322000,7050000,66702794,29
89886988,1093841,60473080,80220,55084040,79178,758327,1749413,133145803,16646,85795714,20555,9783,321631151,4138,0.39,0.03,38576983,30528000,7878000,52838996,29
141542153,1226747,91668898,88647,87679511,87656,523758,2035911,196441471,18452,141736033,18474,9630,479813835,3483,0.67,0.04,53054848,44902000,7982000,67132507,29
76400737,424057,43533117,68498,39640236,70614,559245,1799358,94908076,18137,73337349,7273,3748,254360988,1958,0.3,0.02,26666810,22307000,4055000,40909759,29
128776265,533240,75208028,76370,70757505,83197,673638,2049878,157666727,9698,120940231,14454,4753,402976176,2146,0.54,0.02,42583839,37383000,5051000,56648225,29
117547776,806880,68617463,81688,68570791,82525,543924,1876408,157167739,7815,132887629,13417,7980,382612900,2146,0.53,0.02,42695808,40463000,2023000,56980428,29
67934678,615718,39546879,73125,37348349,72387,446409,1387848,93735703,5803,72049119,4433,3699,237431973,1958,0.31,0.02,25052703,22705000,2064000,39233034,29
127397353,522136,74214260,75683,70106486,77903,554181,1911731,155365563,12341,118874696,10608,5762,393822373,2598,0.54,0.03,42838543,38576000,4060000,57007172,29
145515149,1424632,92130725,92312,90576557,94134,779660,2363711,205483958,30088,143801387,18716,13919,486609069,4715,0.69,0.04,55192061,46990000,7998000,69467781,29
164227083,9021154,113210546,1290262,108580078,1384597,2482890,7199466,406349690,41416,155907264,31272,24099,554741856,7263,1.22,0.08,109395439,102247000,7016000,123462553,29
70432621,530232,41111640,70798,36940239,68132,439551,1305084,88499606,6546,68619779,6174,5806,234550363,1959,0.31,0.02,24143244,22906000,995000,38524106,29
100601822,1701566,65033935,87676,61927853,88689,1797371,3336642,152355205,15634,97832088,24504,12927,360312780,5852,0.52,0.03,41545795,32497000,8862000,55820920,29
73872162,483787,42770575,70554,39370533,72025,570785,1443333,94808212,8392,70798905,10643,5660,241512108,2350,0.32,0.02,25573634,22293000,3039000,39904436,29
124140717,549268,72996743,74651,69610892,77546,512402,1859046,155466315,8465,122281118,8824,4316,395617021,1952,0.52,0.02,41980359,40762000,1019000,56061122,29
87901500,1135963,58461023,70319,59715145,68839,859033,2288717,131029344,21762,82607565,20758,8705,320404278,4136,0.45,0.03,35409510,30146000,5024000,49550038,29
168011678,4843035,108516796,297878,107681525,301494,689546,2838061,303413177,21141,175612825,15157,16019,543679615,4854,0.94,0.05,82273776,74077000,8008000,96521134,29
123365010,535003,72636558,78328,69836190,79759,568303,1823840,155346514,9030,123894082,8873,3718,387290886,1967,0.52,0.02,41793151,36467000,5064000,55910358,29
65892719,625683,39341613,70648,37303875,63219,366269,1218197,91195555,6545,69617703,4124,3632,233499170,2055,0.31,0.02,24259014,23003000,1000000,38560599,29
91916820,1277243,59614944,79719,56239323,80661,1067094,2498516,136810938,12459,91445962,18220,14475,330356419,4138,0.38,0.03,40434146,33151000,7032000,54641372,29
89886465,932898,60286630,74742,61706503,71576,804038,2382238,131748433,29732,84634870,14932,6637,327172008,3488,0.45,0.03,35775013,31462000,4059000,49777053,29
79911261,549404,45959997,81316,39635924,82180,731193,2305372,99463396,12585,74025307,6902,3541,280730093,2597,0.29,0.02,28320881,24043000,4007000,42545740,29
68400416,597238,39269744,70181,36316944,65439,390212,1306721,90820076,5663,69844602,4912,4330,237647692,1958,0.3,0.01,24436662,19144000,5038000,38421386,29
121755812,565460,68458272,80816,67280631,80631,694584,2209216,164540576,16312,135732106,9593,6465,395774401,2991,0.57,0.03,44480019,41178000,3013000,58699038,29
124501075,501482,73759659,75008,69927401,76887,564273,1850220,154845164,9755,121056596,10075,3609,396834013,1964,0.51,0.02,42416142,40153000,2007000,56545484,29
65864882,769936,38340057,70329,36289688,70356,471681,1467721,94468716,6458,71672833,6344,6091,234496650,2605,0.31,0.02,25549054,22242000,3033000,39836505,29
62509487,909209,34722071,73590,34604739,73163,686867,1933611,100369493,6727,85601934,4677,7149,240718691,2996,0.33,0.02,26729421,22405000,4073000,40874130,29
64483232,1582236,48813095,87133,53369892,78022,715706,2314860,139206742,23014,70610377,40250,26233,248798929,7466,0.46,0.03,37640358,25264000,12126000,51895221,29
68443098,605780,39492281,70629,36659612,70722,406261,1348190,93719199,5443,73079784,4977,3680,241569279,1960,0.32,0.02,25136883,21886000,2984000,39498761,29
123495786,580987,71748758,78401,69655527,79275,545950,1930125,158608887,9862,122248882,11558,5969,390566346,2598,0.54,0.03,43059561,36830000,5972000,57340307,29
69535872,588229,40735302,71619,36755112,71518,441574,1373985,91529969,6775,69857014,7095,4965,239425700,2052,0.3,0.02,24525592,22366000,1944000,38531570,29
127793110,658285,73615315,80562,70944161,81347,662192,2139936,162598312,11236,125376483,9487,6336,407329980,2599,0.55,0.03,43542384,37387000,5903000,57881692,29
126743827,541808,74496024,78060,70231377,79715,608428,2186479,156787369,19699,122361767,9740,3928,401258713,1951,0.52,0.02,42249665,34937000,6987000,56495303,29
72820095,442454,41292110,70138,37993151,74003,599662,1654298,92855646,22830,70219091,8515,6680,241336514,2604,0.32,0.02,25730890,21421000,4080000,40124128,29
122958523,585359,72340232,85802,69556255,91712,574010,2020376,156973374,9159,124520383,9115,2908,389225917,1951,0.54,0.03,41919162,36636000,4950000,56019703,29
124239212,543529,72893063,75111,70084180,76967,551986,1867334,155980559,8513,122728260,10588,3064,394340599,1952,0.53,0.02,42166901,39906000,1995000,56372422,29
142046958,1294462,91573959,95190,90571416,94123,552796,2043613,200695652,19900,142939940,24218,12167,480268245,3872,0.69,0.04,54132707,45837000,7971000,68355166,29
69220781,698811,38943619,72626,35487398,76547,497915,1545990,96135525,7920,74478276,8249,6026,246762925,2995,0.33,0.02,25617563,22366000,2917000,39729319,29
87212161,1080950,57268834,76529,59015071,71191,667639,2037153,130357472,17413,83374470,16100,6161,322267161,3489,0.4,0.03,36388755,30107000,6021000,50327583,29
95082389,1071582,59851921,74961,60320234,71799,695709,2313438,136450851,29266,89862973,13031,7376,337913129,3685,0.47,0.03,36675228,30366000,6073000,50801461,29
69332910,607342,41002512,69592,37724600,71504,408102,1340971,90832953,5893,72589164,6158,4232,243021077,1957,0.28,0.01,25212672,22899000,1991000,39263080,29
69357788,496267,41006444,69363,37021716,70163,378271,1227154,87059788,7181,68810755,6437,4322,235154593,1956,0.28,0.01,24559325,22194000,2017000,38746335,29
90081227,915133,60468631,70360,60728926,70015,778970,2164751,128882762,20546,80834033,13994,8211,320191828,3490,0.45,0.03,35295187,29215000,5843000,49624143,29
303792234,7257861,187135130,3865197,185633103,3859190,4721427,16134720,599252156,254287,299776528,36556,29381,1070015236,6776,1.86,0.14,184824064,162928000,20990000,228957151,30
1070176766,11521924,616040437,9044749,618586386,9022690,1587217,24022742,1686919626,366562,1075383384,39088,125469,3588577590,1904,5.74,0.25,456394595,406927000,48991000,470677095,30
314512602,5169723,189878753,5301188,190443210,5351200,3505326,13219744,621465130,209490,312616138,37632,30008,1078567514,6775,2.0,0.12,167688519,154298000,13025000,181618014,30
849821001,9021723,387644154,7182273,387695390,7181671,4514533,22146133,1294761946,481573,851343458,47830,37679,2836885016,6779,4.33,0.23,350609429,342255000,8005000,364801516,30
883206680,14328489,476021256,5920209,474719985,5952835,3146671,28960791,1434000857,498427,897016548,52228,121403,2611822524,4037,4.88,0.23,387918439,345474000,41936000,401989289,30
885260997,14637700,476854286,5964514,474301084,5975288,3396475,29380982,1443859676,499114,899949941,48656,117486,2617259155,4037,4.88,0.24,390459393,344996000,44999000,404777084,30
370966607,5135167,198022616,3800659,197158978,3753193,3541629,13625021,667686254,221967,362871092,45380,26204,1157476877,5213,2.2,0.12,179950193,170564000,9029000,194030614,30
238340943,6480038,151745277,3407005,154675499,3401275,1656794,12149643,470625362,138296,241356948,21605,19238,843392190,2577,1.55,0.09,126418010,119062000,7003000,140720619,30
218678150,4041623,200040456,3710616,194236622,3665483,1808134,9996546,477482142,93084,210238993,12762,8648,1006204168,2376,1.53,0.08,130269689,123969000,5998000,144362843,30
731986872,4825260,444837675,4459888,442287898,4451790,1561083,12254105,1202586709,192159,742639080,43631,115710,2279763253,2573,4.01,0.18,325198872,288728000,35966000,339451190,30
255956795,6960433,180340450,6544918,183889050,6563704,2399061,14135683,616668255,166498,266164777,22159,23568,1015255298,4043,2.0,0.11,167064208,158793000,7989000,181463114,30
273881992,6991115,154361797,3524546,157412445,3522414,3828593,15536653,593436852,206753,287220121,28640,23568,968030287,5527,1.92,0.12,160440882,150073000,10004000,174677697,30
231218700,4042991,162265485,3825083,166005809,3839709,1098106,8634728,459995685,72086,238422396,21097,16239,871204549,2576,1.5,0.08,124498424,117168000,7010000,138825367,30
195605804,5830304,133558172,2155218,136961063,2165144,2291508,11296478,376541775,140988,203412802,29926,21074,708723886,3600,1.24,0.08,101890422,93596000,7965000,116032117,30
242674739,4045854,213858405,4240438,209799988,4187225,1794888,10027778,518082786,91419,239763611,12493,8690,1145247307,2376,1.7,0.09,140193227,135963000,3998000,154310837,30
403909059,12889119,195681378,3832514,197640355,3848654,12896181,35609316,885913650,992737,411145357,31897,31270,1146861275,6777,2.88,0.21,239278688,225960000,12997000,253533377,30
239764633,4267214,160664517,3851421,164642453,3869609,1514564,9551801,474595520,106053,246418919,13315,19193,882757160,2574,1.54,0.08,128055448,121752000,5987000,142313680,30
219019004,6153107,150062019,3637125,150524733,3641106,1383988,11802437,445726150,123574,224839081,14877,12315,803350232,2185,1.46,0.08,120106031,111684000,7977000,134403095,30
403798465,24305384,210868170,7214863,215664840,7229154,7492062,45436260,881393272,776845,418091257,15922,29149,1479463215,5214,2.92,0.2,237425286,226077000,11003000,251583717,30
318589241,4252820,214850460,4403095,214122861,4334329,1223225,9928621,585105268,74350,319362070,21168,19850,1276680837,2575,1.93,0.09,158212630,154832000,3016000,172400154,30
330669093,11436742,223207277,6098338,226678897,6110591,2650673,22859090,693859442,340837,337892587,24402,21490,1255791126,3504,2.3,0.13,187940622,179645000,7984000,201821576,30
814182637,14052717,496979105,6055022,500502777,6052297,11782530,34611831,1582498638,836037,826642581,71531,133616,2512691861,7160,5.23,0.3,427476590,393050000,34004000,441937990,30
456698491,11106225,241998256,6520043,242061702,6542991,2281084,22275591,801149587,294275,456112539,11553,25542,1610581566,2380,2.68,0.14,216671638,211360000,4984000,230987146,30
326713627,6875081,200351292,4843778,204283292,4867504,1720750,15084695,644991831,204996,333576694,24097,21557,1281767905,2965,2.14,0.11,174722951,164281000,9956000,189019859,30
219096869,4119116,161270704,3599037,165776444,3650952,1086936,8694163,448247314,72640,225077848,16074,17805,833996071,2579,1.44,0.08,120807125,112428000,7959000,134950049,30
217649048,4124584,150629540,3916112,155615519,3949006,1039416,8772599,447773968,72885,223252766,14090,18681,785836610,2575,1.47,0.07,120972792,114675000,6035000,135140353,30
288798918,5907583,189961449,3700230,187825833,3712002,2883600,12583541,785240708,233565,291673896,54437,142194,1041723742,11862,2.43,0.14,211029113,162614000,49185000,225083409,30
376759616,13602116,228404736,5590072,230382164,5584536,5886337,29232096,772981440,802814,387491998,22847,22546,1378753885,5073,2.52,0.17,208867916,197528000,12032000,223147863,30
807143183,8544736,471610953,5269302,467651814,5224857,4716545,19183055,1352809973,394947,816975838,118465,467921,2490638622,6620,4.42,0.23,364429213,313363000,52227000,378543576,30
353796589,4460381,216266392,4568730,216898086,4490292,1704184,10726386,619247015,107993,347264210,31802,18539,1252332424,4041,1.96,0.11,170581805,161922000,9051000,184600519,30
885036759,14503610,476448951,5969739,474473476,5993701,3376603,29294422,1446424141,500309,898578974,51841,122473,2617560835,4040,4.84,0.24,388828736,348627000,41192000,402719750,30
844226665,14469283,475595986,6128215,476085661,6102639,3596685,29819293,1416483316,515974,858947833,39531,124546,2585323897,4035,4.74,0.23,383022721,348927000,35093000,397100123,30
372474480,13656665,216640974,5106265,218273131,5143900,2785329,23657918,909133022,406826,386207008,19026,118109,1325041124,3847,2.84,0.16,247278706,210658000,37116000,261265136,30
376129923,28654056,176822635,4458547,177886673,4445410,10415224,47083567,832774345,2041082,385793598,17564,24086,1148318664,5606,2.78,0.21,224688343,214988000,10046000,238899695,30
403955797,5851344,208988865,4041773,213024530,4062226,2899591,13783651,912643858,328207,413003759,24712,156296,1292975222,4622,2.9,0.15,246008874,211327000,35054000,260028494,30
211822035,4306680,137050932,2101958,136209511,2019680,1121477,8036399,358634036,44281,204123810,17421,12700,749688264,2965,1.2,0.06,97414379,89373000,8033000,111626807,30
245191009,3466720,165170019,4334507,163608456,4288997,1072896,8129987,503269428,41835,242473156,10654,10417,954911026,2183,1.64,0.08,135472612,127469000,8029000,149656296,30
684736974,6167601,415883718,3397338,410687143,3392980,1231551,13154812,1064805371,178817,680886739,36566,109138,2034767679,1691,3.61,0.16,287151559,243412000,44074000,301271672,30
246562694,6692421,165496363,4028913,169347584,4049950,1829941,12842797,734088130,245428,254873735,153042,127289,894061856,4041,2.31,0.12,197687797,143596000,54225000,211941223,30
240093891,4460928,156672778,3453038,159245490,3455968,1592846,9776448,478966428,74464,245448085,20850,27076,871383078,3653,1.56,0.08,129466311,121402000,8026000,143854684,30
270274945,5529887,172903052,3927055,176091229,3938815,2574709,11804920,533224158,179774,277298514,23276,25144,953474031,3602,1.76,0.1,143606966,134599000,8973000,157747122,30
232281633,3678702,149692070,3387998,153891462,3448542,897518,7673484,446530622,41016,233919965,16261,18144,840226802,2380,1.49,0.07,120749263,117646000,3016000,135129518,30
222104698,4490297,149066304,3489340,152690634,3539420,1094483,9076177,452836950,76844,229167419,15083,20389,800626526,2965,1.47,0.08,122708060,115623000,6977000,136720006,30
423278682,19757767,262260715,5846023,261688357,5859295,17690536,49975533,978841405,1422135,428674403,39421,33071,1346949356,7168,3.19,0.28,264446015,255494000,9017000,278629047,30
310531375,5053337,209137914,3985896,212244744,4000011,1661707,10394840,582948304,78457,313911167,26462,21944,1123472227,3653,1.94,0.1,157374972,153320000,4008000,171404669,30
219353270,4025411,200479731,3743539,194125782,3693513,1915660,10033897,478742433,93455,210233208,13990,10164,1011561526,2376,1.58,0.09,129859092,125678000,4021000,143929101,30
319752032,6743663,212745152,3675667,211610246,3665552,2677346,13828193,650502684,120643,328718222,13125,15144,1359025381,5046,2.08,0.12,178238785,167075000,11004000,192600753,30
450747255,13674197,255097904,5235368,253141083,5198637,3497504,27625124,1005198759,497356,438899346,48906,121190,1530287592,4042,3.23,0.18,271223382,241047000,30130000,285442428,30
623946589,14096795,317564716,5587369,319412610,5549223,7486276,39073506,978141792,461534,627047313,38805,38350,1967078949,5607,3.26,0.21,264136657,257046000,7028000,278454670,30
208504222,3992970,142678441,3400727,145953320,3452301,1608446,8761151,448526181,77782,218417405,23632,20545,753738300,3848,1.46,0.08,122290832,117162000,5006000,136430499,30
276673699,4478152,182745135,4072563,186679282,4089176,1204157,10196597,729096348,180588,285557892,16031,117591,1043586352,2573,2.27,0.12,197352002,158183000,39045000,211322087,30
309726371,4423108,200248386,4381068,200898935,4322779,1630019,10199625,571916576,106025,314472262,15554,16145,1221273261,2576,1.83,0.1,154430403,152245000,2003000,168867035,30
233906815,4149128,155092448,3532415,159290666,3553573,1548987,9105530,469443891,75050,243357148,18968,24435,864863877,3456,1.54,0.08,126508260,121366000,5015000,140457136,30
398144308,12894353,239237728,4902305,240105606,4895454,3523521,27001253,749815301,478849,400357858,17924,19862,1482915896,2967,2.51,0.14,203674518,200554000,3008000,218010442,30
210222798,3998229,140017136,3409479,142637354,3412583,1246589,8624076,430097845,78396,216058947,16070,16874,766990858,2965,1.42,0.07,116084479,110988000,4999000,130097782,30
740808752,4344839,454791047,5456354,454160472,5456406,1839278,11810260,1245819065,272057,753991437,32249,509404,2325333707,2568,4.19,0.19,337771353,307763000,29977000,351923095,30
215756445,4776962,140285614,2464707,144907327,2455064,1188805,9457174,590532908,174424,223390204,87314,114413,748376953,2090,1.85,0.1,159738205,124412000,35116000,173995183,30
263957029,4630768,177326066,3663572,183247860,3716290,1624831,9768543,500688387,74419,269349698,24070,21557,972620962,3654,1.65,0.09,135066310,131809000,2995000,149172504,30
883987142,14666936,476451966,5921038,474159444,5926786,3450660,29132275,1444726678,494427,899184471,55546,121516,2613206463,4036,4.84,0.24,390268385,375196000,15047000,404533014,30
707968958,6994732,437713057,4588732,437851947,4595996,2152570,14561855,1187254704,294335,722270373,39072,117205,2184436099,2570,3.91,0.18,320898118,307728000,12988000,335223031,30
887003905,14431400,477507268,5980090,474617338,5985683,3572126,30137161,1443911852,501304,899345936,68442,121897,2617681953,4036,4.88,0.24,390418501,364344000,26024000,404629702,30
357500601,12513492,197299446,6344401,200947993,6360764,3213372,25876015,722776627,325217,368403118,23973,24816,1187341690,3849,2.4,0.14,195473081,188268000,7009000,209553750,30
380819767,9831193,227307737,6469750,229565469,6480060,3649897,21263909,776635028,472396,389846330,20824,22719,1461601865,3992,2.49,0.15,210990913,199804000,10989000,225153403,30
245350564,4187796,169199460,3864544,172086154,3870106,1061101,9062249,477694981,75617,249750585,21871,17661,916471265,2574,1.55,0.08,129428369,123297000,5965000,143597059,30
411317022,11477154,244102261,7545248,242635694,7500328,3320891,25099294,778143768,419921,398085570,33030,21389,1391065930,3651,2.62,0.15,210643106,202452000,8017000,224943634,30
747669666,5449408,454731172,4776689,457379429,4777229,1801553,13546843,1204946451,221512,756239642,34147,125362,2347905981,2570,4.03,0.18,326144480,307038000,19002000,340437408,30
31888984,4586683,34966779,3307147,31138352,3152679,1044469,8257404,177421116,25858,31878046,8680,4935,224454890,1821,0.56,0.04,48559106,43223000,5026000,62859789,30
793068421,13925760,475982539,5524660,480115174,5542030,4635356,28482047,1401348785,747960,809207061,35265,124185,2593574382,3982,4.7,0.24,378441894,347359000,31032000,392536458,30
762098716,4863882,466165205,4934261,464772599,4931442,1927457,13221246,1226402880,199299,746009310,36777,122271,2336248910,3646,4.1,0.19,332595480,317426000,15020000,346784370,30
227453498,6225801,150419168,3957734,146098019,3933306,1078701,11972606,608790398,149288,226918751,14332,203459,762953693,1700,1.9,0.1,164937103,141630000,23102000,179044572,30
276802324,6991072,176813968,3863934,175836112,3812402,2350593,14303762,523216173,138062,276996456,37968,27090,935886257,5997,1.72,0.1,141077312,128866000,11987000,155271447,30
247054243,8891808,181585736,4981967,181268628,5009562,848109,14814384,504684524,29388,247909800,22560,11109,961293247,2279,1.68,0.08,136416479,132187000,4005000,150387106,30
249054709,10233881,153865524,2375542,157057868,2389539,3088922,18349193,507479489,356489,255590171,33392,28645,884590272,7823,1.66,0.11,136386425,123128000,13013000,150668083,30
222554890,13936399,197357541,2685509,197419476,2685167,4704619,25570650,574769724,1317893,222647419,14062,19361,987035958,3405,1.91,0.12,155314260,147969000,6998000,169523456,30
737416646,4748079,457430580,4765987,452830057,4753810,2081684,12297903,1187879787,195411,728309183,55715,117004,2294848694,3449,3.89,0.18,320768369,289449000,31048000,335173482,30
326435845,10323773,191267735,3678339,193044197,3615391,4601527,21585579,590543163,487525,335595132,17343,24609,1126394173,6388,1.92,0.12,159585577,150336000,9020000,173639498,30
266113852,12895626,171246401,3922663,173021543,3879600,3972845,24273531,567066170,481498,275170933,16744,17872,988040782,3405,1.82,0.12,155151766,148930000,5997000,169705685,30
262511280,12253335,201112581,3780466,201488554,3766056,8083656,28350792,682300351,3669699,264742839,24890,31963,1144607703,6667,2.2,0.16,188358447,173129000,15011000,202487260,30
763799229,7186474,503527294,2207015,505475483,2204976,285278,16000260,1216539255,132341,771236032,36784,109862,2744042393,356,4.1,0.17,328738263,314655000,13984000,342937569,30
275379106,4782247,183006920,3966462,186855983,3983556,1527573,10828481,728668990,209642,283848049,17829,117754,1025436099,2571,2.28,0.12,197018309,157770000,38943000,211031648,30
12274245,208300,57276022,6868889,57175238,6869315,117500,2430687,491235425,15871,12648494,2516,4607,211431059,129,1.31,0.09,164394037,161968000,1999000,225093060,31
12236200,230848,47431031,7118053,47407139,7132762,116382,2227495,524263988,13404,11557384,1595,3569,155508906,134,1.43,0.07,142761344,141492000,996000,156915544,31
12003409,211094,58571069,7390177,58676230,7382973,120336,2411601,589460904,16052,12117713,1941,4459,275546964,134,1.76,0.08,160194031,158793000,998000,174283287,31
230980641,291424,198527327,947974,199122570,935887,103507,2382896,605792623,15257,231202138,2544,5289,941083288,136,1.98,0.08,164323077,163050000,1000000,178624513,31
46589995,54027305,103425916,6438669,103671726,6452293,77524,1725184,410550997,10367,47275758,1240,2765,484037866,90,1.32,0.06,110869726,109587000,996000,124799400,31
6324895,721048,12742087,614440,14379958,603080,903897,3078752,366336777,19907,8832999,12471,10932,83723388,3204,1.01,0.06,99858554,92598000,6969000,113980619,31
11684546,172398,57575818,6755757,57676623,6776352,132077,1378745,244863212,7195,11565049,880,1989,246383960,130,0.66,0.04,68721834,66457000,1983000,82832537,31
514547577,8118154,440296649,2226426,441606898,2233806,8508277,16624917,999622078,134953,512456033,130056,125292,2144574522,35933,3.46,0.2,269978714,219691000,49929000,284108156,31
12001111,212058,57394936,6987963,57395043,6950611,123520,2049957,484054682,13309,11795316,1633,3901,210838166,133,1.4,0.07,130803459,128438000,1991000,145037717,31
12412704,237727,46840195,6612471,46899526,6624378,119972,2161400,521503093,12814,11569435,1160,3781,195170520,129,1.46,0.07,141179022,140827000,0,155311218,31
12123547,255049,69266979,7111433,69376354,7123105,114762,2303279,545055833,15011,12025517,2192,4688,229626419,132,1.6,0.08,146882582,144598000,1994000,160960735,31
11798292,197924,58368061,6990816,58698759,6952966,186387,2323472,534782812,14807,12802619,1802,3695,210042390,134,1.57,0.07,144052076,143531000,0,158197778,31
65093679,635885,38437626,250955,35902261,236784,791711,2250277,249161024,20033,63669914,24838,14394,304572339,4046,0.73,0.04,67778794,61585000,5959000,82138215,31
48362766,252965,72508451,7236967,72568283,7227252,110524,2382699,593821326,15484,47852421,2085,4746,357649510,138,1.81,0.08,161014771,160600000,0,175218943,31
12620800,239563,58021028,7427955,58070445,7470508,150642,2074577,504937238,12809,12387424,1940,4164,215277729,133,1.42,0.07,136028602,134509000,996000,149960366,31
15433648,240267,46725247,6141976,46881314,6179197,117438,2106116,506605727,12899,14879467,2010,3923,165172327,136,1.38,0.07,137058988,135769000,998000,150918897,31
12303101,132696,6872813,78348,6778373,77421,90197,669963,73073087,3037,12394178,932,1286,44243900,137,0.22,0.01,19572614,18253000,1014000,33692088,31
11888143,218426,57098734,6295623,57158386,6309863,118376,2188700,524866608,13869,11611762,1541,3506,206348826,133,1.55,0.07,142102760,140794000,998000,156033523,31
12011197,213842,56859351,6763368,56805449,6750671,105520,1821694,451575596,10990,11384670,1342,3457,215033461,140,1.23,0.06,122917267,120547000,1992000,136932774,31
538398420,8663388,468058600,6806121,472959232,6848102,10516225,20510100,1514011159,161889,530603006,249417,145488,2182746308,42081,4.81,0.29,408099180,343829000,63968000,422159145,31
524326825,8312814,460758950,6713112,465266618,6790057,9541783,18955340,1501086086,139256,527294294,140989,130809,2202325521,35930,4.76,0.28,405767429,361416000,44050000,419965373,31
12344698,220006,59017492,6720922,59255302,6704227,131112,2127727,483462407,13423,12059238,1809,3315,255259290,126,1.36,0.07,130330435,130060000,0,144729263,31
11628660,178233,54281768,8221681,54162098,8211006,119519,2068629,476369108,13688,11838249,1451,3816,204465669,132,1.34,0.07,129053362,127676000,1005000,143309480,31
12648098,236528,45675636,6256317,45717128,6255521,110452,2180783,520929749,13005,11617030,1465,3489,173670542,132,1.52,0.07,140969704,139681000,1004000,155236546,31
11653071,183414,46714272,6290530,46772794,6312112,107855,2198419,527208351,14588,11859437,1564,3587,151459213,132,1.54,0.07,142723940,140428000,1991000,156983132,31
124667722,184704,76126543,6963689,75960063,6947452,110197,1575406,332481603,9275,125502472,1384,2806,538529192,134,1.0,0.05,90261406,89021000,1000000,104422804,31
12536688,235037,57612765,6986537,57702207,7024959,101246,2040688,502259173,13341,11820216,1952,3876,211199006,128,1.42,0.07,135495464,135217000,0,149443900,31
285992317,330894,239232927,5054077,237666007,5040610,152710,3139329,797356669,20676,284185182,8144,11868,1042005019,134,2.44,0.11,216553345,215921000,0,230525538,31
12368857,235647,57449597,6854669,57513379,6861053,102482,2095124,492662809,13504,11887139,1760,3772,210493637,133,1.43,0.07,133353703,132073000,1000000,147657979,31
11765847,127122,57132618,7219104,56933655,7224918,104321,1376855,298665622,8554,11331326,1128,2425,224565493,133,0.88,0.04,81699777,80488000,1006000,95636522,31
12363094,219667,58109545,7332316,58143602,7352740,235831,2168635,498343704,13161,11792118,1801,3850,213322361,133,1.42,0.07,135628656,134330000,1002000,149865093,31
44656295,187577,57431799,7114181,57347280,7153209,98508,1350319,297277959,7310,44596935,1303,2474,276841503,134,0.91,0.04,80426782,78154000,2003000,94335383,31
23327702,109037,8203769,66403,8115943,66385,111726,670906,54544643,2240,24190706,187,673,85997484,134,0.16,0.01,14860495,14637000,0,28932624,31
19328184,121549,8046509,60705,8051004,60620,95935,634514,54917755,1583,20614924,151,387,80561933,135,0.17,0.01,14503640,13184000,1014000,28425928,31
11663692,215662,58068638,6899065,58169295,6941123,112078,2155875,508733923,13727,11637686,1627,3496,209143567,133,1.38,0.07,141082464,140864000,0,155019862,31
12223888,219691,53192414,6397673,53034712,6385828,107087,2049121,483109531,13084,11758877,1865,3735,205285369,136,1.35,0.07,130834711,129551000,1004000,144927485,31
16980832,501702,71935735,7110320,72185039,6974735,356832,1995301,339492919,13807,16771608,8908,8777,366560381,2177,1.02,0.05,91969769,84707000,6975000,106233906,31
12385254,225682,47393633,6948732,47212429,6911787,116840,2215468,535176029,13982,11914843,2061,4138,220190828,126,1.51,0.08,145512340,145208000,0,159780246,31
12310405,244699,56395602,6245141,56467429,6259922,202181,2218576,524348930,14276,11587407,1848,3513,210214943,134,1.53,0.07,141983411,140579000,997000,156066325,31
11694769,203657,47242504,7199196,47311831,7220197,120430,2234957,527556703,14444,11934899,1684,3841,155924615,127,1.48,0.07,142697535,142409000,0,156756121,31
12200272,235591,58139124,7376466,58291591,7429874,121474,2086996,504064224,12446,11797468,1832,3837,206168838,133,1.39,0.07,136032900,134723000,997000,150003116,31
11849090,198839,57531146,6970850,57591022,6971517,106651,2047959,489102807,13774,11830246,1922,4318,212664511,132,1.41,0.07,132544132,131303000,994000,146646273,31
12027623,224359,57929214,7052783,58071941,7045992,113143,2254952,560345113,14542,11805257,2342,4832,222370242,133,1.65,0.08,151333631,150063000,993000,165243066,31
12127520,210192,56337332,6253722,56286399,6266337,156469,2245734,522053801,14326,11558662,1677,3504,209173632,134,1.54,0.07,141586800,140197000,1001000,155739285,31
277486291,369336,268172650,18694559,268090018,18736169,132362,3737702,1031836751,25656,277529669,3281,8952,1611155852,138,3.24,0.14,278218030,276957000,999000,292140677,31
370770220,307815,342808658,6150773,343023495,6150116,142635,3489812,936027197,23131,371771829,2990,9100,1658002402,134,3.04,0.13,252787076,252515000,0,266942774,31
12362911,221109,54154120,6890219,54143863,6865415,116024,2141424,541348754,13910,11987702,1647,4036,268324910,133,1.64,0.07,146262113,145987000,0,160516659,31
23215047,230292,76905059,6781746,76975656,6786432,116207,2011967,508483680,12613,22278678,1569,4203,259253718,130,1.44,0.07,137610522,137255000,0,151758896,31
165753252,223385,131206813,6230176,131088441,6234187,124422,2001941,468623752,12155,166080403,1306,4157,834167460,132,1.55,0.07,126275953,126006000,0,140473441,31
12383033,244496,69921090,7246607,70176463,7257495,123015,2261709,546419393,14774,11838639,2025,4112,193084471,132,1.54,0.08,147708536,146357000,1002000,161933524,31
164970226,193000,131039105,6223655,131352619,6228656,101017,1952201,492388653,13481,165141291,1547,4171,902276823,130,1.65,0.07,133343199,132011000,1000000,147543289,31
164691301,184777,131182307,6313291,131106197,6307619,112990,1948431,465320052,11778,164223334,1118,3828,817854125,137,1.58,0.06,126307856,124955000,999000,140574818,31
165945271,240729,131420312,6257712,131238316,6267842,111845,1975319,465763062,11078,166275036,1338,3633,833826384,135,1.58,0.06,126018126,124624000,996000,140176801,31
12299963,229762,46598595,6419292,46809977,6441345,116296,1940105,512280043,12081,11622522,1205,3979,151504625,133,1.45,0.07,138423850,138145000,0,152463731,31
72898003,180980,64404759,5574601,64483572,5570234,107326,1355919,260518201,6750,73517559,936,2174,390303404,134,0.79,0.04,70262721,68927000,998000,84384495,31
12249711,236396,47840763,6681185,47892766,6715036,109801,2026076,505240753,12688,11617595,1510,3874,210467242,133,1.45,0.07,136882315,135530000,996000,150861748,31
11571961,128771,47873778,6809688,47870734,6818488,102757,1357470,276822986,8394,11611911,1251,2387,334378698,130,0.8,0.04,75375043,73167000,1977000,89431342,31
15976259,616582,330190272,26012757,330087009,26052506,178454,6963648,1968304731,49561,15702447,6829,14088,1402568609,133,5.56,0.27,532494583,530075000,1996000,546746176,31
11520745,157154,87981903,4150164,88588780,4104016,102064,1201345,227333269,6615,11192718,1082,2049,313758769,132,0.63,0.03,61672369,61418000,0,75870907,31
13079770,230719,45859118,6629276,45883911,6642221,120278,2186889,508836026,12715,12662870,1614,3724,152737381,135,1.36,0.07,139061206,137726000,998000,153337139,31
12577518,267147,58798905,8343688,58472099,8307281,159993,2265953,539612463,13830,12559294,2076,4084,212293841,133,1.52,0.08,145163916,142787000,1997000,159396587,31
12075911,207225,52978872,6277311,52759573,6287571,105994,2007224,475123693,12457,11425749,1300,3174,204698551,128,1.35,0.07,128619054,128348000,0,142710050,31
14733045,141308,6314734,93710,6306332,96594,93261,869871,114062024,4513,14986695,1006,1651,54889306,130,0.27,0.02,33345762,33128000,0,47569024,31
450324793,344523,312483953,7297243,312208868,7303776,138778,3613018,974192927,24696,450905685,3426,7941,2064824324,136,3.38,0.13,263131592,262892000,0,277081954,31
11797561,220628,58836040,7086575,58944527,7090891,104016,1977394,491755027,13179,11744324,1819,3809,213963212,134,1.39,0.07,133561713,131346000,1990000,147594762,31
11816030,187302,56257950,6169887,55993355,6144047,256803,2203669,473050177,17402,12897503,2953,3457,280123454,1112,1.33,0.07,128102076,125653000,2010000,142221262,31
12718868,249886,57635842,6882510,57753171,6895571,137669,2168963,510678266,12966,11614508,1915,4650,265144279,133,1.44,0.07,138815194,137488000,1003000,152749700,31
12439468,236777,57475880,6965773,57549539,6977116,116160,2056120,501952871,12418,11591256,1587,3818,201179783,134,1.37,0.07,138270148,136988000,999000,152452300,31
12194036,214957,59242847,7209076,59292617,7192857,107275,2066620,485401256,12775,11721658,1853,3752,214364249,129,1.39,0.07,131844072,130429000,1003000,146044461,31
11932169,207088,57187039,6973327,57173384,6991492,115859,2249861,542132552,15194,11890551,2333,4478,271116075,132,1.51,0.08,146995524,145734000,998000,161006896,31
12956454,248755,47008578,6392362,47039563,6402316,158538,2352751,531647845,15266,12026253,1611,3556,160583624,137,1.56,0.07,143540459,141200000,1988000,157781417,31
11820411,216471,58445248,6955966,58436514,6944484,106286,2184450,540634898,14233,11855472,2250,4073,212990771,132,1.58,0.07,146709293,146426000,0,160770619,31
12338248,229560,57458866,6975776,57505367,6996487,125580,2049498,509792715,12756,11638053,1764,4389,215592751,135,1.46,0.07,137204218,136931000,0,151559049,31
37304057,1625187,20984880,99194,24972198,101843,1003827,3504963,106712695,30778,36712495,24657,19484,115957594,6147,0.34,0.02,28594598,17568000,10736000,42709383,31
9083364,132093,5358683,71869,5309102,72040,97452,559690,45956986,1455,9300328,116,743,48033471,133,0.14,0.01,12405142,12203000,0,26482673,31
13252568,248879,45885075,6371708,46079614,6373082,112784,2309670,544958607,14993,12979384,2211,4129,216853867,130,1.59,0.08,147096773,145813000,998000,161285137,31
12157280,230839,46792119,6566788,46844129,6574558,115861,2141718,526538687,13804,11762508,1518,3848,226783580,133,1.45,0.07,142303997,141032000,1000000,156563383,31
12588147,232766,47306721,7094514,47420160,7096890,114695,2088820,519481333,12445,11595064,1323,3777,154873876,133,1.42,0.07,140584983,139252000,994000,154801391,31
12125129,222414,58278233,6947116,58261816,6962986,123953,2243313,529238354,14043,11756802,1515,3516,269788589,129,1.46,0.07,143208401,142871000,0,157354399,31
11779520,130932,5540606,90991,5542207,88492,101382,638655,48772153,1405,12281658,279,604,40064802,134,0.14,0.01,13129564,12920000,0,27221020,31
